129
chr20 3D structure from Hi-C (resolution 500000bp)
C 0.027490 3.047916 0.328080
C 0.189201 2.900961 0.221390
C 0.291702 2.862858 0.182180
C 0.372462 2.875486 0.103173
C 0.495543 2.784584 0.047576
C 0.422389 2.602001 -0.072080
C 0.384214 2.489762 -0.180702
C 0.212574 2.381157 -0.306291
C -0.058936 2.438314 -0.314577
C -0.348759 2.294580 -0.530687
C -0.631420 2.201375 -0.821589
C -0.932014 2.103815 -1.100356
C -1.130082 2.205113 -1.343997
C -1.356297 2.215544 -1.566827
C -1.505239 2.174788 -1.748931
C -1.693406 1.958343 -2.010675
C -1.790320 1.908295 -2.144694
C -1.822314 1.704141 -2.075149
C -1.868515 1.517580 -2.001880
C -1.841572 1.201271 -1.959888
C -1.868464 0.919060 -2.073520
C -1.902702 0.790051 -2.276388
C -1.889012 0.716271 -2.411956
C -1.980899 0.683101 -2.241457
C -2.139676 0.749173 -2.046941
C -2.408646 0.820294 -1.899340
C -2.561199 0.995497 -1.634487
C -2.699471 1.154217 -1.319068
C -2.881914 1.176413 -0.894668
C -2.956860 1.163334 -0.518401
C -3.011897 1.101089 -0.382033
C -3.046119 0.900536 -0.379792
C -2.960035 0.835801 -0.045407
C -2.915363 0.765344 0.083434
C -2.787916 0.734886 0.293951
C -2.708487 0.695876 0.430715
C -2.654353 0.691901 0.620444
C -2.664051 0.615928 0.845700
C -2.758635 0.584519 1.088108
C -2.749366 0.391316 0.923141
C -2.708244 0.113442 0.640729
C -2.752977 -0.249870 0.323332
C -2.767740 -0.491809 0.163030
C -2.838747 -0.763669 0.082637
C -2.693058 -0.959011 -0.156582
C -2.461542 -1.097999 -0.448150
C -2.399736 -1.389628 -0.590251
C -2.428219 -1.542655 -0.662914
C -2.359259 -1.632122 -0.882232
C -2.234881 -1.714503 -1.384792
C -1.528417 -1.099676 -2.021383
C -0.843785 -0.442772 -2.438006
C -0.107814 0.136960 -2.776385
C 0.749781 0.696615 -3.236550
C 1.407627 0.930413 -3.626661
C 1.924775 1.132349 -3.858929
C 2.430737 1.217537 -3.881492
C 2.282367 0.618030 -3.958945
C 2.031194 -0.174236 -4.052115
C 1.578032 -0.842873 -3.972368
C 0.918930 -0.972062 -3.042823
C 0.565427 -0.729496 -1.997094
C 0.429354 -0.420755 -1.069405
C 0.302140 0.009349 -0.132510
C 0.202140 0.555702 1.013157
C 0.125774 1.293872 2.036928
C 0.255899 2.031230 2.848984
C 0.643519 2.335639 2.864651
C 1.080885 2.522813 2.687095
C 1.385671 2.596006 2.635439
C 1.637706 2.673063 2.639882
C 1.838407 2.538293 2.575719
C 1.916817 2.227317 2.569708
C 1.854587 1.841441 2.560736
C 1.633125 1.432915 2.553465
C 1.075252 0.851597 2.724384
C 0.557591 0.373835 2.869179
C 0.049260 -0.196375 2.834840
C -0.278629 -0.645649 2.710868
C -0.516756 -1.010141 2.758003
C -0.665750 -1.353057 2.692392
C -0.745028 -1.612181 2.526894
C -0.714479 -1.766872 2.340052
C -0.547151 -1.847508 2.185297
C -0.328758 -1.703252 2.216728
C -0.128984 -1.618945 2.235548
C 0.156227 -1.474265 2.165627
C 0.512044 -1.341846 2.198614
C 0.849716 -1.144232 2.334218
C 1.273329 -0.765245 2.452302
C 1.576323 -0.639478 2.439989
C 1.855649 -0.669137 2.405592
C 2.181916 -0.570211 2.386002
C 2.327272 -0.539885 2.203042
C 2.413552 -0.401806 2.134823
C 2.681814 -0.305023 2.008126
C 2.825837 -0.301503 1.835659
C 2.883841 -0.140736 1.767451
C 2.772048 -0.208624 1.675818
C 2.483724 -0.504097 1.516693
C 2.209285 -0.710143 1.355998
C 1.767225 -1.199942 1.113564
C 1.178200 -1.745224 0.899125
C 0.706912 -2.168867 0.773273
C 0.342624 -2.575715 0.700873
C 0.086022 -2.731682 0.475086
C -0.122056 -2.894185 0.273815
C -0.149414 -3.160704 0.084980
C -0.122155 -3.089189 -0.188700
C 0.031055 -2.977723 -0.298661
C 0.139092 -2.925022 -0.406316
C 0.291636 -2.764597 -0.499364
C 0.564949 -2.722545 -0.478196
C 0.914215 -2.460917 -0.403179
C 1.125888 -2.124594 -0.344318
C 1.385176 -1.935042 -0.191737
C 1.457243 -1.772259 -0.214085
C 1.454532 -1.809749 -0.404743
C 1.468427 -2.071689 -0.690736
C 1.432444 -2.113979 -0.995868
C 1.410406 -2.276806 -1.247607
C 1.631573 -2.264982 -1.352606
C 1.847475 -2.090226 -1.392434
C 2.227040 -1.752610 -1.322420
C 2.686426 -1.241898 -1.187447
C 3.176717 -0.675668 -1.208716
C 3.465563 -0.359326 -1.085033
C 3.781515 0.114593 -0.960815
C 3.893539 0.494677 -0.933881
