129
chr20 3D structure from Hi-C (resolution 500000bp)
C 0.021571 2.985078 0.374697
C -0.035692 2.858066 0.555750
C -0.032838 2.849360 0.648335
C 0.011504 2.905777 0.681597
C 0.009413 2.883756 0.790154
C -0.176024 2.849241 0.836440
C -0.196033 2.758822 0.686944
C -0.247143 2.641628 0.473405
C -0.275184 2.705900 0.133148
C -0.472951 2.639190 -0.208367
C -0.785895 2.545119 -0.641790
C -1.012214 2.410864 -1.057010
C -1.094690 2.455238 -1.393952
C -1.313802 2.406991 -1.662954
C -1.490456 2.312075 -1.857232
C -1.623722 2.121371 -2.046188
C -1.622420 1.972904 -2.247582
C -1.583815 1.735913 -2.212355
C -1.597919 1.503946 -2.174738
C -1.555296 1.247901 -2.130170
C -1.493696 1.031525 -2.266618
C -1.434346 0.831769 -2.508075
C -1.571554 0.671631 -2.603128
C -1.681121 0.550261 -2.430217
C -1.799533 0.508368 -2.372448
C -2.103760 0.547440 -2.295787
C -2.320165 0.588871 -2.154019
C -2.522835 0.772372 -1.794233
C -2.725524 0.888417 -1.347739
C -2.731661 1.009061 -0.990052
C -2.804331 1.026178 -0.867185
C -2.891894 1.007165 -0.732468
C -2.718136 1.145113 -0.343984
C -2.674018 1.164441 -0.107084
C -2.581397 1.126891 0.112271
C -2.535663 1.158327 0.315243
C -2.529265 1.089868 0.501990
C -2.522490 1.092960 0.738225
C -2.598287 1.101955 0.912531
C -2.742153 0.852027 0.854823
C -2.684676 0.534545 0.540272
C -2.740340 0.204083 0.205623
C -2.757821 -0.079371 -0.079783
C -2.887405 -0.276187 -0.098454
C -2.795475 -0.506131 -0.288570
C -2.556737 -0.769460 -0.450625
C -2.543722 -1.108041 -0.595405
C -2.659841 -1.225347 -0.450338
C -2.602568 -1.398836 -0.507046
C -2.456145 -1.616728 -0.880520
C -1.669613 -1.167162 -1.577209
C -0.962421 -0.623200 -2.058911
C -0.171659 -0.136106 -2.496193
C 0.794870 0.307132 -2.999948
C 1.558496 0.471089 -3.512638
C 2.177492 0.532924 -3.812830
C 2.641490 0.584070 -3.870518
C 2.406735 -0.029756 -3.899492
C 2.093765 -0.638955 -3.990559
C 1.708024 -1.121284 -3.827562
C 1.457166 -1.155851 -3.410957
C 1.404514 -0.859013 -2.779975
C 1.380292 -0.473223 -2.071802
C 1.503093 0.052732 -1.315296
C 1.809334 0.651380 -0.558410
C 2.162930 1.223719 0.135009
C 2.518935 1.768456 0.495346
C 2.645631 2.055801 0.894359
C 2.727107 2.252555 1.164512
C 2.793881 2.400615 1.361713
C 2.814101 2.439513 1.539018
C 2.653163 2.380170 1.842696
C 2.296200 2.231212 2.228993
C 1.909270 2.020136 2.590551
C 1.437398 1.680385 2.746186
C 0.862828 1.188819 2.812357
C 0.331582 0.678699 2.800307
C -0.212981 0.301049 2.752386
C -0.563338 -0.066938 2.712501
C -0.834740 -0.403771 2.772159
C -1.076365 -0.752106 2.760692
C -1.168142 -1.069357 2.610802
C -1.186369 -1.286079 2.514505
C -1.048095 -1.329985 2.436689
C -0.836398 -1.365282 2.487635
C -0.684851 -1.278263 2.445343
C -0.428096 -1.147398 2.407846
C -0.158344 -0.964354 2.495777
C 0.147401 -0.861765 2.613283
C 0.519509 -0.697536 2.753059
C 0.824563 -0.577033 2.875038
C 1.033106 -0.522018 2.859184
C 1.322353 -0.528103 2.896892
C 1.529165 -0.641967 2.746154
C 1.778287 -0.683446 2.645069
C 2.087693 -0.586362 2.604917
C 2.285833 -0.503497 2.427537
C 2.367176 -0.467599 2.270773
C 2.431354 -0.554409 2.130109
C 2.207200 -0.847284 1.964733
C 1.906078 -0.994985 1.785767
C 1.432121 -1.395123 1.577712
C 0.938911 -1.829642 1.296714
C 0.489230 -2.114770 1.093103
C 0.397788 -2.194075 0.797622
C 0.078208 -2.358557 0.615922
C -0.083321 -2.515357 0.291754
C -0.163417 -2.730998 -0.029358
C -0.095669 -2.705315 -0.350889
C 0.007740 -2.633402 -0.508683
C 0.067570 -2.597962 -0.585494
C -0.075748 -2.695606 -0.470316
C 0.117542 -2.723997 -0.389821
C 0.392811 -2.628034 -0.158282
C 0.672869 -2.475492 0.050035
C 0.846011 -2.460175 0.279358
C 0.894531 -2.275309 0.310002
C 1.022973 -2.429666 0.139314
C 1.056296 -2.684560 -0.113988
C 1.042794 -2.742201 -0.492156
C 1.037793 -2.755398 -0.816692
C 1.297696 -2.743767 -0.951667
C 1.638566 -2.432674 -1.078313
C 2.101978 -2.331083 -1.017403
C 2.577062 -1.895495 -0.869074
C 3.174107 -1.374766 -0.906347
C 3.526207 -1.111572 -0.753521
C 3.942426 -0.809725 -0.613362
C 4.124588 -0.476119 -0.608103
