485
chr2 3D structure from Hi-C (resolution 500000bp)
C -0.125336 4.085851 -2.064132
C -0.024183 4.053515 -1.987052
C -0.150311 3.952329 -2.042345
C -0.371278 3.789461 -2.130156
C -0.406491 3.730539 -2.202922
C -0.229593 3.717927 -2.179268
C -0.175266 3.597647 -2.154461
C -0.060998 3.628690 -2.217063
C -0.028507 3.607499 -2.275935
C 0.033670 3.531836 -2.286107
C 0.155187 3.553869 -2.263848
C 0.092377 3.463746 -2.344181
C -0.365985 3.221407 -2.462112
C -0.855198 2.864448 -2.571396
C -1.339348 2.486479 -2.616608
C -1.822951 2.119752 -2.670036
C -2.257570 1.819494 -2.702860
C -2.649833 1.516630 -2.704834
C -2.875932 1.340478 -2.653167
C -2.948761 1.270891 -2.598854
C -2.940684 1.331593 -2.547132
C -2.824146 1.398042 -2.516989
C -2.622889 1.618207 -2.522901
C -2.245482 1.948764 -2.532445
C -1.859615 2.231734 -2.621864
C -1.489314 2.494956 -2.689192
C -1.170161 2.705496 -2.713527
C -1.080375 2.805717 -2.653579
C -1.019524 2.917651 -2.601526
C -0.887701 3.012602 -2.525252
C -0.872911 3.006736 -2.363239
C -0.792144 3.111694 -2.149316
C -0.890302 3.064625 -1.963428
C -0.910187 3.134624 -1.805592
C -0.757207 3.261020 -1.764864
C -0.654133 3.408356 -1.709248
C -0.778701 3.355803 -1.644588
C -1.055411 3.218020 -1.668336
C -1.239197 3.092159 -1.660526
C -1.074370 3.202505 -1.614463
C -0.927259 3.225555 -1.566246
C -0.793496 3.257865 -1.485055
C -0.661957 3.201131 -1.404499
C -0.716304 3.111754 -1.382214
C -0.758416 2.978398 -1.370889
C -1.083373 2.653766 -1.387839
C -1.660530 2.110237 -1.378946
C -2.273432 1.552099 -1.443165
C -2.918082 0.967271 -1.438675
C -3.549113 0.450851 -1.475189
C -3.883576 0.115684 -1.521607
C -4.112859 -0.064207 -1.521002
C -4.150753 -0.070522 -1.497138
C -4.119185 0.032951 -1.516340
C -4.119451 0.155046 -1.494363
C -4.005720 0.427962 -1.560417
C -3.833050 0.734951 -1.597450
C -3.752330 0.987597 -1.583445
C -3.539424 1.290895 -1.606402
C -3.315363 1.581836 -1.587776
C -3.143333 1.822242 -1.535541
C -3.067487 1.856779 -1.487918
C -2.935338 1.961852 -1.417474
C -2.797943 2.093590 -1.359128
C -2.507711 2.295969 -1.258857
C -2.160451 2.603153 -1.093933
C -1.831855 2.846381 -1.012299
C -1.435766 3.221702 -0.989551
C -0.941030 3.683594 -0.914502
C -0.773260 3.946697 -0.886546
C -0.768967 3.901471 -0.814034
C -1.066153 3.620130 -0.869511
C -1.537112 3.189930 -0.953228
C -2.066874 2.799696 -1.011822
C -2.530297 2.337472 -1.026464
C -2.867389 2.061798 -0.995927
C -2.907922 1.899473 -0.937182
C -2.697237 2.072717 -0.885105
C -2.263473 2.508227 -0.766843
C -1.675923 2.901116 -0.651093
C -1.304236 3.189360 -0.523583
C -1.286731 3.313106 -0.459661
C -1.526767 3.167281 -0.493183
C -1.902160 2.785591 -0.505751
C -2.421972 2.416939 -0.537520
C -2.925436 1.884271 -0.567245
C -3.494657 1.483423 -0.593948
C -3.736025 1.181863 -0.629810
C -3.843709 0.958938 -0.603459
C -3.819056 0.930053 -0.534411
C -3.805522 1.009105 -0.474557
C -3.758910 1.029020 -0.439673
C -3.629566 1.136433 -0.399047
C -3.479193 1.273203 -0.352115
C -3.146989 1.551796 -0.273910
C -2.716141 2.035502 -0.184559
C -2.172566 2.491277 -0.106442
C -1.606112 2.942955 -0.037094
C -1.046518 3.324565 0.058564
C -0.527665 3.743293 0.179086
C -0.094586 4.097827 0.289700
C 0.060798 4.259361 0.429069
C 0.187094 4.287130 0.491306
C 0.185208 4.242862 0.529103
C -0.044671 4.064241 0.553397
C -0.404464 3.910922 0.575088
C -0.871551 3.653470 0.557807
C -1.383398 3.293295 0.539490
C -1.712003 3.101342 0.517013
C -1.814273 3.005106 0.537656
C -1.844361 3.016372 0.595936
C -1.642943 3.184900 0.701471
C -1.571174 3.243459 0.751772
C -1.465209 3.359920 0.818365
C -1.189083 3.603606 0.911482
C -1.090636 3.729651 0.961550
C -1.180846 3.749011 1.020266
C -1.464907 3.581427 1.016836
C -1.869345 3.266182 0.982956
C -2.231107 2.880352 0.963448
C -2.548919 2.513886 0.991734
C -2.933503 2.065742 0.942278
C -3.236769 1.751289 0.919182
C -3.397096 1.486824 0.878637
C -3.499031 1.286506 0.887175
C -3.588674 1.157286 0.927251
C -3.523768 1.133306 0.967384
C -3.407302 1.237689 1.005557
C -3.148675 1.511380 1.120068
C -2.849291 1.740487 1.236076
C -2.659055 1.957334 1.349391
C -2.441283 2.214238 1.455728
C -2.114477 2.489103 1.505584
C -1.986132 2.678177 1.566781
C -1.901792 2.757198 1.604746
C -1.999235 2.628413 1.585369
C -2.374223 2.197841 1.451997
C -2.710148 1.793678 1.354443
C -2.897310 1.546077 1.337157
C -3.085851 1.323048 1.354902
C -2.944071 1.427787 1.447769
C -2.798318 1.525015 1.514462
C -2.675956 1.567418 1.578430
C -2.534145 1.709307 1.676012
C -2.572288 1.681177 1.722122
C -2.697245 1.458048 1.645925
C -2.704201 1.352897 1.618066
C -2.729392 1.235627 1.620971
C -2.681507 1.132114 1.648169
C -2.485849 1.255737 1.730845
C -2.136740 1.562250 1.897316
C -1.528054 2.028094 2.011764
C -0.958521 2.567668 2.228941
C -0.523367 2.996102 2.385163
C -0.266809 3.212921 2.428858
C -0.075738 3.422784 2.426813
C 0.003253 3.500928 2.420126
C -0.034064 3.377863 2.348997
C -0.235675 3.181954 2.333274
C -0.250287 3.111230 2.386835
C -0.272998 3.038611 2.393384
C -0.086639 3.073431 2.379352
C -0.020327 3.050075 2.468452
C 0.080732 3.056503 2.493400
C 0.237106 3.157188 2.520248
C 0.246113 3.156878 2.589184
C -0.016467 2.901914 2.459052
C -0.346821 2.602408 2.421145
C -0.951547 2.117667 2.322362
C -1.440230 1.652293 2.137269
C -1.985534 1.279326 2.195916
C -2.639958 0.798338 2.545726
C -3.022611 0.664025 2.961336
C -2.998435 0.673003 3.006244
C -2.929931 0.692592 3.042083
C -2.669781 1.029408 3.652811
C -2.280598 1.450792 4.075013
C -1.800349 1.760338 4.409783
C -1.878438 1.021184 4.013792
C -0.805177 1.568064 3.500321
C -0.344328 1.983106 3.657434
C 0.659981 2.525687 3.283509
C 1.635718 2.871545 2.255083
C 2.412316 3.129193 1.303499
C 3.091061 3.407612 0.239207
C 4.369445 4.782567 0.398886
C 3.725715 4.190365 0.689965
C 3.203729 3.508104 0.558002
C 2.057697 2.656335 0.977711
C 0.822915 1.719436 1.401689
C -0.350827 0.802629 1.920889
C -1.653554 -0.308190 2.618093
C -2.680899 -1.234026 2.390659
C -3.010713 -1.654736 2.074486
C -3.100184 -1.815780 2.015821
C -3.021444 -1.853624 1.863830
C -2.709468 -1.666664 2.040126
C -2.493352 -1.539183 2.222182
C -2.101658 -1.223198 2.228218
C -1.903611 -1.058097 2.312843
C -1.689882 -0.895780 2.424086
C -1.480760 -0.761473 2.465827
C -1.141879 -0.543545 2.624094
C -0.752575 -0.294122 2.630340
C -0.264942 0.021535 2.675625
C 0.142998 0.276892 2.736595
C 0.507763 0.530681 2.839058
C 0.637718 0.582960 2.883636
C 0.647007 0.614657 2.976108
C 0.588178 0.541019 3.122193
C 0.503832 0.450143 3.235743
C 0.479891 0.404100 3.280002
C 0.441695 0.307934 3.410568
C 0.331719 0.195523 3.412435
C 0.185034 0.015091 3.378784
C 0.115792 -0.102193 3.285325
C -0.173739 -0.427283 3.166542
C -0.611524 -0.883785 3.256496
C -1.175528 -1.398219 3.138226
C -1.698645 -1.799655 2.941051
C -2.111903 -2.170971 2.936885
C -2.299630 -2.305246 2.815054
C -2.401157 -2.462657 2.691617
C -2.325683 -2.398235 2.607605
C -2.210724 -2.285978 2.448350
C -1.752532 -1.914048 2.516772
C -1.134414 -1.461817 2.568608
C -0.455350 -0.971942 2.681039
C 0.286048 -0.447264 2.976516
C 0.945901 0.041996 3.262343
C 1.611605 0.524064 3.414693
C 2.132261 0.878267 3.437711
C 2.165221 0.856246 3.496429
C 1.941102 0.662023 3.455340
C 1.721569 0.465982 3.415455
C 1.271335 0.135694 3.211949
C 0.777952 -0.259325 2.993089
C 0.215860 -0.684514 2.796770
C -0.166243 -0.996721 2.763628
C -0.405327 -1.182125 2.670737
C -0.491645 -1.276704 2.601094
C -0.449922 -1.340828 2.623420
C -0.244538 -1.333591 2.788024
C 0.158035 -1.164919 3.021151
C 0.640666 -0.897577 3.266002
C 1.021312 -0.671443 3.353842
C 1.390606 -0.508133 3.463122
C 1.600415 -0.441499 3.618633
C 1.723604 -0.364816 3.625036
C 1.933448 -0.191069 3.607836
C 1.797533 -0.281882 3.560642
C 1.370997 -0.607205 3.349258
C 0.850090 -1.000361 3.082552
C 0.401613 -1.298384 2.906467
C 0.249172 -1.379316 2.870900
C 0.052755 -1.498762 2.756077
C -0.225117 -1.756308 2.727365
C -0.439600 -2.033723 2.740036
C -0.319066 -2.076110 2.914195
C -0.164404 -2.060237 3.105652
C 0.071631 -2.120624 3.366355
C 0.322122 -2.111096 3.543796
C 0.481726 -2.040960 3.571674
C 0.612872 -1.930607 3.495358
C 0.846673 -1.694563 3.423983
C 0.830476 -1.661374 3.212426
C 0.886037 -1.591756 3.051529
C 0.778595 -1.500584 2.697630
C 0.435824 -1.623714 2.257467
C 0.240001 -1.777206 2.052133
C 0.362502 -1.788184 2.030557
C 0.557603 -1.752408 2.005676
C 0.921790 -1.567123 2.080458
C 1.122918 -1.534837 2.121705
C 1.478701 -1.419261 2.245968
C 2.039327 -1.080875 2.373433
C 2.517232 -0.851425 2.509772
C 2.692050 -0.746580 2.470318
C 2.845378 -0.616234 2.395998
C 2.973726 -0.484294 2.275690
C 3.234787 -0.251247 2.201362
C 3.411530 -0.169848 2.158858
C 3.243759 -0.372735 2.088733
C 2.963131 -0.558837 1.925318
C 2.727078 -0.790421 1.860203
C 2.348196 -1.075527 1.758283
C 2.225070 -1.224707 1.779793
C 2.201430 -1.233746 1.742009
C 2.168217 -1.245039 1.707966
C 2.372771 -1.084429 1.701579
C 2.671084 -0.985308 1.807793
C 2.727335 -1.058499 1.850593
C 2.867908 -1.121264 1.940984
C 2.637941 -1.367378 1.880407
C 2.331033 -1.747618 1.909545
C 2.126709 -1.954315 1.886171
C 2.046908 -2.189970 1.947988
C 2.013787 -2.256869 1.921191
C 2.112952 -2.116446 1.872264
C 2.114812 -2.084911 1.789435
C 2.130053 -2.008922 1.698878
C 2.140562 -1.959094 1.615399
C 2.161300 -1.951837 1.570980
C 2.263644 -1.837014 1.478988
C 2.395770 -1.707437 1.425005
C 2.572092 -1.491619 1.326925
C 2.760158 -1.454855 1.286331
C 3.001688 -1.491846 1.339087
C 3.381118 -1.347219 1.358889
C 3.476428 -1.391160 1.302047
C 3.420375 -1.488926 1.270196
C 3.117493 -1.776784 1.183777
C 2.982178 -2.019980 1.179251
C 2.937076 -1.983455 1.123801
C 2.865859 -1.980328 1.052236
C 2.470510 -2.244028 0.974266
C 2.131243 -2.384233 0.940535
C 2.015164 -2.488682 0.904768
C 2.163425 -2.400203 0.934207
C 1.955824 -2.513469 0.864630
C 2.051474 -2.293543 0.802361
C 2.102940 -2.119858 0.730317
C 2.488977 -1.673747 0.644053
C 2.991612 -1.310249 0.588563
C 3.168211 -1.020354 0.472072
C 3.241259 -0.878744 0.372446
C 3.540340 -0.632021 0.351285
C 3.533086 -0.758303 0.332033
C 3.575839 -0.724192 0.308442
C 3.578639 -0.816425 0.310669
C 3.609884 -0.764866 0.274022
C 3.619502 -0.811213 0.270020
C 3.594211 -0.831701 0.243711
C 3.359145 -1.040087 0.216469
C 3.091346 -1.310307 0.221122
C 2.859149 -1.556773 0.212011
C 2.264614 -1.930270 0.191428
C 1.615132 -2.349754 0.146508
C 0.979567 -2.750833 0.144420
C 0.306953 -3.130975 0.083333
C -0.116827 -3.323149 0.032945
C -0.383474 -3.359563 -0.014119
C -0.613162 -3.423922 -0.023698
C -0.607103 -3.383480 -0.050534
C -0.542795 -3.396251 -0.041177
C -0.545141 -3.407369 -0.108596
C -0.353769 -3.297128 -0.129077
C -0.143137 -3.216564 -0.160022
C 0.069513 -3.220498 -0.191314
C 0.213980 -3.316067 -0.250100
C 0.326419 -3.346220 -0.287632
C 0.355487 -3.296619 -0.359115
C 0.568782 -3.172728 -0.375737
C 0.749699 -3.119704 -0.401945
C 0.845849 -3.090433 -0.438562
C 0.920906 -3.046225 -0.507842
C 1.271255 -2.725051 -0.571702
C 1.711720 -2.349763 -0.650654
C 2.221763 -1.931688 -0.734727
C 2.346325 -1.939119 -0.797783
C 2.534361 -1.938460 -0.857142
C 2.854920 -1.760751 -0.876385
C 3.028864 -1.538284 -0.940959
C 3.014200 -1.600858 -0.960445
C 3.102156 -1.597009 -0.980437
C 3.125880 -1.791587 -0.989484
C 3.470426 -1.625068 -1.031479
C 3.716749 -1.448447 -1.048249
C 3.828320 -1.256642 -1.118149
C 3.800720 -1.286682 -1.120852
C 3.776118 -1.330309 -1.142479
C 3.693288 -1.510120 -1.148916
C 3.723728 -1.325034 -1.190832
C 3.694328 -1.236419 -1.236089
C 3.668253 -1.125641 -1.313171
C 3.556857 -1.350075 -1.336207
C 3.436999 -1.447370 -1.366177
C 3.176844 -1.492142 -1.402659
C 2.722479 -1.636385 -1.437861
C 2.459076 -1.974290 -1.463733
C 2.227210 -2.240253 -1.436343
C 2.160338 -2.474265 -1.462110
C 2.256347 -2.361482 -1.545476
C 2.554596 -2.199686 -1.668754
C 2.958276 -1.928882 -1.789028
C 3.463504 -1.706473 -1.916163
C 3.715470 -1.420432 -1.970591
C 3.855881 -1.337375 -2.086370
C 3.719922 -1.326710 -2.137751
C 3.343156 -1.619404 -2.133629
C 2.931735 -1.865733 -2.073512
C 2.421283 -2.272118 -2.025698
C 2.016863 -2.524040 -1.985584
C 1.713766 -2.792558 -1.998690
C 1.594814 -2.755962 -2.008517
C 1.558675 -2.788347 -2.010397
C 1.611144 -2.682151 -2.001945
C 1.604513 -2.623387 -2.032838
C 1.523724 -2.565618 -2.019353
C 1.237220 -2.589424 -1.993423
C 0.909103 -2.654899 -1.947510
C 0.423350 -2.842367 -1.895048
C -0.021600 -3.011110 -1.874576
C -0.330435 -3.158629 -1.899426
C -0.400970 -3.170552 -1.932433
C -0.072915 -2.909223 -2.021361
C 0.406242 -2.514982 -2.091684
C 0.810149 -2.230983 -2.194402
C 1.150672 -2.043867 -2.252024
C 1.311143 -1.900752 -2.271150
C 1.481578 -1.786893 -2.341117
C 1.448066 -1.796951 -2.402598
C 1.248616 -1.947151 -2.413346
C 1.103045 -2.121778 -2.440963
C 1.250391 -1.989073 -2.471306
C 1.485469 -1.753105 -2.561101
C 1.876319 -1.445840 -2.644347
C 2.091172 -1.210341 -2.649429
C 2.505158 -0.877717 -2.694475
C 2.875946 -0.534506 -2.776986
C 3.132639 -0.354411 -2.886230
C 3.111931 -0.364757 -2.957491
C 2.952234 -0.597212 -3.005788
C 2.667572 -0.881436 -3.101857
C 2.693996 -0.868600 -3.244845
C 2.622023 -0.910816 -3.353460
C 2.351146 -1.185114 -3.425828
C 2.108886 -1.381335 -3.489690
C 1.759564 -1.659684 -3.505986
C 1.391576 -1.717260 -3.425689
C 1.157125 -1.671337 -3.390114
C 0.727728 -1.839687 -3.269843
C 0.248315 -2.049904 -3.165581
C -0.158680 -2.179742 -2.999721
C -0.592066 -2.273252 -2.813116
C -0.881612 -2.284879 -2.723379
C -0.724643 -2.131443 -2.821645
C -0.424058 -1.933135 -2.867147
C -0.124493 -1.799406 -3.008675
C 0.128580 -1.683128 -3.083696
C 0.577925 -1.414904 -3.225325
C 0.978832 -1.179444 -3.387207
C 1.224385 -1.076825 -3.453117
C 1.384440 -0.959084 -3.467134
C 1.254323 -1.030336 -3.465405
C 1.131924 -1.051617 -3.455701
C 0.991583 -1.113845 -3.395915
C 1.007756 -1.062636 -3.462388
C 1.163360 -0.935493 -3.515561
C 1.418262 -0.755344 -3.623616
C 1.370302 -0.870066 -3.681157
C 1.365449 -0.950103 -3.715189
C 1.387958 -0.956990 -3.725264
C 1.633244 -0.769388 -3.860623
C 1.667076 -0.714693 -3.854684
C 1.565333 -0.770343 -3.820649
C 1.241965 -0.970119 -3.733613
C 0.880927 -1.197796 -3.602788
C 0.554341 -1.379466 -3.492350
C 0.062966 -1.658902 -3.313079
C -0.550960 -2.019757 -3.055153
C -1.151739 -2.404824 -2.899283
C -1.702457 -2.732294 -2.734780
C -2.053381 -2.885055 -2.640972
C -2.071233 -2.777060 -2.687184
C -1.971510 -2.600240 -2.751714
C -1.697960 -2.293951 -2.986722
C -1.428158 -1.988536 -3.259825
C -1.185034 -1.713643 -3.492503
C -1.008988 -1.524668 -3.727259
C -0.857018 -1.361284 -3.850846
C -0.874922 -1.344573 -3.894438
C -1.061914 -1.445655 -3.810008
C -1.322634 -1.657376 -3.651312
C -1.489955 -1.832064 -3.617352
C -1.733723 -2.031150 -3.516887
C -1.859726 -2.093785 -3.488221
C -2.039070 -2.215086 -3.433897
C -2.247798 -2.395228 -3.372768
C -2.417560 -2.494279 -3.349497
C -2.618303 -2.710507 -3.263061
C -3.118189 -3.153800 -2.745005
C -3.272550 -3.284971 -2.597620
C -3.560403 -3.566751 -2.333976
C -3.803523 -3.855631 -2.127543
