485
chr2 3D structure from Hi-C (resolution 500000bp)
C 0.579153 3.961873 -2.208303
C 0.590415 3.993821 -2.163802
C 0.593065 3.932410 -2.170740
C 0.360331 3.793421 -2.299991
C 0.270312 3.763022 -2.429870
C 0.451496 3.760369 -2.362523
C 0.531328 3.687793 -2.245305
C 0.634410 3.698288 -2.199953
C 0.695239 3.662364 -2.278806
C 0.624622 3.550726 -2.340301
C 0.738258 3.557522 -2.284235
C 0.655666 3.499427 -2.327020
C 0.265274 3.263803 -2.539440
C -0.219328 2.934409 -2.772406
C -0.758806 2.551583 -2.976089
C -1.250740 2.246640 -3.048406
C -1.702476 1.963193 -3.128007
C -2.098385 1.703010 -3.205259
C -2.349230 1.569540 -3.187268
C -2.486790 1.501581 -3.135110
C -2.508134 1.546309 -3.065715
C -2.333142 1.670321 -3.002383
C -2.071828 1.820766 -2.970176
C -1.607022 2.131771 -2.910317
C -1.286140 2.383369 -2.894722
C -0.902848 2.629123 -2.873854
C -0.603400 2.885160 -2.801904
C -0.486889 2.986559 -2.737254
C -0.458900 3.094101 -2.687700
C -0.381147 3.198013 -2.536270
C -0.434766 3.254982 -2.401885
C -0.304729 3.351224 -2.216629
C -0.383981 3.280543 -2.052747
C -0.421350 3.294345 -1.951760
C -0.304607 3.442540 -1.871146
C -0.239651 3.526021 -1.814712
C -0.415153 3.481435 -1.834067
C -0.687152 3.355664 -1.898854
C -0.918479 3.249529 -1.948543
C -0.833840 3.372457 -1.943611
C -0.644695 3.382161 -1.854502
C -0.474312 3.364466 -1.747140
C -0.340349 3.363138 -1.644702
C -0.312032 3.283282 -1.587796
C -0.373260 3.119829 -1.579036
C -0.697497 2.794248 -1.592284
C -1.291812 2.317343 -1.654367
C -1.951573 1.798526 -1.778179
C -2.668784 1.266642 -1.866339
C -3.337160 0.770630 -1.955051
C -3.756477 0.481715 -2.047386
C -4.021811 0.293391 -2.042650
C -4.041433 0.321339 -2.012021
C -3.954441 0.410437 -2.040245
C -3.944459 0.555462 -2.095323
C -3.816282 0.798435 -2.175152
C -3.565289 1.070934 -2.202102
C -3.419796 1.234216 -2.201714
C -3.203199 1.569522 -2.199663
C -3.014587 1.764088 -2.154570
C -2.871830 1.907854 -2.087661
C -2.836946 1.948450 -1.974940
C -2.684560 2.067740 -1.848168
C -2.570741 2.201185 -1.731946
C -2.292815 2.444247 -1.593516
C -1.849188 2.725035 -1.401346
C -1.411122 3.035792 -1.259608
C -1.002623 3.433649 -1.093212
C -0.503645 3.858570 -0.953663
C -0.292424 4.122686 -0.885766
C -0.304125 4.058328 -0.859218
C -0.648155 3.823124 -0.896367
C -1.202229 3.473734 -1.018247
C -1.848183 3.012496 -1.077332
C -2.354028 2.619007 -1.132264
C -2.677964 2.367502 -1.205601
C -2.761564 2.227480 -1.194628
C -2.554300 2.438155 -1.132321
C -1.995920 2.755825 -0.965212
C -1.375402 3.029578 -0.770567
C -0.961962 3.386627 -0.728059
C -0.898086 3.493376 -0.757069
C -1.083160 3.258919 -0.756422
C -1.445721 2.851886 -0.818750
C -1.948827 2.429278 -0.916490
C -2.581319 2.006549 -1.078433
C -3.209149 1.643347 -1.196599
C -3.515942 1.424074 -1.302277
C -3.644362 1.156784 -1.266434
C -3.671329 1.263977 -1.235052
C -3.734078 1.392485 -1.156810
C -3.681630 1.480787 -1.108420
C -3.519331 1.585042 -1.003061
C -3.324220 1.729705 -0.902539
C -2.977462 1.923368 -0.689372
C -2.395725 2.331559 -0.552851
C -1.828523 2.672697 -0.376671
C -1.226229 3.086017 -0.272502
C -0.647600 3.435332 -0.080720
C -0.132307 3.819453 0.078469
C 0.310300 4.123911 0.230736
C 0.459606 4.294782 0.341162
C 0.452383 4.371978 0.451043
C 0.455156 4.361632 0.502890
C 0.210431 4.243241 0.518720
C -0.147608 4.124375 0.477936
C -0.659225 3.890789 0.403785
C -1.173483 3.608351 0.289217
C -1.425291 3.411005 0.216901
C -1.549492 3.347137 0.206009
C -1.609220 3.361340 0.261753
C -1.415102 3.482599 0.390661
C -1.417219 3.519453 0.482903
C -1.286905 3.597228 0.593610
C -1.051475 3.827697 0.760110
C -0.937572 3.962938 0.902292
C -0.970217 4.004205 0.931020
C -1.263773 3.822942 0.871962
C -1.630092 3.527178 0.753124
C -1.997767 3.151104 0.645091
C -2.360635 2.742913 0.567314
C -2.772584 2.325612 0.489291
C -3.144005 2.015743 0.427917
C -3.452198 1.765470 0.438064
C -3.583021 1.606961 0.425090
C -3.695519 1.378638 0.429022
C -3.632773 1.375691 0.445580
C -3.497552 1.477592 0.482541
C -3.211423 1.703025 0.566635
C -2.939321 1.923825 0.678850
C -2.688714 2.113764 0.770494
C -2.419252 2.316926 0.936099
C -2.130254 2.681323 1.106248
C -2.016577 2.863241 1.219444
C -1.933571 3.036407 1.314529
C -2.060300 2.883594 1.263306
C -2.445984 2.486740 1.142513
C -2.798146 2.081433 0.995754
C -3.056975 1.890251 0.927609
C -3.271789 1.680644 0.899405
C -3.087365 1.731595 0.975412
C -2.888205 1.765007 1.060634
C -2.759393 1.830046 1.169796
C -2.569539 1.896944 1.207951
C -2.587217 1.863991 1.198938
C -2.686656 1.614281 1.112021
C -2.684696 1.512153 1.115644
C -2.766044 1.445446 1.137272
C -2.859079 1.407849 1.188191
C -2.684764 1.528724 1.284587
C -2.345787 1.844040 1.509108
C -1.778102 2.298988 1.795959
C -1.158563 2.830619 2.054025
C -0.735535 3.225615 2.228981
C -0.398037 3.413756 2.346778
C -0.117955 3.525473 2.388474
C 0.012173 3.557353 2.406258
C -0.022991 3.472511 2.357837
C -0.138436 3.344302 2.354327
C -0.332114 3.255468 2.425999
C -0.326477 3.167674 2.458557
C -0.278302 3.199005 2.507880
C -0.225172 3.246539 2.563526
C -0.129973 3.296346 2.583744
C -0.062095 3.332403 2.677638
C -0.147602 3.268540 2.668800
C -0.296179 3.056859 2.526896
C -0.653409 2.755679 2.393747
C -1.215211 2.258993 2.169030
C -1.721004 1.782023 1.936651
C -2.367728 1.432469 1.946988
C -2.981154 1.184126 2.169494
C -3.517294 0.933829 2.493121
C -3.516559 0.914281 2.538088
C -3.486473 0.952536 2.652618
C -3.349563 1.299350 3.290232
C -3.023897 1.717449 3.766976
C -2.705750 2.012732 4.149397
C -2.864042 1.112109 3.696952
C -1.514400 1.711824 3.379657
C -1.043936 2.082534 3.648173
C 0.052233 2.568895 3.476278
C 1.295524 2.842962 2.583526
C 2.282039 3.025252 1.733254
C 3.329816 3.207210 0.801175
C 4.770830 4.455215 1.143717
C 4.046201 3.965233 1.370569
C 3.540749 3.355720 1.094830
C 2.285310 2.535167 1.249211
C 0.892603 1.676682 1.497980
C -0.442690 0.817402 1.871032
C -1.963898 -0.162710 2.395711
C -3.090674 -0.942264 2.104743
C -3.477651 -1.338993 1.737312
C -3.623172 -1.524560 1.662142
C -3.507816 -1.557031 1.533019
C -3.206722 -1.408437 1.756205
C -3.016619 -1.266346 1.987666
C -2.607173 -1.013399 2.028744
C -2.420462 -0.895238 2.138086
C -2.211108 -0.796966 2.259162
C -1.948378 -0.657557 2.397176
C -1.554423 -0.439250 2.590394
C -1.121334 -0.205142 2.646505
C -0.613061 0.069446 2.775855
C -0.153974 0.316601 2.869337
C 0.229662 0.546695 2.950759
C 0.367180 0.624510 3.014332
C 0.341608 0.611694 3.071769
C 0.232287 0.565686 3.199543
C 0.136657 0.509563 3.281410
C 0.080824 0.470577 3.298853
C -0.001853 0.419958 3.423215
C -0.144193 0.277522 3.422249
C -0.322410 0.078590 3.350566
C -0.383826 -0.015093 3.234819
C -0.707290 -0.351237 3.147397
C -1.253441 -0.784486 3.186728
C -1.790624 -1.267583 2.948416
C -2.348463 -1.747164 2.721257
C -2.745956 -2.072617 2.633407
C -2.893847 -2.188142 2.536009
C -3.009185 -2.328867 2.434761
C -2.929307 -2.306768 2.316936
C -2.742221 -2.254553 2.142884
C -2.238286 -1.905938 2.287887
C -1.593130 -1.460246 2.395312
C -0.872709 -0.998406 2.605101
C -0.194071 -0.538060 2.999025
C 0.464643 -0.133790 3.386271
C 1.114432 0.338555 3.652763
C 1.663781 0.691233 3.812609
C 1.621369 0.646687 3.891362
C 1.406669 0.490259 3.866965
C 1.131960 0.320896 3.825600
C 0.766514 0.045334 3.569934
C 0.313333 -0.264268 3.250021
C -0.184289 -0.655390 2.991621
C -0.615010 -0.892557 2.897243
C -0.833333 -1.060693 2.705997
C -0.910238 -1.150322 2.610856
C -0.843027 -1.182318 2.652140
C -0.701018 -1.207127 2.836221
C -0.362569 -1.008744 3.138472
C 0.090831 -0.755538 3.418882
C 0.508741 -0.604210 3.560633
C 0.857077 -0.463078 3.810723
C 1.036473 -0.459633 3.989796
C 1.133007 -0.471133 4.015318
C 1.277551 -0.367824 4.056989
C 1.175602 -0.510027 3.983979
C 0.746761 -0.852934 3.728482
C 0.212096 -1.214377 3.397030
C -0.166967 -1.479682 3.138447
C -0.281359 -1.545249 3.053570
C -0.486406 -1.629173 2.942853
C -0.680101 -1.788609 2.822357
C -0.917155 -2.043016 2.799047
C -0.863113 -2.097803 2.959483
C -0.681507 -2.044779 3.140049
C -0.561729 -2.074989 3.356387
C -0.303139 -2.003468 3.590783
C -0.094433 -1.925091 3.560340
C 0.067122 -1.808821 3.492739
C 0.323758 -1.616444 3.446344
C 0.405356 -1.539759 3.211253
C 0.435928 -1.485869 3.071814
C 0.419311 -1.465691 2.797656
C 0.083659 -1.612702 2.330508
C -0.124517 -1.817810 2.153177
C 0.013896 -1.834562 2.151349
C 0.261064 -1.720016 2.150846
C 0.589069 -1.596381 2.333824
C 0.827544 -1.566020 2.387639
C 1.123995 -1.464623 2.509846
C 1.675842 -1.185518 2.714979
C 2.186345 -0.895736 2.856277
C 2.383912 -0.785485 2.817967
C 2.518552 -0.732845 2.752951
C 2.721373 -0.586890 2.659883
C 3.011306 -0.370195 2.648132
C 3.247516 -0.169844 2.588473
C 3.094901 -0.285830 2.463214
C 2.759961 -0.523756 2.335835
C 2.450032 -0.837868 2.284640
C 2.038921 -1.162330 2.142061
C 1.859719 -1.302734 2.095865
C 1.833691 -1.412942 2.078656
C 1.812279 -1.474467 2.078392
C 2.010089 -1.434274 2.151829
C 2.333641 -1.341655 2.261267
C 2.357869 -1.389390 2.250690
C 2.453164 -1.401847 2.338161
C 2.274928 -1.639574 2.264059
C 1.954860 -1.932197 2.208402
C 1.723260 -2.186537 2.170862
C 1.613532 -2.346926 2.199803
C 1.572153 -2.392837 2.200160
C 1.737634 -2.266074 2.215394
C 1.788097 -2.230502 2.151836
C 1.775001 -2.213357 2.108212
C 1.760196 -2.153915 2.048393
C 1.818075 -2.122271 1.985564
C 1.960489 -2.015556 1.887272
C 2.113630 -1.899456 1.812411
C 2.286700 -1.798252 1.773080
C 2.500061 -1.751727 1.762435
C 2.756833 -1.735816 1.800859
C 3.173688 -1.596776 1.867417
C 3.239948 -1.690753 1.867877
C 3.161777 -1.856659 1.820064
C 2.878655 -2.127635 1.703473
C 2.723700 -2.307995 1.660161
C 2.679147 -2.247017 1.605078
C 2.575527 -2.197283 1.539860
C 2.081330 -2.462356 1.433155
C 1.778187 -2.547005 1.356839
C 1.685671 -2.558531 1.284692
C 1.837024 -2.481970 1.314342
C 1.668849 -2.523622 1.199678
C 1.829991 -2.405830 1.166033
C 1.914281 -2.323145 1.086139
C 2.408384 -1.915629 1.048514
C 2.922874 -1.639141 1.043255
C 3.123867 -1.399045 0.979289
C 3.189014 -1.259090 0.890660
C 3.502369 -1.055158 0.888267
C 3.431666 -1.071173 0.816172
C 3.489574 -1.011946 0.777022
C 3.491435 -1.072327 0.729437
C 3.527641 -0.932161 0.687942
C 3.493785 -1.072974 0.728281
C 3.474386 -1.138129 0.710201
C 3.240301 -1.225005 0.637414
C 2.926571 -1.585884 0.623857
C 2.704130 -1.730013 0.593742
C 2.088714 -2.078207 0.509229
C 1.384805 -2.472053 0.368113
C 0.780390 -2.721332 0.230188
C 0.072370 -3.011829 0.101892
C -0.388889 -3.282946 0.048530
C -0.663906 -3.284145 -0.012410
C -0.897180 -3.435613 -0.026634
C -0.871447 -3.433751 -0.063690
C -0.793553 -3.470480 -0.049303
C -0.796285 -3.455366 -0.100252
C -0.553465 -3.339630 -0.107360
C -0.314733 -3.224226 -0.129376
C -0.028325 -3.236675 -0.141323
C 0.095667 -3.321274 -0.166872
C 0.195898 -3.329374 -0.197780
C 0.277857 -3.277228 -0.202090
C 0.487554 -3.228943 -0.190478
C 0.622280 -3.228987 -0.197086
C 0.713700 -3.191176 -0.230130
C 0.802289 -3.163809 -0.255164
C 1.158598 -2.941517 -0.289859
C 1.653171 -2.599149 -0.259197
C 2.162773 -2.373842 -0.282227
C 2.293981 -2.436823 -0.325397
C 2.569758 -2.329822 -0.379050
C 2.951347 -2.280740 -0.392438
C 3.131124 -2.174001 -0.445575
C 3.132883 -2.209913 -0.463996
C 3.226591 -2.215919 -0.497119
C 3.265563 -2.289232 -0.514234
C 3.665279 -2.012424 -0.523623
C 3.900241 -1.898211 -0.498095
C 4.001589 -1.664565 -0.533099
C 4.010473 -1.549341 -0.577374
C 3.986664 -1.512370 -0.648186
C 3.854739 -1.588383 -0.714152
C 3.848188 -1.487936 -0.798321
C 3.766994 -1.436658 -0.851727
C 3.723108 -1.376153 -0.923587
C 3.656528 -1.454258 -0.987539
C 3.487140 -1.578668 -1.018322
C 3.249023 -1.721514 -1.072353
C 2.820642 -2.001917 -1.106589
C 2.545173 -2.220814 -1.134025
C 2.342336 -2.450273 -1.158967
C 2.262452 -2.593882 -1.204780
C 2.328654 -2.572201 -1.228518
C 2.675883 -2.436086 -1.297451
C 3.134174 -2.143062 -1.350609
C 3.694784 -1.743082 -1.421755
C 3.984385 -1.610389 -1.469160
C 4.121086 -1.552724 -1.548152
C 4.014469 -1.697335 -1.595553
C 3.570485 -1.985806 -1.630295
C 3.126280 -2.241807 -1.625569
C 2.476678 -2.566205 -1.630766
C 2.015594 -2.989942 -1.676332
C 1.759406 -3.142214 -1.682531
C 1.654074 -3.152631 -1.715287
C 1.579229 -3.105036 -1.773073
C 1.658566 -3.043374 -1.819158
C 1.652409 -2.974062 -1.886466
C 1.619929 -2.961130 -1.898433
C 1.315129 -2.941662 -1.867770
C 0.875300 -3.002930 -1.892824
C 0.364581 -3.116866 -1.894034
C -0.040764 -3.258251 -1.887780
C -0.359032 -3.358515 -1.875039
C -0.447821 -3.348968 -1.884996
C -0.090584 -3.122459 -1.951647
C 0.429195 -2.759781 -2.015053
C 0.956229 -2.449722 -2.094356
C 1.335345 -2.289089 -2.147853
C 1.499917 -2.197757 -2.177670
C 1.754548 -2.096051 -2.281967
C 1.746461 -2.087772 -2.331114
C 1.495302 -2.224255 -2.345830
C 1.352809 -2.359323 -2.352098
C 1.460097 -2.340140 -2.409582
C 1.731366 -2.214718 -2.451915
C 2.097835 -1.901410 -2.471699
C 2.268990 -1.752546 -2.421902
C 2.683428 -1.449630 -2.441728
C 3.133776 -1.131617 -2.458773
C 3.438628 -0.922960 -2.509341
C 3.442900 -0.827479 -2.508905
C 3.287062 -0.937566 -2.567372
C 3.078108 -1.182506 -2.657628
C 3.097730 -1.224420 -2.827679
C 3.087335 -1.210663 -2.897811
C 2.861760 -1.405229 -3.023405
C 2.536762 -1.660898 -3.117166
C 2.113702 -1.899529 -3.167929
C 1.675094 -1.952793 -3.152710
C 1.392934 -1.923175 -3.166100
C 0.957916 -1.987370 -3.070329
C 0.428041 -2.227413 -3.063705
C -0.054035 -2.305256 -2.980812
C -0.468783 -2.353070 -2.873604
C -0.716222 -2.416408 -2.811502
C -0.567864 -2.300829 -2.855222
C -0.280837 -2.115511 -2.886348
C 0.059749 -1.894623 -2.981927
C 0.281778 -1.765319 -3.024282
C 0.761074 -1.541045 -3.082277
C 1.166193 -1.328730 -3.172746
C 1.445481 -1.199998 -3.217811
C 1.638438 -1.144076 -3.235431
C 1.525304 -1.275983 -3.236818
C 1.382982 -1.400354 -3.254391
C 1.276325 -1.475409 -3.248636
C 1.344968 -1.437772 -3.311161
C 1.539094 -1.364130 -3.384600
C 1.774874 -1.182930 -3.513646
C 1.744556 -1.172371 -3.560416
C 1.797255 -1.102923 -3.615582
C 1.846803 -1.063648 -3.628088
C 2.188189 -0.815431 -3.670343
C 2.194951 -0.765437 -3.705197
C 2.091152 -0.754931 -3.730859
C 1.769370 -0.909759 -3.670855
C 1.383333 -1.160934 -3.591924
C 0.989949 -1.369875 -3.520772
C 0.478360 -1.609111 -3.410694
C -0.245264 -1.963498 -3.298367
C -0.891389 -2.269606 -3.224684
C -1.488203 -2.594308 -3.106849
C -1.839485 -2.764968 -2.972722
C -1.821879 -2.629620 -3.065787
C -1.692834 -2.473887 -3.199760
C -1.333133 -2.127127 -3.446313
C -0.973209 -1.847804 -3.684461
C -0.697455 -1.637472 -3.840649
C -0.476116 -1.427868 -4.038497
C -0.301602 -1.242370 -4.270477
C -0.305382 -1.226698 -4.295930
C -0.471940 -1.273378 -4.171171
C -0.814867 -1.507640 -4.037553
C -1.036218 -1.685303 -3.998830
C -1.301579 -1.890423 -3.931462
C -1.550940 -2.032142 -3.852184
C -1.738409 -2.164591 -3.779910
C -2.035929 -2.304655 -3.748738
C -2.260914 -2.431113 -3.725433
C -2.507393 -2.591448 -3.667838
C -3.145156 -2.985444 -3.209532
C -3.350203 -3.073531 -3.092828
C -3.569301 -3.217429 -2.940105
C -3.910660 -3.426881 -2.758355
