229
chr13 3D structure from Hi-C (resolution 500000bp)
C -2.013189 -1.839316 -3.996611
C -1.849360 -1.418396 -4.175238
C -1.786950 -1.048161 -4.279072
C -1.856927 -0.791215 -4.305074
C -1.922215 -0.358848 -4.413301
C -1.973200 -0.068654 -4.485989
C -1.810743 -0.086256 -4.536084
C -1.710301 -0.324205 -4.481892
C -1.696570 -0.736331 -4.358157
C -2.185606 -0.809640 -3.858329
C -2.557607 -0.792930 -3.412022
C -2.818448 -0.681114 -3.088084
C -3.064704 -0.557811 -2.846342
C -3.541397 -0.362058 -2.576236
C -3.947711 -0.460497 -2.241030
C -4.227249 -0.582903 -1.965606
C -3.848088 -1.172263 -2.133129
C -3.336599 -1.867703 -2.350627
C -2.737788 -2.587662 -2.529790
C -2.078823 -3.205593 -2.657115
C -1.377796 -3.651042 -2.803156
C -0.732964 -3.628047 -3.106679
C -0.145781 -3.434751 -3.451842
C 0.315541 -3.084163 -3.786170
C 0.615491 -2.601181 -4.094069
C 0.744051 -2.022249 -4.377931
C 0.698552 -1.443291 -4.621570
C 0.137106 -1.126026 -4.594465
C -0.519695 -0.950162 -4.430310
C -1.239658 -0.924333 -4.114655
C -2.004520 -1.006035 -3.659633
C -2.784781 -1.121750 -3.142098
C -3.518332 -1.236247 -2.648588
C -4.025965 -1.086401 -2.375904
C -3.939840 -0.646575 -2.383136
C -3.643886 -0.144575 -2.344459
C -3.314124 0.504930 -2.171982
C -2.947648 1.138011 -2.020041
C -2.733224 1.751280 -1.953864
C -2.408120 2.249527 -1.849648
C -2.015119 2.446166 -1.689267
C -1.877509 2.578636 -1.489340
C -1.913585 2.696206 -1.427968
C -1.875299 2.744229 -1.494164
C -1.893188 2.845313 -1.421263
C -1.713190 2.904055 -1.203479
C -1.723750 3.037475 -1.046482
C -1.846423 3.164965 -0.809265
C -1.872191 3.305030 -0.695909
C -1.789416 3.384893 -0.483504
C -1.779117 3.503750 -0.398202
C -1.648211 3.553043 -0.374313
C -1.547480 3.634780 -0.461435
C -1.319311 3.649977 -0.522169
C -1.092584 3.651871 -0.642698
C -0.905286 3.522102 -0.687294
C -0.798362 3.577570 -0.613924
C -0.700824 3.520988 -0.418170
C -0.670806 3.537471 -0.344281
C -0.441890 3.511184 -0.453322
C -0.182006 3.464462 -0.621144
C -0.036383 3.478357 -0.601491
C 0.084127 3.616634 -0.666536
C 0.212816 3.586353 -0.980622
C 0.356865 3.575324 -1.316285
C 0.615692 3.433816 -1.794049
C 0.696853 3.342146 -2.090034
C 0.643991 3.238083 -2.354199
C 0.665714 3.008822 -2.567221
C 0.817814 2.754839 -2.523754
C 1.054202 2.654174 -2.347404
C 1.190249 2.448627 -2.232165
C 1.333708 2.404461 -2.199813
C 1.543901 2.335936 -2.112099
C 1.779451 2.334419 -1.879945
C 1.814044 2.333258 -1.568392
C 1.921065 2.519079 -1.354729
C 1.886252 2.626651 -1.101000
C 1.872975 2.902207 -0.862309
C 1.703458 3.130503 -0.350552
C 1.386988 3.344672 0.249113
C 1.141454 3.541560 0.706793
C 1.083542 3.661315 0.950852
C 0.975535 3.647329 1.217124
C 0.945526 3.584727 1.280981
C 1.033081 3.509227 1.360532
C 0.930605 3.412027 1.448640
C 0.834753 3.366241 1.450987
C 0.733412 3.213459 1.591279
C 0.608706 3.240318 1.733465
C 0.479932 3.168677 1.889299
C 0.576191 3.028656 2.157575
C 0.412770 2.877982 2.503062
C 0.632242 2.718925 2.577450
C 0.802157 2.498372 2.666651
C 0.980360 2.504490 2.721940
C 1.215447 2.511581 2.765229
C 1.323556 2.462682 2.819003
C 1.317614 2.554046 2.705441
C 1.567635 2.622482 2.552345
C 1.702445 2.640075 2.442470
C 2.110972 2.672417 2.186464
C 2.378918 2.509543 1.872929
C 2.664357 2.285026 1.340010
C 3.019363 2.095408 0.737746
C 3.160911 1.848313 0.058730
C 3.259341 1.636876 -0.658490
C 3.185337 1.334572 -1.141533
C 2.990395 1.084947 -1.735768
C 2.925680 0.853486 -2.280511
C 2.749093 0.632998 -2.641579
C 2.643885 0.494798 -2.870132
C 2.649575 0.357487 -2.780361
C 2.636668 0.135675 -2.725805
C 2.823866 0.159538 -2.673470
C 2.950324 0.099494 -2.414281
C 3.017662 0.212422 -2.026347
C 3.063498 0.341046 -1.542748
C 3.042249 0.360876 -1.128409
C 3.092741 0.368566 -0.875563
C 3.103567 0.276959 -0.690541
C 2.929295 0.240142 -0.507330
C 2.804797 -0.094953 -0.600133
C 2.778991 -0.510908 -0.906729
C 2.811793 -0.945527 -1.235946
C 2.886895 -1.247613 -1.609729
C 2.899606 -1.487942 -1.801293
C 3.012035 -1.594441 -1.793210
C 3.207900 -1.909514 -1.894158
C 3.522415 -1.652854 -1.563978
C 3.668354 -1.587636 -1.195891
C 3.824139 -1.483620 -0.882185
C 3.748330 -1.684354 -0.711747
C 3.518321 -1.976520 -0.712721
C 3.356179 -2.144286 -0.613651
C 3.315716 -2.214630 -0.439406
C 3.170903 -2.574533 -0.367313
C 3.121774 -2.830407 -0.290853
C 3.048840 -2.910604 0.005837
C 3.165852 -2.559023 0.454736
C 3.466898 -2.118387 0.955280
C 3.598139 -1.850576 1.202160
C 3.595693 -1.475989 1.568455
C 3.551036 -1.074635 1.792411
C 3.504147 -0.579750 2.069003
C 3.379440 -0.381452 2.282754
C 3.324152 -0.396837 2.393389
C 3.068507 -0.339284 2.553908
C 2.775934 -0.208038 2.762334
C 2.637269 -0.376407 2.701425
C 2.445350 -0.494582 2.844818
C 2.195141 -0.489949 3.031061
C 2.055798 -0.472944 2.985739
C 1.834456 -0.585454 2.966035
C 1.736055 -0.832998 2.978115
C 1.787593 -1.050936 2.960125
C 1.705244 -1.239469 3.023469
C 1.635229 -1.279842 2.894092
C 1.750590 -1.739848 2.659835
C 1.718154 -2.215755 2.516069
C 1.645225 -2.501111 2.458301
C 1.628006 -2.694064 2.222271
C 1.577697 -2.999362 1.948617
C 1.428648 -3.206323 1.653482
C 1.368556 -3.660339 1.227166
C 1.246408 -3.840093 0.859299
C 1.131453 -3.742950 0.679903
C 1.053076 -3.758884 0.424125
C 0.889275 -3.774210 0.274275
C 0.657755 -3.725603 0.028046
C 0.456811 -3.693277 -0.161296
C 0.184589 -3.633224 -0.157538
C -0.104236 -3.605905 -0.129301
C -0.426545 -3.613021 -0.259110
C -0.767914 -3.638490 -0.281152
C -1.053351 -3.657860 -0.272442
C -1.169656 -3.709275 -0.028113
C -1.194993 -3.610558 0.137330
C -1.187038 -3.562205 0.407298
C -1.233617 -3.406900 0.684348
C -1.061757 -3.331752 1.058160
C -1.019066 -3.187988 1.328397
C -0.935798 -3.215009 1.572966
C -0.954586 -3.112648 1.836076
C -0.909988 -3.034142 2.222190
C -0.853212 -2.858979 2.512097
C -0.725120 -2.635907 2.671545
C -0.729962 -2.367021 2.697131
C -0.601416 -2.094416 2.953460
C -0.546468 -1.760752 2.985515
C -0.554572 -1.556026 3.108539
C -0.510184 -1.266311 3.235639
C -0.546013 -0.977678 3.337364
C -0.623156 -0.752315 3.460945
C -0.687843 -0.554783 3.610784
C -0.778631 -0.335738 3.614347
C -0.953769 -0.128676 3.808084
C -1.019863 0.198450 3.785668
C -1.208612 0.207880 3.664967
C -1.300876 0.128894 3.611031
C -1.498266 -0.093618 3.545553
C -1.673269 -0.455964 3.448232
C -1.751582 -0.638769 3.277121
C -1.847930 -0.791550 3.102629
C -2.166858 -1.152491 2.744466
C -2.474004 -1.389317 2.396869
C -2.707604 -1.572656 2.088621
C -2.887481 -1.706014 1.815964
C -3.018712 -1.783034 1.634018
C -3.190510 -1.849102 1.581877
C -3.364636 -1.926681 1.502519
C -3.226490 -1.956156 1.661165
C -3.215703 -1.800936 1.777647
C -3.299503 -1.535024 1.901607
C -3.244514 -1.297379 2.017611
C -3.177962 -0.999600 2.049056
C -3.143763 -0.809691 2.076402
C -3.029358 -0.524417 2.158145
C -3.007880 -0.021203 2.220627
C -2.903346 0.258074 2.274828
C -2.974989 0.350398 2.116032
C -3.234268 0.524691 1.896962
C -3.292380 0.809562 1.925053
C -3.360532 1.042346 1.937269
C -3.556461 1.234658 1.814963
C -3.798982 1.314792 1.601895
C -3.935050 1.369139 1.518626
C -3.883285 1.570050 1.583935
C -3.659138 1.794005 1.815935
