229
chr13 3D structure from Hi-C (resolution 500000bp)
C -4.886314 -1.170223 0.499631
C -4.830252 -1.164885 0.844528
C -4.812192 -1.009630 1.056666
C -4.824246 -0.674154 0.999086
C -4.796097 -0.385360 1.107548
C -4.777902 -0.099391 1.043269
C -4.799087 0.247748 0.659211
C -4.823720 0.614361 0.095246
C -4.821270 0.990686 -0.533386
C -4.778942 1.365056 -1.067523
C -4.677682 1.608984 -1.311052
C -4.532297 1.896382 -1.391785
C -4.347317 2.267040 -1.277892
C -4.175012 2.687464 -0.951040
C -4.074090 3.011733 -0.508437
C -3.995259 2.338658 -0.032690
C -3.906580 1.469321 0.296498
C -3.864262 0.514434 0.454717
C -3.979574 -0.242480 0.296228
C -4.118947 -1.060368 0.037685
C -4.226162 -1.952345 -0.236577
C -4.295378 -2.759750 -0.449519
C -4.402846 -2.583594 -0.601764
C -4.579306 -2.103427 -0.578303
C -4.720563 -1.499515 -0.376681
C -4.703497 -1.054317 0.137277
C -4.647618 -0.485987 0.682009
C -4.546878 0.286207 1.177191
C -4.361830 1.119114 1.630869
C -4.100432 1.832115 2.087982
C -3.807892 2.216260 2.503602
C -3.583680 2.371312 2.839332
C -3.460105 2.315252 3.083758
C -3.395827 2.032529 3.298296
C -3.335512 1.534852 3.509777
C -3.144543 0.950572 3.634509
C -2.827847 0.072107 3.491890
C -2.539175 -0.667301 3.288395
C -2.251399 -1.462052 3.010035
C -1.924190 -1.984295 2.856985
C -1.583235 -2.258530 2.738360
C -1.367945 -2.424492 2.569846
C -1.403419 -2.491745 2.531263
C -1.478316 -2.264440 2.627049
C -1.371942 -2.314476 2.628210
C -1.231190 -2.251271 2.673438
C -1.080883 -2.389525 2.691303
C -0.947516 -2.539327 2.683303
C -0.929318 -2.649710 2.806661
C -0.665686 -2.723219 2.719184
C -0.573901 -2.800690 2.773686
C -0.484496 -2.727009 2.843147
C -0.435405 -2.575608 3.017262
C -0.288182 -2.493892 3.048440
C -0.168925 -2.390677 3.174006
C 0.039442 -2.260709 3.222650
C 0.222274 -2.293145 3.338786
C 0.476827 -2.333521 3.303129
C 0.558739 -2.259148 3.317320
C 0.694665 -2.085206 3.300300
C 0.716873 -1.785435 3.401129
C 0.813331 -1.621763 3.438849
C 0.924254 -1.445343 3.540894
C 0.840700 -1.213853 3.691534
C 0.815041 -0.933112 3.737225
C 0.715378 -0.527913 3.846825
C 0.527564 -0.233934 3.986821
C 0.371075 -0.003384 4.067902
C 0.304627 0.196544 4.053714
C 0.415836 0.373344 3.914788
C 0.625815 0.489097 3.747454
C 0.727414 0.617108 3.608837
C 0.999287 0.728304 3.608829
C 1.362221 0.735886 3.555508
C 1.800412 0.658450 3.392586
C 2.061810 0.518512 3.182805
C 2.268555 0.297437 3.094719
C 2.391207 0.026727 3.028814
C 2.518487 -0.322901 2.946602
C 2.721989 -0.769260 2.758746
C 2.898902 -1.252431 2.486215
C 3.032702 -1.579396 2.308383
C 3.100376 -1.715147 2.176493
C 3.235375 -1.761993 1.991949
C 3.347996 -1.748713 1.816934
C 3.485707 -1.632839 1.811445
C 3.452589 -1.639853 1.657019
C 3.382187 -1.693265 1.586701
C 3.203015 -1.802698 1.496401
C 3.208915 -1.948321 1.442580
C 3.149453 -2.167372 1.268882
C 2.779939 -2.556727 1.129270
C 2.751255 -2.819680 0.850391
C 2.640210 -2.981687 0.686968
C 2.607275 -2.946042 0.509694
C 2.477958 -3.126376 0.377377
C 2.361257 -3.316315 0.227561
C 2.217822 -3.455951 0.136476
C 2.361276 -3.403608 0.018753
C 2.071719 -3.497071 0.129642
C 1.979283 -3.547853 0.187586
C 1.927557 -3.739961 0.237904
C 1.886100 -3.411704 0.272568
C 1.558665 -2.548905 0.563472
C 1.303041 -1.678382 1.027906
C 1.024368 -0.748091 1.501728
C 0.808132 0.201872 1.750540
C 0.570051 1.036988 1.983250
C 0.176730 2.088504 2.308157
C 0.062399 2.834319 2.675001
C 0.126508 3.040642 2.821996
C 0.190895 3.180721 2.720801
C 0.400383 3.256240 2.536822
C 0.682779 3.278311 2.494983
C 0.968879 3.250135 2.504655
C 1.261265 3.161937 2.350256
C 1.555654 2.911581 2.135723
C 1.844927 2.608931 1.964414
C 1.995704 2.409336 1.797262
C 2.120921 2.315139 1.759273
C 2.152489 2.241760 1.556785
C 1.995914 2.130110 1.307687
C 1.837111 2.329794 1.199017
C 1.339107 2.729226 1.032081
C 0.811509 3.101128 0.893215
C 0.353009 3.411236 0.838274
C -0.045761 3.590150 0.696586
C -0.464568 3.820660 0.615513
C -0.681333 4.169985 0.564791
C -0.783610 4.202201 0.350744
C -0.585449 4.085260 0.272301
C -0.273825 4.105949 0.185154
C 0.063929 4.142061 -0.036522
C 0.405632 4.221231 -0.178663
C 0.830497 4.135030 -0.282969
C 1.201833 4.067777 -0.421630
C 1.682103 3.918907 -0.522451
C 2.136535 3.917260 -0.499522
C 2.550544 3.730239 -0.508673
C 2.930665 3.370435 -0.408477
C 3.278442 3.062623 -0.368700
C 3.517319 2.828508 -0.356377
C 3.814300 2.373926 -0.374561
C 3.921486 1.982404 -0.291085
C 4.005836 1.581586 -0.393401
C 4.040408 1.244788 -0.613666
C 4.046866 1.124153 -0.806277
C 4.011095 0.771415 -0.919249
C 3.992329 0.451922 -1.041128
C 3.812876 0.573511 -1.159306
C 3.670766 0.570912 -1.304460
C 3.608051 0.306082 -1.466228
C 3.441136 0.111398 -1.502872
C 3.221646 0.058452 -1.601045
C 3.091083 0.102899 -1.836149
C 3.061702 0.073438 -1.971651
C 3.085736 -0.039671 -2.169212
C 3.088618 -0.116281 -2.180160
C 2.924373 0.202319 -2.360612
C 2.927040 0.545826 -2.589624
C 2.972529 0.843129 -2.665042
C 2.801015 1.161530 -2.766825
C 2.586480 1.589062 -2.887572
C 2.311705 1.969820 -2.841214
C 2.110137 2.420464 -3.054123
C 1.827990 2.659517 -3.089119
C 1.543537 2.796482 -2.996648
C 1.132308 2.770546 -3.083078
C 0.840395 2.873835 -2.905182
C 0.492099 2.989547 -2.769371
C 0.162701 2.969399 -2.692083
C -0.334441 2.980269 -2.604665
C -0.737235 2.995799 -2.476962
C -1.125577 2.984615 -2.487414
C -1.430513 2.933345 -2.406912
C -1.641904 2.846358 -2.509849
C -1.809143 2.713371 -2.625801
C -1.764715 2.591813 -2.720330
C -1.651558 2.365714 -2.794677
C -1.449177 2.066544 -2.935994
C -1.205973 1.863485 -3.063517
C -0.839153 1.740232 -3.211548
C -0.721671 1.596052 -3.412345
C -0.426071 1.381004 -3.575334
C -0.363613 1.192915 -3.806903
C -0.079087 0.993220 -3.939794
C 0.103374 0.860899 -3.885657
C 0.325427 0.511534 -3.719392
C 0.456499 0.141332 -3.613194
C 0.715472 -0.107213 -3.466618
C 0.807319 -0.354177 -3.423566
C 1.111260 -0.719300 -3.280237
C 1.172389 -1.023051 -3.247327
C 1.367437 -1.306434 -3.250844
C 1.376505 -1.499468 -3.264852
C 1.402913 -1.748526 -3.187048
C 1.464294 -2.095063 -3.152885
C 1.504207 -2.309989 -3.042527
C 1.297885 -2.317642 -3.044895
C 1.114151 -2.203214 -3.057809
C 0.815478 -2.066567 -3.210826
C 0.493526 -1.769719 -3.447191
C 0.287795 -1.531210 -3.532070
C -0.036949 -1.369186 -3.605789
C -0.592276 -1.078481 -3.695585
C -1.063560 -0.947008 -3.679882
C -1.320540 -1.006322 -3.667967
C -1.526309 -0.978785 -3.620797
C -1.738568 -1.088577 -3.505541
C -1.957564 -1.115796 -3.534771
C -2.222122 -1.041121 -3.532601
C -2.071529 -1.064139 -3.460985
C -1.919231 -1.305694 -3.491544
C -1.813655 -1.519891 -3.401480
C -1.650221 -1.710378 -3.256501
C -1.450698 -1.873862 -3.094095
C -1.418530 -2.046354 -2.959718
C -1.069036 -2.295593 -2.891301
C -0.876060 -2.721736 -2.645042
C -0.702012 -2.805727 -2.315003
C -0.694654 -3.011413 -2.077769
C -0.861546 -3.377150 -1.833464
C -0.726633 -3.534194 -1.763532
C -0.752034 -3.710895 -1.695157
C -1.055528 -3.897275 -1.497519
C -1.392104 -4.006725 -1.443187
C -1.531927 -4.161441 -1.454389
C -1.636818 -4.131867 -1.447162
C -1.630163 -3.947765 -1.532541
