181
chr16 3D structure from Hi-C (resolution 500000bp)
C -3.783199 -0.241795 0.727793
C -3.877398 -0.202362 0.615616
C -3.870417 -0.320995 0.521071
C -3.731714 -0.431955 0.505654
C -3.631615 -0.649060 0.436870
C -3.500372 -0.750654 0.268125
C -3.269917 -0.840862 0.187410
C -2.723922 -1.005885 -0.105895
C -2.075470 -1.217282 -0.436216
C -1.453488 -1.354357 -0.825414
C -0.969617 -1.404386 -1.221497
C -0.398052 -1.425906 -1.679676
C 0.109124 -1.533733 -1.968320
C 0.547682 -1.621307 -2.297812
C 0.465485 -1.598695 -2.172445
C 0.335630 -1.608267 -2.078808
C 0.198068 -1.610300 -1.951057
C -0.003433 -1.700039 -1.895700
C -0.370828 -1.736288 -1.822996
C -0.758769 -1.704158 -1.490229
C -1.227685 -1.732892 -1.251831
C -1.426587 -1.836713 -1.354105
C -1.403462 -1.895431 -1.287859
C -1.349630 -1.956639 -1.270616
C -1.330762 -1.977096 -1.193043
C -1.473022 -1.964640 -1.137765
C -1.780455 -1.571639 -1.389227
C -1.980230 -1.073173 -1.590760
C -2.203083 -0.543710 -1.767609
C -2.622436 -0.108183 -2.076528
C -3.097419 0.238602 -2.317794
C -3.145631 0.149971 -2.236082
C -2.845345 -0.035368 -2.195823
C -2.489736 -0.652716 -2.270575
C -2.259566 -1.326230 -2.139701
C -1.897517 -1.963255 -1.762765
C -1.519516 -2.471834 -1.293325
C -1.026967 -2.943497 -0.923550
C -1.075347 -2.973255 -0.789992
C -1.262751 -3.037327 -0.622570
C -1.286305 -3.114251 -0.167736
C -1.244916 -3.157660 0.149066
C -1.192791 -3.265173 0.161637
C -1.251901 -3.409846 0.324512
C -1.424187 -3.340725 0.624065
C -1.244821 -3.328287 0.735671
C -1.096634 -3.239851 0.849190
C -0.858290 -3.019649 0.741796
C -0.469762 -2.911999 0.506650
C -0.243422 -2.789205 0.351476
C -0.000762 -2.681606 0.114660
C 0.213056 -2.733154 -0.012640
C 0.318676 -2.773778 -0.053831
C 0.358669 -2.858489 0.030371
C 0.018776 -2.829740 0.354200
C -0.552417 -2.697330 0.801561
C -1.144684 -2.430568 1.287066
C -1.642589 -2.168746 1.686347
C -2.136104 -1.791191 1.911229
C -2.471126 -1.508705 1.941336
C -2.483024 -1.156051 1.375978
C -2.425609 -0.858894 0.455019
C -2.228607 -0.430239 -0.484624
C -1.995713 -0.094030 -1.424463
C -1.700294 0.143495 -2.405748
C -1.290536 0.218162 -3.351246
C -0.854155 0.458416 -4.015092
C -0.543213 0.535159 -4.181261
C -0.022862 0.470744 -4.116798
C 0.315144 0.552392 -4.109803
C 0.540968 0.887504 -3.911143
C 0.641720 1.410495 -3.553529
C 0.632408 2.057912 -3.076077
C 0.390665 2.681111 -2.589474
C -0.064121 3.369163 -1.860364
C -0.481316 4.051251 -1.140250
C -0.728043 4.439578 -0.479456
C -0.991542 4.518648 -0.074197
C -1.321194 4.466245 0.222630
C -1.722349 4.305962 0.520395
C -2.168475 4.057627 0.718242
C -2.508291 3.818450 0.574032
C -2.847732 3.575362 0.317649
C -3.146807 3.353134 0.064307
C -3.285953 3.202344 -0.179530
C -3.252473 3.123350 -0.508546
C -3.061826 3.109071 -1.015501
C -2.727891 3.138281 -1.610452
C -2.261097 3.178141 -2.180902
C -1.542409 2.887381 -2.566251
C -1.067547 2.547436 -2.490686
C -0.569018 2.416681 -2.332671
C -0.124995 2.180833 -2.222869
C 0.226761 1.917114 -1.954307
C 0.783959 1.251291 -1.684241
C 1.237235 0.588618 -1.282438
C 1.391476 0.280242 -0.838474
C 1.642140 -0.025929 -0.631966
C 1.837588 -0.580522 -0.467674
C 2.079383 -0.936742 -0.385855
C 2.386473 -1.265592 -0.385479
C 2.441629 -1.144062 -0.315134
C 2.494048 -1.001708 -0.287288
C 2.509213 -1.051880 -0.205364
C 2.618832 -1.001112 -0.265535
C 2.672123 -0.872277 -0.368682
C 2.775107 -0.890033 -0.302256
C 2.757539 -0.905450 -0.198426
C 2.806104 -0.971013 -0.052797
C 2.715351 -1.041625 0.163316
C 2.487882 -0.822319 0.460285
C 2.091613 -0.609665 0.763917
C 1.810710 -0.489359 1.133380
C 1.508582 -0.205453 1.323896
C 1.398286 0.051158 1.366859
C 1.357778 0.337144 1.192537
C 1.440681 0.616211 0.804825
C 1.746118 0.731328 0.208921
C 2.226827 0.791155 -0.396869
C 2.540318 0.922269 -1.013953
C 2.757287 0.933428 -1.329651
C 2.860160 1.024998 -1.560167
C 2.793344 1.211350 -1.539547
C 2.762296 1.366884 -1.421017
C 2.732589 1.586332 -1.360829
C 2.695582 1.703094 -1.199056
C 2.701869 1.803765 -1.012593
C 2.720182 1.800012 -0.934819
C 2.727053 1.711192 -0.793701
C 2.583864 1.503203 -0.657964
C 2.238040 1.348304 -0.258620
C 1.698146 1.287906 0.325065
C 1.084004 1.263526 0.904290
C 0.541161 1.161787 1.414032
C 0.089123 1.174463 1.942069
C -0.393749 1.251579 2.427847
C -0.706464 1.268627 2.838324
C -0.742135 1.466708 3.005485
C -0.522436 1.523302 2.973801
C -0.155885 1.551147 2.776214
C 0.080881 1.528683 2.630160
C 0.357294 1.602145 2.461241
C 0.665929 1.754641 2.295200
C 1.017764 1.925415 2.060061
C 1.334802 1.892360 1.816207
C 1.504152 1.854903 1.652534
C 1.536220 1.800462 1.710032
C 1.636623 1.779973 1.775970
C 1.771948 1.693820 1.816492
C 1.942699 1.522386 1.759805
C 2.048654 1.359850 1.765183
C 2.141232 1.207213 1.818185
C 2.187084 1.002243 1.756895
C 2.255546 0.848463 1.528848
C 2.389928 0.748669 1.366764
C 2.373649 0.597090 1.191185
C 2.410269 0.447364 1.167910
C 2.423177 0.370712 1.124036
C 2.321399 0.284995 1.117362
C 2.298387 0.211421 1.263573
C 2.200714 0.136390 1.448685
C 2.220333 0.030945 1.535727
C 2.178067 -0.058230 1.592899
C 2.016487 -0.186147 1.567491
C 1.886672 -0.364151 1.653005
C 1.744858 -0.577420 1.710112
C 1.567349 -0.651074 1.819367
C 1.459539 -0.703928 1.919983
C 1.137970 -0.728476 2.047092
C 0.999964 -0.856128 2.185546
C 0.919727 -0.951557 2.404006
C 0.759867 -1.051454 2.571328
C 0.556776 -1.017040 2.676813
C 0.432507 -1.089578 2.792970
C 0.207422 -1.037219 2.921457
C -0.050112 -0.955915 3.010614
C -0.487954 -0.722700 3.134753
C -1.081157 -0.296393 3.144536
C -1.379838 -0.098951 3.207716
C -1.597689 0.070305 3.307582
C -1.931177 0.384193 3.207192
