181
chr16 3D structure from Hi-C (resolution 500000bp)
C 2.098566 2.389101 -2.005768
C 2.054504 2.590516 -1.822419
C 2.003842 2.627422 -1.810653
C 1.910608 2.498181 -1.865522
C 1.768508 2.326023 -2.032330
C 1.727250 2.096788 -2.130355
C 1.613937 1.789898 -2.197798
C 1.201864 1.294422 -2.222505
C 0.717872 0.602215 -2.282118
C 0.176470 -0.019229 -2.262415
C -0.281551 -0.461612 -2.130127
C -0.837335 -0.833140 -1.859199
C -1.396192 -1.157552 -1.647655
C -1.865774 -1.380572 -1.457683
C -1.728828 -1.277761 -1.444340
C -1.567730 -1.222238 -1.568018
C -1.321864 -1.139673 -1.723936
C -1.056007 -1.040383 -1.904919
C -0.659770 -0.913439 -2.205394
C -0.252517 -0.682474 -2.396619
C 0.132437 -0.418061 -2.673625
C 0.205776 -0.396128 -2.850888
C 0.233687 -0.302233 -2.866805
C 0.148751 -0.237746 -2.815188
C -0.026216 -0.250250 -2.806940
C -0.197091 -0.160983 -2.833245
C -0.536896 0.401529 -2.401172
C -0.939271 0.861078 -1.825860
C -1.372000 1.372477 -1.219931
C -1.775162 1.881225 -0.789105
C -2.111931 2.371384 -0.484032
C -2.095710 2.592927 -0.529885
C -2.205606 2.608299 -0.395897
C -2.405206 2.156352 -0.741185
C -2.250455 1.829730 -1.323955
C -2.029470 1.427988 -1.809260
C -1.739438 1.097150 -2.184865
C -1.485303 0.776136 -2.446461
C -1.523685 0.844928 -2.331093
C -1.467025 1.121861 -2.296636
C -1.222576 1.361676 -2.267380
C -1.292269 1.493292 -2.069805
C -1.357860 1.625185 -2.002603
C -1.473729 1.728387 -2.031471
C -1.237581 1.853324 -1.973380
C -1.228943 1.808474 -1.866220
C -1.157400 1.660222 -1.797513
C -1.087057 1.331385 -1.706743
C -1.056697 0.946235 -1.627171
C -1.129886 0.669706 -1.557355
C -1.068174 0.416535 -1.376889
C -1.072337 0.299695 -1.384339
C -0.935584 0.263961 -1.557625
C -0.870270 0.371447 -1.682708
C -0.728732 0.784149 -1.719427
C -0.545274 1.322330 -1.690418
C -0.201752 1.855234 -1.664674
C 0.096564 2.322512 -1.661390
C 0.278555 2.602931 -1.553306
C 0.455989 2.658835 -1.515566
C 0.180629 2.383069 -1.254054
C -0.368981 2.105353 -0.829883
C -0.922540 1.822013 -0.487147
C -1.545295 1.615869 -0.198041
C -2.253777 1.348910 -0.048737
C -3.049583 0.941274 0.064371
C -3.709722 0.650099 0.397194
C -3.843269 0.404668 0.554245
C -3.766743 0.065704 0.475979
C -3.740444 -0.217213 0.562459
C -3.043922 0.044145 0.769518
C -2.311377 0.436611 1.025291
C -1.669213 1.057987 1.239770
C -1.188851 1.789385 1.406558
C -0.889714 2.593438 1.592608
C -0.582063 3.262062 1.802962
C -0.168544 3.785005 1.944705
C -0.298918 3.694596 2.076039
C -0.313767 3.528684 2.297522
C -0.233794 3.263658 2.633472
C -0.127613 2.928901 3.028542
C -0.036099 2.589683 3.380227
C -0.017003 2.275948 3.640945
C -0.137583 2.006886 3.794693
C -0.417747 1.821297 3.846974
C -0.861971 1.740015 3.786299
C -1.379347 1.704753 3.638905
C -1.875978 1.634936 3.461525
C -2.305840 1.534306 3.261699
C -2.624826 1.113771 2.597871
C -2.233491 0.677724 1.770549
C -1.698222 0.096550 1.008059
C -1.356621 -0.633279 0.331034
C -0.843651 -1.295607 -0.299236
C -0.401379 -1.899511 -0.882596
C 0.043001 -2.372116 -1.448354
C 0.562429 -2.498653 -1.519627
C 0.522752 -2.493049 -1.424807
C 0.341875 -2.489159 -1.287894
C 0.295122 -2.447289 -1.041768
C 0.084107 -2.492998 -0.826543
C -0.049385 -2.490912 -0.651887
C -0.077270 -2.513398 -0.448003
C 0.072318 -2.488343 -0.422670
C 0.048671 -2.619396 -0.266880
C -0.057971 -2.591498 -0.148032
C -0.099726 -2.655069 -0.039610
C -0.095892 -2.599835 0.002615
C 0.066057 -2.629354 0.000071
C 0.250918 -2.529046 -0.084701
C 0.320634 -2.411214 -0.092030
C 0.565376 -2.133013 -0.256235
C 0.890013 -2.046704 -0.332375
C 1.186355 -1.868441 -0.441562
C 1.359106 -1.814310 -0.383605
C 1.190171 -1.744294 -0.193479
C 0.834133 -1.846977 0.038094
C 0.397103 -1.982638 0.326008
C -0.182638 -2.196772 0.779674
C -0.660847 -2.330686 1.136809
C -1.083518 -2.359591 1.374701
C -1.299349 -2.376258 1.584620
C -1.340400 -2.250126 1.732555
C -1.220377 -2.121431 1.906037
C -1.188595 -2.036819 2.069630
C -1.103126 -1.963251 2.100205
C -1.005608 -1.900573 2.165172
C -0.915997 -1.887918 2.154156
C -0.854101 -1.866855 2.083814
C -0.635430 -1.838274 1.941820
C -0.282441 -1.583116 1.684636
C 0.221159 -1.086542 1.464565
C 0.788932 -0.617530 1.404151
C 1.280197 -0.195941 1.192023
C 1.807607 0.152705 1.101631
C 2.281775 0.606103 1.054625
C 2.613072 0.893499 1.062535
C 2.773982 1.025669 1.202270
C 2.736487 0.832955 1.386079
C 2.535258 0.602554 1.429880
C 2.358268 0.461160 1.462160
C 2.184033 0.301014 1.632519
C 2.018503 0.060196 1.834359
C 1.818331 -0.128626 1.950650
C 1.482480 -0.389444 2.027208
C 1.294174 -0.539734 2.062521
C 1.375534 -0.672583 2.000139
C 1.473779 -0.775520 2.003830
C 1.439259 -0.928362 2.033943
C 1.207458 -1.023462 2.014807
C 1.175088 -1.178671 1.992551
C 1.260553 -1.304797 2.005761
C 1.228976 -1.394329 1.827722
C 0.989972 -1.473407 1.741274
C 0.772541 -1.628956 1.715903
C 0.706493 -1.683288 1.576709
C 0.810629 -1.854300 1.427968
C 0.811356 -1.898931 1.322882
C 0.888353 -1.879213 1.093930
C 1.058487 -1.882487 1.039655
C 1.282425 -1.817179 0.940085
C 1.394319 -1.810499 0.903622
C 1.351696 -1.724614 0.785131
C 1.255260 -1.573297 0.668204
C 1.272175 -1.396121 0.539155
C 1.312342 -1.240446 0.467683
C 1.396653 -1.078523 0.354992
C 1.513833 -0.956522 0.299203
C 1.682091 -0.708705 0.105980
C 1.878527 -0.578282 -0.065905
C 2.229738 -0.519384 -0.233069
C 2.498994 -0.463125 -0.366611
C 2.625344 -0.356004 -0.466363
C 2.782559 -0.281142 -0.508664
C 2.871494 -0.078070 -0.595134
C 2.952249 0.122225 -0.568572
C 3.067586 0.450961 -0.520048
C 3.086016 1.023437 -0.310031
C 3.108716 1.290410 -0.272496
C 3.177059 1.511650 -0.230468
C 3.056561 1.850205 -0.180592
