214
chr14 3D structure from Hi-C (resolution 500000bp)
C -2.925243 4.093438 -1.576139
C -2.732757 4.264702 -1.367713
C -2.557581 4.403507 -1.107713
C -2.435213 4.484562 -0.791133
C -2.306943 4.596192 -0.238169
C -2.254728 4.643092 0.256381
C -2.304759 4.599683 0.585460
C -2.505865 4.424780 0.766920
C -2.845089 4.110809 0.838723
C -3.339815 3.344144 0.765842
C -3.818823 2.470828 0.509627
C -4.212302 1.605407 0.055210
C -4.504902 0.867997 -0.450763
C -4.665307 0.584720 -0.871594
C -4.753339 0.406943 -1.136264
C -4.821646 0.253002 -1.234861
C -4.794170 0.166554 -1.020778
C -4.746530 0.118831 -0.684624
C -4.681543 0.024165 -0.184597
C -4.584010 -0.228662 0.359110
C -4.509458 -0.963980 0.821900
C -4.419918 -1.795842 1.111461
C -4.290115 -2.568652 1.161067
C -4.178292 -2.915640 0.860570
C -4.156962 -3.076615 0.513566
C -4.251078 -2.704461 0.302980
C -4.343033 -2.091624 0.170199
C -4.390478 -1.292938 0.211445
C -4.377564 -0.393633 0.482230
C -4.340927 0.463679 0.963520
C -4.309378 1.156197 1.531973
C -4.293916 1.642672 1.998780
C -4.256691 1.639014 2.175868
C -4.278277 1.489465 1.845003
C -4.268764 1.174605 1.211517
C -4.284079 0.845652 0.408380
C -4.076268 0.532733 -0.459593
C -3.639646 0.258546 -1.174544
C -3.153546 -0.044965 -1.768122
C -2.592661 -0.424129 -2.129627
C -1.922690 -0.627714 -2.088517
C -1.406975 -0.858578 -1.800353
C -0.937547 -1.246491 -1.389361
C -0.826626 -1.635631 -1.065753
C -0.885228 -1.966257 -0.955947
C -0.922949 -2.188046 -0.960741
C -0.937954 -2.069090 -1.152061
C -1.010756 -1.948934 -1.341352
C -1.095839 -1.695437 -1.723231
C -1.128845 -1.226404 -2.114479
C -1.130890 -0.691591 -2.510134
C -1.117166 -0.168773 -2.826429
C -1.093370 0.436878 -3.084138
C -1.043916 0.716181 -3.220020
C -1.067010 0.701991 -3.336769
C -1.017097 0.627432 -3.357537
C -0.979844 0.398435 -3.428243
C -0.876730 0.105147 -3.413180
C -0.731184 -0.349845 -3.211530
C -0.586926 -0.932958 -3.008014
C -0.472386 -1.162113 -2.830816
C -0.392643 -1.418338 -2.746116
C -0.254493 -1.529519 -2.623595
C -0.188536 -1.659130 -2.548300
C -0.094718 -1.746032 -2.456794
C -0.052073 -1.686837 -2.488310
C -0.026467 -1.656500 -2.340092
C -0.011473 -1.865946 -2.245300
C -0.011140 -1.969816 -2.210368
C 0.074458 -1.992302 -2.254226
C 0.176171 -1.823864 -2.178096
C 0.223635 -1.544945 -2.157501
C 0.256696 -1.167556 -2.368576
C 0.345505 -0.768003 -2.703853
C 0.439191 -0.386131 -2.943415
C 0.622567 -0.100007 -2.886801
C 0.628650 0.181782 -2.770091
C 0.673064 0.365259 -2.891298
C 0.744712 0.437923 -2.896839
C 0.782887 0.505182 -2.778206
C 0.858302 0.661314 -2.738433
C 0.895609 0.630061 -2.782522
C 0.797721 1.035809 -2.938333
C 0.735015 1.272926 -3.088293
C 0.703923 1.418939 -3.051727
C 0.735220 1.565925 -3.068314
C 0.791917 1.584937 -3.067624
C 0.887794 1.358184 -3.024298
C 0.953414 1.397344 -2.890739
C 1.206449 1.133562 -2.831607
C 1.524883 1.029128 -2.793126
C 1.730092 0.851457 -2.664653
C 1.880057 0.689961 -2.555242
C 2.095642 0.618583 -2.517000
C 2.129083 0.841798 -2.422675
C 2.190398 0.779986 -2.390121
C 2.125043 0.342121 -2.216245
C 1.963872 -0.294530 -1.822059
C 1.897769 -0.754890 -1.654650
C 1.794768 -1.060794 -1.459286
C 1.657237 -1.436831 -1.182602
C 1.664269 -1.905456 -1.077251
C 1.673202 -2.170919 -0.957140
C 1.671969 -1.911763 -0.817013
C 1.868463 -1.783381 -0.936163
C 1.974420 -1.603387 -0.924879
C 2.091365 -1.761067 -0.852246
C 2.102401 -1.776183 -0.749710
C 2.153630 -1.693085 -0.575820
C 2.186239 -1.443274 -0.474764
C 2.330327 -1.332872 -0.550468
C 2.388733 -1.119270 -0.573202
C 2.501914 -1.009412 -0.624436
C 2.673742 -0.789542 -0.689777
C 2.913890 -0.697293 -0.730758
C 2.875747 -0.656695 -0.681287
C 2.906343 -0.670733 -0.712148
C 3.105561 -0.730751 -0.533573
C 3.123570 -0.928264 -0.445662
C 3.064692 -0.987407 -0.248660
C 2.957616 -1.053349 -0.097459
C 2.973966 -0.877539 -0.102381
C 3.151425 -0.626135 -0.226922
C 3.228182 -0.596480 -0.150063
C 3.025622 -0.930946 0.016344
C 2.861287 -1.062171 0.266567
C 2.748662 -1.176414 0.435984
C 2.640460 -1.360104 0.578012
C 2.503838 -1.682178 0.825110
C 2.413792 -1.997246 1.154335
C 2.023587 -2.519904 1.238817
C 1.729915 -2.638126 1.206146
C 1.548068 -2.678783 1.263404
C 1.160944 -2.974434 1.330060
C 0.998962 -2.979231 1.346111
C 0.697017 -3.114992 1.406065
C 0.334862 -3.333129 1.408495
C 0.368542 -3.121868 1.618431
C 0.406692 -2.961442 1.748807
C 0.336870 -2.898444 1.819881
C 0.585808 -2.688844 1.906728
C 0.599653 -2.564147 1.973612
C 0.600786 -2.446969 2.050961
C 0.493466 -2.460708 2.156932
C 0.343232 -2.513663 2.257741
C 0.292947 -2.405951 2.306292
C 0.206523 -2.386064 2.451153
C 0.133142 -2.376543 2.543195
C 0.178696 -2.395072 2.736488
C 0.318663 -2.247056 2.725059
C 0.610726 -1.997807 2.737298
C 0.832472 -1.771712 2.652137
C 1.004478 -1.590563 2.494666
C 1.344056 -1.211582 2.219291
C 1.651992 -0.659710 1.855735
C 1.903375 -0.038559 1.387282
C 2.093840 0.442693 1.025438
C 2.233903 0.897668 0.671086
C 2.346715 1.181458 0.428338
C 2.436456 1.460401 0.301326
C 2.411586 1.660788 0.143350
C 2.322077 1.900703 -0.036609
C 2.196564 2.050997 -0.084509
C 2.094593 2.134514 -0.126758
C 1.913799 2.271245 -0.184169
C 1.837374 2.577400 -0.325110
C 1.709112 2.792590 -0.404879
C 1.676691 2.943272 -0.428105
C 1.613023 2.881144 -0.304973
C 1.530408 2.863384 -0.238271
C 1.444790 2.986037 -0.134785
C 1.430470 3.059762 -0.014360
C 1.475812 3.012817 0.138295
C 1.588542 2.902670 0.320333
C 1.657288 2.725027 0.562929
C 1.776020 2.406363 0.905452
C 1.932457 2.076056 1.200422
C 2.032944 1.733126 1.481072
C 2.130421 1.332149 1.744629
C 2.107176 0.920250 2.136454
C 2.023187 0.712712 2.535011
C 1.902345 0.474301 2.720922
C 1.699380 0.372075 2.780485
C 1.033277 0.714223 2.964234
C 0.462460 1.070933 3.138131
C 0.256835 1.353175 3.262685
C 0.208487 1.532148 3.113558
C 0.140595 1.523899 2.979099
C 0.069651 1.608760 2.895667
C 0.077731 1.693787 2.819663
C 0.504300 1.321901 2.601477
C 0.898915 1.027080 2.381938
C 0.987991 1.013645 2.233318
C 0.929842 1.192743 2.109189
C 0.883453 1.471923 1.892023
C 0.901105 1.710210 1.908016
C 0.869190 1.768823 1.919653
C 0.808723 1.733298 2.010361
C 0.722825 1.724824 2.025554
C 0.624549 1.681614 2.076734
C 0.530090 1.515506 2.322769
C 0.395977 1.214491 2.672374
C 0.167528 0.817181 2.852132
C -0.038141 0.642930 3.016848
C -0.155449 0.488413 3.123871
C -0.273146 0.226708 3.390998
C -0.531928 -0.075314 3.645500
C -0.784492 -0.225780 3.813116
C -1.190080 -0.292446 3.839730
C -1.666346 -0.277350 3.827513
C -2.074770 -0.339993 3.814485
C -2.353824 -0.309113 3.886770
C -2.706192 -0.308763 3.887372
C -3.027395 -0.370410 3.802657
