214
chr14 3D structure from Hi-C (resolution 500000bp)
C -2.287026 4.927704 -0.101243
C -2.485774 4.787842 -0.246476
C -2.669271 4.653934 -0.179069
C -2.801069 4.536772 -0.001553
C -3.020022 4.328627 0.119618
C -3.241805 4.043990 0.419604
C -3.469600 3.686491 0.909413
C -3.689372 3.285749 1.443737
C -3.890152 2.842325 1.871413
C -4.094455 2.094022 1.673097
C -4.243319 1.318668 1.187173
C -4.390638 0.632423 0.538189
C -4.558813 0.155617 -0.167180
C -4.722241 -0.143116 -0.813400
C -4.849044 -0.348997 -1.317743
C -4.929349 -0.547178 -1.628868
C -4.909507 -0.554217 -1.215197
C -4.902631 -0.600887 -0.588871
C -4.867901 -0.805225 0.072471
C -4.769831 -1.241855 0.619245
C -4.604121 -1.841679 0.963788
C -4.375522 -2.490785 1.072048
C -4.120552 -3.054015 0.913876
C -3.950675 -3.398716 0.413050
C -3.884090 -3.578615 -0.127871
C -3.930059 -3.576075 -0.502515
C -4.052080 -3.371888 -0.676583
C -4.233635 -2.884761 -0.624315
C -4.449937 -2.201078 -0.446512
C -4.665613 -1.382013 -0.184723
C -4.826189 -0.547344 0.107789
C -4.901391 0.263109 0.287691
C -4.868496 1.026893 0.213919
C -4.742049 1.686435 -0.098207
C -4.545138 2.068008 -0.623240
C -4.380998 2.230012 -1.217916
C -3.944353 2.112405 -1.810392
C -3.358994 1.724125 -2.132425
C -2.743940 1.144687 -2.311527
C -2.173603 0.410863 -2.328303
C -1.593339 -0.115404 -2.203769
C -1.134745 -0.719501 -2.005604
C -0.602621 -1.324557 -1.610115
C -0.456962 -1.845357 -1.246163
C -0.512214 -2.159360 -1.155808
C -0.570935 -2.392536 -1.105956
C -0.608631 -2.192748 -1.253841
C -0.697628 -2.054673 -1.513852
C -0.767624 -1.629673 -1.819692
C -0.859352 -1.180259 -2.279563
C -0.923570 -0.581435 -2.697471
C -0.920740 0.015940 -2.971058
C -0.969999 0.725191 -3.234865
C -0.922784 1.047755 -3.314043
C -0.904893 1.157908 -3.421363
C -0.895629 1.043625 -3.518979
C -0.883506 0.975469 -3.574409
C -0.807816 0.715101 -3.536046
C -0.670196 0.216891 -3.403161
C -0.500464 -0.395340 -3.267889
C -0.377110 -0.731018 -3.131206
C -0.300675 -1.094607 -2.985953
C -0.124883 -1.252809 -2.848477
C -0.010609 -1.436793 -2.806193
C 0.164885 -1.539298 -2.738402
C 0.261779 -1.437423 -2.788460
C 0.305071 -1.414153 -2.650530
C 0.291480 -1.596708 -2.541695
C 0.373459 -1.709578 -2.559195
C 0.474509 -1.703746 -2.555940
C 0.541096 -1.536277 -2.379944
C 0.529624 -1.232664 -2.346084
C 0.466477 -0.753050 -2.401557
C 0.460847 -0.236810 -2.679119
C 0.515613 0.179201 -2.883823
C 0.581405 0.432260 -2.700860
C 0.610355 0.600641 -2.595471
C 0.714745 0.692365 -2.758599
C 0.806748 0.743977 -2.716909
C 0.938742 0.626099 -2.696738
C 1.067722 0.597939 -2.695351
C 1.137315 0.699097 -2.709746
C 1.105828 1.081343 -2.913542
C 1.027501 1.415236 -3.048814
C 1.025412 1.550373 -2.966261
C 1.039646 1.661644 -3.024008
C 1.116722 1.564284 -3.023561
C 1.229695 1.334624 -2.952742
C 1.324931 1.179208 -2.848980
C 1.530476 0.980588 -2.753836
C 1.760586 0.693120 -2.840417
C 1.893932 0.573622 -2.730292
C 2.065654 0.396111 -2.604968
C 2.198542 0.545321 -2.571282
C 2.247631 0.639322 -2.541680
C 2.301518 0.644594 -2.545541
C 2.205971 0.161346 -2.354180
C 2.071636 -0.375974 -1.813941
C 2.046584 -0.891860 -1.645605
C 1.985814 -1.226572 -1.439855
C 1.865045 -1.728803 -1.110693
C 1.848927 -2.020119 -0.894519
C 1.810877 -2.380213 -0.741493
C 1.854310 -2.132461 -0.639666
C 2.054025 -1.943659 -0.788710
C 2.141469 -1.829480 -0.704710
C 2.217574 -1.961975 -0.583121
C 2.241654 -1.960026 -0.482165
C 2.249933 -1.900453 -0.321481
C 2.314328 -1.696471 -0.283629
C 2.432035 -1.653570 -0.340392
C 2.502593 -1.556356 -0.344327
C 2.635595 -1.318644 -0.464243
C 2.777645 -1.051406 -0.496659
C 2.970854 -0.933905 -0.456480
C 2.956442 -0.860338 -0.396813
C 2.971857 -0.785920 -0.323924
C 3.097484 -0.929862 -0.159917
C 3.190410 -0.931298 -0.040284
C 3.115343 -1.034695 0.159456
C 3.035974 -1.113643 0.244602
C 3.081464 -0.894950 0.130622
C 3.258328 -0.611871 -0.068592
C 3.319247 -0.560745 -0.046085
C 3.223171 -0.603488 0.211974
C 3.011347 -0.802072 0.510716
C 2.809041 -0.960236 0.724503
C 2.635125 -1.157963 0.905234
C 2.368960 -1.616508 1.173667
C 2.046561 -2.212431 1.502505
C 1.641458 -2.771854 1.654899
C 1.202771 -2.989858 1.541728
C 1.012714 -2.994588 1.625984
C 0.696550 -3.199410 1.718148
C 0.542570 -3.238454 1.741764
C 0.333395 -3.273071 1.843862
C 0.194576 -3.189434 2.052988
C 0.196603 -2.913820 2.234159
C 0.264781 -2.729270 2.329750
C 0.108648 -2.757301 2.301814
C 0.250985 -2.593805 2.361648
C 0.247761 -2.474804 2.399149
C 0.189951 -2.404660 2.417131
C 0.045375 -2.422448 2.449157
C -0.036114 -2.504173 2.570890
C 0.005155 -2.389717 2.702899
C 0.043884 -2.260225 2.902870
C -0.010674 -2.185867 3.030888
C 0.073192 -2.111760 3.200493
C 0.290729 -1.915761 3.221911
C 0.622235 -1.687425 3.177800
C 0.890945 -1.469731 3.053309
C 1.029211 -1.334693 2.854630
C 1.266402 -1.028369 2.506977
C 1.645979 -0.589980 2.142597
C 1.930751 -0.066219 1.735416
C 2.115380 0.423576 1.327324
C 2.238969 0.819283 0.916883
C 2.306597 1.072381 0.654031
C 2.441550 1.309490 0.532228
C 2.468752 1.492648 0.398891
C 2.356373 1.874412 0.288393
C 2.249265 2.021407 0.215229
C 2.200458 2.108568 0.273337
C 2.135198 2.258021 0.275231
C 2.116115 2.548538 0.184139
C 2.008022 2.813847 -0.042042
C 1.925080 3.002886 -0.132411
C 1.914907 2.879590 -0.224771
C 1.779308 2.911410 -0.296900
C 1.621414 3.038523 -0.377293
C 1.492533 3.162366 -0.347106
C 1.449269 3.163512 -0.242844
C 1.496410 3.038065 0.040484
C 1.634423 2.831918 0.372799
C 1.743103 2.515155 0.742970
C 1.875726 2.185510 1.148847
C 2.002776 1.855513 1.520465
C 2.110796 1.464654 1.845339
C 2.094316 1.092529 2.253354
C 1.986714 0.971269 2.640901
C 1.841161 0.799113 2.797105
C 1.643645 0.721541 2.913439
C 1.006199 1.121399 3.031266
C 0.436474 1.509728 3.167307
C 0.281703 1.783698 3.256399
C 0.248766 1.994502 3.071587
C 0.153735 1.889125 2.860897
C 0.082927 1.939248 2.721529
C 0.049145 2.002428 2.592649
C 0.481067 1.627114 2.341295
C 0.890096 1.374579 2.067455
C 0.875141 1.378620 1.758125
C 0.757870 1.458813 1.515845
C 0.742958 1.801221 1.263562
C 0.705650 2.067921 1.203810
C 0.647295 2.154597 1.223478
C 0.594909 2.075374 1.397803
C 0.543283 1.977802 1.576377
C 0.475949 1.890054 1.717857
C 0.391989 1.724985 2.065516
C 0.241241 1.336445 2.511353
C 0.043753 0.918764 2.837348
C -0.093994 0.699892 3.028830
C -0.262966 0.563565 3.124770
C -0.481711 0.447217 3.300194
C -0.743072 0.219192 3.635949
C -0.959553 0.103471 3.819658
C -1.376290 0.154352 3.839217
C -1.867745 0.204889 3.780955
C -2.358694 0.151689 3.741944
C -2.639643 0.218783 3.798045
C -2.970197 0.093127 3.816088
C -3.294765 -0.023340 3.715892
