181
chr16 3D structure from Hi-C (resolution 500000bp)
C 2.100258 2.736638 -1.080943
C 2.151555 2.800876 -0.840938
C 2.124638 2.868715 -0.797810
C 2.052770 2.776076 -0.913729
C 2.033426 2.656303 -1.035667
C 2.031102 2.528462 -1.217038
C 1.884346 2.394334 -1.398882
C 1.462119 2.004402 -1.685120
C 0.949945 1.436322 -2.044670
C 0.416915 0.870577 -2.383523
C -0.032857 0.438893 -2.501382
C -0.545588 -0.000350 -2.547359
C -1.107660 -0.397232 -2.568588
C -1.585640 -0.773731 -2.612731
C -1.519147 -0.769014 -2.566549
C -1.391458 -0.614707 -2.668965
C -1.166729 -0.505768 -2.716469
C -0.953455 -0.346851 -2.834013
C -0.630659 -0.103882 -2.940371
C -0.212941 0.176604 -2.956395
C 0.188986 0.542072 -3.018752
C 0.283794 0.731493 -3.055720
C 0.321185 0.789489 -2.979308
C 0.243004 0.881248 -2.874127
C 0.108581 0.941310 -2.835862
C 0.049205 1.081764 -2.781285
C -0.075571 1.430374 -2.153668
C -0.273617 1.738814 -1.454072
C -0.499723 2.066178 -0.795685
C -0.777086 2.462639 -0.244493
C -1.041373 2.810956 0.231758
C -1.132434 2.897504 0.296183
C -1.464511 2.792752 0.416549
C -1.916852 2.499408 -0.037312
C -2.239041 2.272162 -0.536150
C -2.274717 2.001757 -1.101258
C -2.148518 1.765793 -1.568750
C -2.060791 1.534905 -1.941193
C -2.037199 1.671618 -1.798380
C -1.941713 1.896901 -1.705404
C -1.706093 2.137180 -1.614571
C -1.538821 2.284663 -1.518128
C -1.562374 2.339225 -1.349386
C -1.478945 2.521258 -1.246305
C -1.262610 2.662619 -1.188344
C -1.180453 2.569510 -1.084557
C -0.972115 2.464872 -1.008726
C -0.875345 2.119015 -1.138328
C -0.907505 1.715156 -1.263489
C -0.967698 1.422159 -1.368826
C -1.098387 1.003337 -1.403986
C -1.031036 0.909936 -1.466874
C -0.982006 0.974156 -1.645818
C -0.941671 1.168321 -1.672793
C -0.784506 1.563161 -1.494080
C -0.475156 2.051104 -1.178594
C -0.031665 2.544740 -0.911771
C 0.363466 3.023386 -0.658059
C 0.747343 3.008615 -0.678817
C 1.118185 2.820215 -0.714631
C 1.260809 2.342006 -0.971101
C 0.733353 1.933124 -0.670226
C 0.148740 1.511734 -0.534453
C -0.559397 1.124126 -0.402382
C -1.315353 0.750369 -0.416887
C -2.282648 0.551813 -0.172645
C -3.119252 0.319613 0.123985
C -3.782888 0.160030 0.436236
C -3.801172 -0.115781 0.041015
C -3.819468 -0.346313 -0.044201
C -3.588658 -0.519863 0.307840
C -3.312997 -0.649521 0.796869
C -3.047339 -0.627135 1.324886
C -2.854512 -0.344112 1.787955
C -2.705649 0.092140 2.253837
C -2.502015 0.597220 2.739654
C -2.180972 1.103090 2.999581
C -2.005222 1.525637 2.943918
C -1.846621 1.823820 2.920622
C -1.672344 1.929083 2.973712
C -1.423943 1.868036 3.119035
C -1.101354 1.736653 3.329518
C -0.750037 1.655777 3.517392
C -0.458819 1.650377 3.602653
C -0.272484 1.712331 3.586427
C -0.578454 1.754962 3.292419
C -0.918429 1.847041 2.949369
C -1.289009 1.739505 2.723401
C -1.738944 1.546158 2.470781
C -2.211028 1.089791 1.747284
C -2.049182 0.579848 0.963461
C -1.721241 -0.066055 0.231480
C -1.091996 -0.666356 -0.344447
C -0.369839 -1.139458 -0.889283
C 0.172728 -1.441358 -1.629042
C 0.727265 -1.691689 -2.260614
C 1.268855 -1.781596 -2.309697
C 1.298064 -1.873223 -2.198537
C 1.085097 -1.935321 -2.061649
C 0.879240 -2.081053 -1.884197
C 0.549640 -2.266637 -1.749421
C 0.398220 -2.360676 -1.550969
C 0.279661 -2.390057 -1.382272
C 0.405266 -2.431102 -1.338243
C 0.291709 -2.560555 -1.236066
C 0.147890 -2.620992 -1.162729
C 0.092402 -2.659590 -1.071957
C 0.164888 -2.669724 -0.969604
C 0.350816 -2.746202 -0.943989
C 0.619990 -2.761687 -0.965464
C 0.721191 -2.598520 -0.891434
C 0.978752 -2.316599 -0.911562
C 1.351128 -2.213117 -0.823716
C 1.714425 -2.057710 -0.754345
C 1.790081 -2.027457 -0.656305
C 1.403115 -1.941209 -0.472382
C 0.917286 -2.014761 -0.329191
C 0.358606 -2.253724 -0.184715
C -0.259503 -2.647128 0.036025
C -0.858720 -2.849577 0.195232
C -1.317325 -2.975886 0.348301
C -1.604047 -2.981383 0.589850
C -1.545388 -2.963880 0.773297
C -1.587128 -2.826023 0.994541
C -1.688104 -2.731520 1.095223
C -1.756330 -2.567450 1.154168
C -1.718047 -2.451196 1.279943
C -1.753452 -2.363730 1.270137
C -1.691458 -2.306442 1.134560
C -1.499565 -2.178774 0.999132
C -0.842807 -1.966092 1.005573
C -0.148006 -1.473603 1.112245
C 0.440643 -0.878969 1.254602
C 0.945905 -0.356819 1.228276
C 1.421015 0.189570 1.473618
C 1.921509 0.628066 1.719361
C 2.267451 0.987017 2.027316
C 2.181985 1.200498 2.233255
C 2.120319 1.020974 2.335106
C 2.018001 0.692211 2.374374
C 1.996612 0.481123 2.413216
C 1.927632 0.182462 2.458021
C 1.746169 -0.074800 2.548404
C 1.504960 -0.376472 2.538482
C 1.237416 -0.695777 2.468713
C 1.058056 -0.909140 2.531495
C 1.117414 -1.040764 2.501742
C 1.070567 -1.219601 2.494378
C 1.053097 -1.408873 2.438143
C 0.926398 -1.610179 2.360801
C 0.904789 -1.733952 2.376753
C 1.019488 -1.854457 2.343675
C 1.026002 -1.937404 2.118658
C 0.885265 -2.045798 1.956652
C 0.774251 -2.118434 1.818743
C 0.726160 -2.180851 1.614095
C 0.783975 -2.231911 1.421714
C 0.805996 -2.315533 1.210953
C 0.912437 -2.299132 1.060615
C 1.086038 -2.240483 0.985912
C 1.289108 -2.130497 0.920552
C 1.391336 -2.187008 0.860437
C 1.325771 -2.073213 0.791817
C 1.374303 -2.039566 0.717181
C 1.545200 -1.832826 0.605467
C 1.630791 -1.673960 0.460328
C 1.696092 -1.501373 0.426315
C 1.762557 -1.361788 0.332920
C 1.903164 -1.023345 0.264285
C 2.159701 -0.827903 0.220728
C 2.445253 -0.609157 0.104278
C 2.644611 -0.475396 0.089327
C 2.766890 -0.257731 0.107652
C 2.874639 -0.085218 0.019346
C 2.988902 0.087230 0.043522
C 3.065118 0.277018 0.063109
C 3.205801 0.526461 0.116196
C 3.218047 0.995863 0.294566
C 3.234760 1.229420 0.295715
C 3.283116 1.363298 0.298283
C 3.257510 1.518067 0.418373
