181
chr16 3D structure from Hi-C (resolution 500000bp)
C -3.554771 0.381452 -0.981210
C -3.672517 0.396179 -0.831943
C -3.677647 0.497789 -0.775061
C -3.584427 0.516051 -0.763861
C -3.503493 0.728132 -0.591336
C -3.394693 0.850928 -0.433374
C -3.207087 0.950360 -0.487306
C -2.644893 1.186338 -0.248744
C -1.899971 1.504569 -0.090640
C -1.166071 1.764987 0.167244
C -0.562095 2.061573 0.426198
C 0.041220 2.217783 0.657251
C 0.698524 2.369758 0.831791
C 1.248021 2.596142 1.091258
C 1.239811 2.570048 0.871499
C 1.225133 2.628614 0.673941
C 1.150185 2.708708 0.497576
C 1.113993 2.769802 0.294978
C 0.951519 2.897187 0.014799
C 0.520937 2.814573 -0.333074
C -0.051388 2.769978 -0.518951
C -0.217270 2.918505 -0.368201
C -0.354028 2.835500 -0.342481
C -0.442783 2.743339 -0.350465
C -0.521886 2.740505 -0.268436
C -0.730256 2.682796 -0.171776
C -1.104422 2.593732 0.293549
C -1.286005 2.366552 0.690569
C -1.601051 2.102419 1.053118
C -2.013436 1.958733 1.532527
C -2.462374 1.876129 1.907667
C -2.748876 1.821753 1.878687
C -2.623686 1.885896 1.922145
C -2.289101 2.226293 1.826297
C -2.086090 2.569620 1.627504
C -1.843463 2.813131 1.105587
C -1.473246 2.970621 0.469019
C -1.115989 3.150685 -0.107824
C -1.047747 3.230741 -0.334140
C -1.134917 3.104682 -0.739267
C -1.225285 3.010582 -1.213426
C -1.160466 2.961406 -1.651511
C -0.997778 2.997130 -1.845232
C -1.044129 2.982124 -2.068071
C -1.066388 2.806490 -2.247673
C -0.863434 2.638797 -2.396484
C -0.670423 2.543936 -2.396496
C -0.253307 2.414198 -2.335231
C 0.194501 2.357702 -2.247956
C 0.514021 2.309368 -2.041702
C 0.761924 2.290708 -1.827216
C 0.873956 2.233104 -1.845082
C 0.823152 2.138950 -1.933216
C 0.696916 2.033477 -2.092568
C 0.292769 1.937649 -2.331308
C -0.241022 1.658970 -2.632060
C -0.903593 1.387709 -2.946849
C -1.480417 1.159592 -3.117626
C -1.931243 1.024210 -3.051783
C -2.165583 0.941436 -2.889441
C -2.098930 1.121720 -2.147207
C -2.018493 1.299957 -1.225748
C -1.903403 1.495792 -0.194615
C -1.667621 1.646879 0.776964
C -1.294281 1.845037 1.710831
C -0.821511 2.093653 2.543537
C -0.383728 2.240535 3.331696
C -0.064608 2.184029 3.431622
C 0.452690 2.101605 3.396120
C 0.803795 1.928734 3.475345
C 0.996004 1.693857 3.553461
C 1.002575 1.384830 3.638505
C 0.798633 1.029375 3.748144
C 0.387251 0.732377 3.836750
C -0.137107 0.300009 4.063249
C -0.607014 -0.200057 4.219832
C -0.826263 -0.589609 4.190899
C -0.967699 -0.963798 4.081088
C -1.107035 -1.363679 3.918544
C -1.225719 -1.782335 3.729505
C -1.348403 -2.145175 3.521417
C -1.536016 -2.390558 3.272060
C -1.857840 -2.529240 2.948815
C -2.311421 -2.536699 2.572873
C -2.788190 -2.381788 2.237321
C -3.180098 -2.107105 2.021689
C -3.430191 -1.807888 1.947709
C -3.529954 -1.515770 2.002098
C -3.490824 -1.205260 2.168162
C -2.740616 -0.698960 2.394441
C -1.802768 -0.165891 2.034414
C -0.818730 0.262913 1.508788
C 0.179483 0.550288 0.910901
C 1.093998 0.764014 0.197328
C 1.963803 1.040965 -0.447807
C 2.789668 1.220186 -1.094096
C 2.843808 1.025855 -1.886827
C 2.706039 0.774492 -2.039842
C 2.639520 0.580455 -1.936401
C 2.683173 0.455531 -1.662366
C 2.776464 0.368513 -1.279263
C 2.853080 0.222427 -1.025742
C 2.844074 0.094478 -0.860494
C 2.930019 0.114785 -0.724171
C 3.084089 0.012654 -0.555099
C 3.142422 -0.053925 -0.367337
C 3.140587 0.015606 -0.216886
C 3.081436 0.050361 -0.233489
C 3.109901 -0.044669 -0.406785
C 3.061713 -0.157733 -0.624882
C 2.809864 -0.243125 -0.835256
C 2.490317 -0.240314 -1.137100
C 2.344214 -0.396876 -1.493276
C 2.195660 -0.691131 -1.864084
C 2.174110 -0.930053 -1.861976
C 2.141620 -1.012996 -1.523500
C 2.210627 -1.044559 -1.076579
C 2.513925 -0.995881 -0.469075
C 2.877534 -0.988881 0.298533
C 3.047394 -0.897430 1.025777
C 3.088049 -0.753716 1.641865
C 3.016786 -0.666830 1.985288
C 2.852716 -0.659926 2.153721
C 2.657655 -0.714234 2.308894
C 2.516967 -0.930736 2.441168
C 2.320326 -1.112644 2.470628
C 2.159347 -1.218541 2.464097
C 2.127264 -1.388072 2.400159
C 2.109291 -1.489294 2.220206
C 2.024004 -1.506784 1.920792
C 1.681304 -1.696970 1.279163
C 1.069335 -1.786338 0.694023
C 0.434530 -1.874269 0.168048
C -0.153751 -1.978497 -0.339005
C -0.738010 -2.209560 -0.744040
C -1.346883 -2.423973 -1.038124
C -1.850270 -2.738276 -1.111828
C -2.060614 -2.833322 -0.836353
C -1.999835 -2.854255 -0.646669
C -1.681578 -2.985358 -0.454124
C -1.445935 -3.084605 -0.347643
C -1.187880 -3.075378 -0.084693
C -0.968870 -3.159073 0.183177
C -0.625680 -3.070109 0.334558
C -0.222916 -2.998849 0.439888
C 0.088742 -3.065147 0.643739
C 0.123665 -2.991038 0.516302
C 0.291361 -3.004496 0.481396
C 0.406466 -3.075802 0.287503
C 0.763414 -3.025439 0.251591
C 0.891236 -3.164652 0.152098
C 1.017688 -3.189657 0.040006
C 1.190317 -3.045314 -0.135869
C 1.431568 -2.879077 -0.070059
C 1.554317 -2.711489 -0.040485
C 1.697444 -2.550192 -0.117884
C 1.720734 -2.479649 -0.315073
C 1.793312 -2.328240 -0.452248
C 1.686761 -2.151740 -0.609887
C 1.609007 -2.127350 -0.844859
C 1.488379 -2.161448 -1.057453
C 1.541719 -2.205412 -1.218343
C 1.493990 -2.078751 -1.261273
C 1.491319 -1.996134 -1.281557
C 1.297545 -1.850511 -1.492952
C 1.230180 -1.887035 -1.647744
C 1.026985 -1.903230 -1.752263
C 0.844393 -1.804096 -1.863770
C 0.511350 -1.723088 -2.012323
C 0.293807 -1.676467 -2.241486
C 0.025609 -1.621497 -2.538400
C -0.129159 -1.648717 -2.702425
C -0.336366 -1.568121 -2.807167
C -0.532962 -1.559999 -2.895325
C -0.752401 -1.605459 -2.919634
C -1.002220 -1.646853 -2.886670
C -1.367757 -1.637959 -2.793304
C -1.945643 -1.658081 -2.563924
C -2.205434 -1.645104 -2.454815
C -2.459109 -1.659301 -2.386791
C -2.684122 -1.585654 -2.208229
