229
chr13 3D structure from Hi-C (resolution 500000bp)
C -1.999878 -1.211645 -5.102082
C -1.721484 -0.948453 -5.208990
C -1.225872 -0.445688 -5.227896
C -0.766087 -0.094933 -5.219599
C 0.017216 0.280779 -5.278348
C 0.787012 0.494383 -5.295919
C 1.471430 0.515405 -5.240173
C 2.052756 0.307201 -5.117549
C 2.483321 -0.101241 -4.964632
C 1.562185 -0.529446 -4.552423
C 0.488569 -0.810235 -4.102346
C -0.661920 -0.882774 -3.689443
C -1.812281 -0.824166 -3.376550
C -2.904714 -0.786819 -3.174441
C -3.933630 -0.741769 -2.999468
C -4.833660 -0.722402 -2.833064
C -4.554220 -1.045689 -2.999957
C -4.111691 -1.554682 -3.271943
C -3.567485 -2.175058 -3.554047
C -2.950710 -2.773219 -3.771678
C -2.280927 -3.174389 -3.925492
C -1.568893 -3.370106 -4.121485
C -0.892758 -3.338178 -4.373752
C -0.295040 -3.100081 -4.636537
C 0.193045 -2.680128 -4.877906
C 0.517944 -2.084542 -5.086278
C 0.607369 -1.306082 -5.245582
C 0.466856 -0.484630 -5.360097
C 0.125930 0.230694 -5.419671
C -0.348543 0.734900 -5.398495
C -0.951649 1.059215 -5.280153
C -1.646851 1.296625 -5.065956
C -2.311102 1.485988 -4.805011
C -2.757549 1.608160 -4.595274
C -2.800394 1.838438 -4.311396
C -2.648899 2.017466 -3.869069
C -2.567925 2.249659 -3.230343
C -2.287329 2.631196 -2.596711
C -2.036317 3.015762 -2.112589
C -1.712233 3.264717 -1.632380
C -1.434705 3.310138 -1.204048
C -1.411391 3.186806 -0.931587
C -1.370567 3.214245 -0.860567
C -1.245251 3.147057 -0.819330
C -1.376987 3.057603 -0.733299
C -1.415770 2.885360 -0.561407
C -1.577361 2.790891 -0.414062
C -1.672824 2.825429 -0.245489
C -1.917563 2.824796 -0.117993
C -2.028766 2.749221 0.068750
C -2.098497 2.806871 0.118266
C -2.061434 2.823982 0.152706
C -1.922082 2.868214 0.156490
C -1.780929 2.871479 0.203478
C -1.610603 2.903846 0.138141
C -1.334410 2.863048 0.089198
C -1.355411 2.837122 0.205457
C -1.307069 2.888250 0.333467
C -1.121882 2.940175 0.301190
C -0.953132 2.919759 0.230552
C -0.673059 2.916171 0.074461
C -0.497175 2.913774 0.149754
C -0.303680 3.146447 0.275062
C -0.025497 3.361168 0.138381
C 0.179343 3.424296 0.006119
C 0.444069 3.415358 -0.189208
C 0.649746 3.509751 -0.361337
C 0.875918 3.590393 -0.519148
C 0.953333 3.448474 -0.641230
C 1.024484 3.136598 -0.684948
C 1.117643 2.948699 -0.591884
C 1.304920 2.752395 -0.597116
C 1.434926 2.674860 -0.551920
C 1.570175 2.621771 -0.445623
C 1.507737 2.467124 -0.217245
C 1.411770 2.412037 -0.033806
C 1.364021 2.489356 0.182403
C 1.314472 2.527377 0.403406
C 1.154524 2.681529 0.621010
C 0.734857 2.797539 1.035173
C 0.217522 2.814602 1.397566
C 0.019440 2.951220 1.680962
C -0.141471 3.019100 1.879068
C -0.291063 3.020933 2.010052
C -0.309951 2.963801 2.082107
C -0.344059 2.877482 2.170221
C -0.321124 2.729032 2.173766
C -0.234546 2.715663 2.246311
C -0.403901 2.519425 2.261605
C -0.349390 2.498254 2.361092
C -0.283570 2.408288 2.406698
C -0.258731 2.313821 2.402716
C -0.103686 2.251905 2.479732
C 0.017399 2.265083 2.531329
C 0.188116 2.077873 2.556073
C 0.132765 2.112257 2.652642
C 0.006255 2.106265 2.665411
C -0.213298 2.055050 2.747233
C -0.486667 2.066953 2.889467
C -0.743092 2.018199 2.960530
C -0.866045 1.898870 3.022795
C -0.913472 1.889496 3.184866
C -0.591718 1.753462 2.921591
C -0.232899 1.561208 2.388833
C 0.271626 1.519768 1.733897
C 0.777759 1.421963 1.015766
C 1.128119 1.340898 0.326434
C 1.498677 1.137610 -0.250239
C 1.883968 0.929930 -1.064923
C 2.169445 0.798025 -1.487336
C 2.476508 0.786935 -1.662121
C 2.582105 0.603160 -1.649891
C 2.620373 0.444692 -1.579720
C 2.765371 0.367197 -1.514657
C 2.888423 0.506952 -1.445038
C 2.840208 0.628280 -1.190546
C 2.793728 0.795316 -0.779310
C 2.534558 0.798463 -0.339660
C 2.455729 0.913173 -0.007571
C 2.422461 0.962157 0.235090
C 2.397368 0.921128 0.470262
C 2.284097 0.802984 0.681955
C 2.485466 0.811435 0.822745
C 2.673895 0.693210 0.764396
C 3.055340 0.719185 0.684264
C 3.345182 0.777651 0.532307
C 3.508721 0.698322 0.520562
C 3.697883 0.646202 0.458009
C 3.969688 0.589591 0.281908
C 3.965716 0.553233 0.416547
C 3.922760 0.460202 0.539066
C 3.885186 0.226776 0.524870
C 3.836102 -0.116051 0.425688
C 3.844945 -0.352423 0.307203
C 3.725041 -0.502446 0.380703
C 3.684920 -0.674288 0.494713
C 3.684603 -0.964457 0.516129
C 3.803586 -1.262862 0.525179
C 3.680022 -1.369764 0.817088
C 3.441187 -1.377598 1.227901
C 3.296056 -1.342821 1.729559
C 3.160815 -1.347733 1.951208
C 2.876477 -1.233770 2.209062
C 2.595167 -1.153793 2.304007
C 2.264449 -0.890628 2.533014
C 2.077695 -0.848540 2.619756
C 2.029734 -0.803959 2.698389
C 1.801851 -0.778044 2.730279
C 1.530568 -0.676163 2.833946
C 1.565483 -0.821390 2.774790
C 1.434256 -0.841487 2.738557
C 1.191601 -0.868724 2.758361
C 1.015839 -0.841617 2.729615
C 0.842256 -0.874644 2.665888
C 0.826452 -0.923508 2.561397
C 0.811314 -1.010739 2.574730
C 0.655084 -1.149872 2.746351
C 0.608048 -1.210804 2.741240
C 0.801538 -1.580711 2.562986
C 0.938927 -1.925508 2.503251
C 1.058427 -2.113970 2.435621
C 1.149253 -2.268175 2.245398
C 1.390985 -2.564884 1.942105
C 1.596635 -2.636541 1.597787
C 1.819401 -2.958040 1.250394
C 1.901691 -2.926447 0.969592
C 1.902134 -2.853414 0.700338
C 1.906788 -2.871824 0.477079
C 1.821762 -2.850223 0.335855
C 1.703092 -2.782466 0.101710
C 1.586825 -2.825447 -0.101798
C 1.479329 -2.729446 -0.216223
C 1.282045 -2.833113 -0.381805
C 1.290463 -2.876153 -0.562685
C 1.081515 -2.956489 -0.727635
C 0.956685 -3.157336 -0.864729
C 0.884513 -3.364083 -0.776407
C 0.767800 -3.231605 -0.691251
C 0.625350 -3.314621 -0.533781
C 0.540939 -3.200094 -0.252097
C 0.255319 -3.037424 -0.031554
C 0.178969 -3.000785 0.174016
C 0.081640 -2.910441 0.195559
C -0.017893 -2.751781 0.221067
C -0.214198 -2.915583 0.128991
C -0.420071 -2.774035 0.079143
C -0.506509 -2.594573 0.159285
C -0.608896 -2.401538 0.282371
C -0.717814 -2.218245 0.627008
C -0.699448 -2.035805 0.874274
C -0.820672 -2.036511 1.193880
C -0.948866 -1.755565 1.712616
C -1.021897 -1.604288 2.052157
C -1.178988 -1.481033 2.149196
C -1.254158 -1.474510 2.249623
C -1.388910 -1.331784 2.241778
C -1.694470 -1.238388 2.469398
C -1.857257 -1.042369 2.526494
C -1.818637 -1.099377 2.428433
C -1.758768 -1.284877 2.368244
C -1.704522 -1.546955 2.322364
C -1.636369 -1.858548 2.232310
C -1.592554 -2.013465 2.106649
C -1.550710 -2.104614 1.984369
C -1.511892 -2.452373 1.786154
C -1.554558 -2.751375 1.553296
C -1.672136 -2.843219 1.509101
C -1.711443 -2.992544 1.449643
C -1.820760 -3.122121 1.344524
C -1.891556 -3.276364 1.299979
C -1.900773 -3.415120 1.200218
C -1.842677 -3.268627 1.101891
C -1.918257 -3.136882 1.073573
C -2.035565 -3.057790 0.968224
C -2.105380 -2.883322 0.846979
C -2.159690 -2.573476 0.786499
C -2.167845 -2.398200 0.624363
C -2.284690 -2.129075 0.669074
C -2.475259 -1.759661 0.815266
C -2.561559 -1.410949 0.897359
C -2.704334 -1.290063 0.794466
C -3.095638 -1.249821 0.675785
C -3.242132 -1.083678 0.814054
C -3.500711 -0.925168 1.001915
C -3.761844 -0.768964 0.950318
C -4.077357 -0.708847 0.855299
C -4.275848 -0.735202 0.830427
C -4.362350 -0.519200 0.967915
C -4.255870 -0.160001 1.259412
