229
chr13 3D structure from Hi-C (resolution 500000bp)
C 4.861874 -2.563176 -0.701609
C 4.758936 -2.621212 -1.053627
C 4.611902 -2.799614 -1.227799
C 4.468550 -3.006866 -1.242161
C 4.276048 -3.255756 -1.360739
C 4.053528 -3.528702 -1.279296
C 3.808944 -3.815457 -0.935667
C 3.604134 -4.059811 -0.348010
C 3.530144 -3.941334 0.499429
C 3.575305 -3.558840 1.297661
C 3.710226 -3.079570 1.919041
C 3.885451 -2.682623 2.311630
C 4.023336 -2.405634 2.564097
C 4.049629 -2.242840 2.790531
C 3.957633 -2.151580 3.019612
C 3.741798 -2.274800 3.142483
C 3.472427 -2.407492 3.333584
C 3.212999 -2.454438 3.584557
C 3.251254 -2.128602 3.609238
C 3.407338 -1.625670 3.475196
C 3.715280 -1.005012 3.069198
C 4.124892 -0.378055 2.389784
C 4.564606 0.086424 1.484808
C 5.005364 0.324301 0.519201
C 5.405790 0.401805 -0.277759
C 5.484028 0.216539 -0.578556
C 5.471442 0.001627 -0.566145
C 5.156112 -0.127733 0.059429
C 4.704487 -0.200095 0.958732
C 4.235654 -0.098342 1.992835
C 3.829968 0.171010 2.966458
C 3.533750 0.507438 3.681571
C 3.340360 0.861254 4.119994
C 3.225123 1.275910 4.220005
C 3.325285 1.678819 3.650016
C 3.344222 1.957071 2.828308
C 3.179500 2.175398 2.279247
C 2.884278 2.351944 1.831528
C 2.623912 2.607051 1.486188
C 2.190545 2.818180 1.234501
C 1.775901 2.798870 0.971628
C 1.509246 2.684482 0.885526
C 1.467232 2.679397 0.967717
C 1.525686 2.664447 0.848287
C 1.567028 2.689630 0.783795
C 1.375979 2.593803 0.705907
C 1.369541 2.673687 0.621416
C 1.299378 2.821834 0.713746
C 1.275791 2.955792 0.796728
C 1.089867 2.953171 0.860802
C 1.096219 3.004665 0.749186
C 1.052148 3.075920 0.661829
C 1.131108 3.144400 0.562219
C 0.991979 3.112912 0.492349
C 0.959378 3.136933 0.373470
C 0.831601 3.060450 0.270018
C 0.735214 3.177241 0.285024
C 0.532943 3.264766 0.334132
C 0.444815 3.239741 0.262196
C 0.385851 3.159996 0.097854
C 0.472500 3.012991 -0.132552
C 0.360674 2.973108 -0.306118
C 0.269061 3.182782 -0.389970
C 0.355509 3.242728 -0.698598
C 0.396921 3.164303 -0.888859
C 0.635317 3.027155 -1.217708
C 0.855743 3.019445 -1.425315
C 0.966255 3.070165 -1.619873
C 1.049754 2.909612 -1.730030
C 1.078700 2.567175 -1.820343
C 1.049522 2.403568 -1.832007
C 1.051109 2.247248 -1.940267
C 0.920133 2.225786 -2.034346
C 0.693414 2.207642 -2.134452
C 0.429728 2.141753 -2.073806
C 0.256821 2.167975 -1.942626
C 0.031492 2.360411 -1.922276
C -0.211491 2.478510 -1.809165
C -0.433682 2.688728 -1.514337
C -0.765908 2.924956 -1.137919
C -1.044675 3.124868 -0.783656
C -1.271848 3.265846 -0.512617
C -1.444156 3.342921 -0.451155
C -1.572983 3.343281 -0.319064
C -1.659418 3.298441 -0.381199
C -1.713049 3.227519 -0.516649
C -1.743337 3.075107 -0.521679
C -1.785951 2.999206 -0.333212
C -1.790535 2.920190 -0.239146
C -1.862848 2.958116 -0.112535
C -1.919862 2.855167 -0.107626
C -1.969694 2.737059 -0.126416
C -2.088869 2.690368 -0.170805
C -2.134711 2.681969 0.002229
C -2.147480 2.522332 -0.119265
C -2.253141 2.525457 -0.074209
C -2.174373 2.509660 0.039324
C -2.118489 2.533012 0.268998
C -2.036696 2.594149 0.663425
C -1.930916 2.572686 1.055089
C -1.874703 2.496882 1.059652
C -1.838513 2.564190 1.363813
C -1.476688 2.284396 1.201651
C -1.048978 1.927696 0.888636
C -0.527304 1.629053 0.373015
C -0.044935 1.197926 -0.096356
C 0.482847 0.806608 -0.601290
C 0.867458 0.458274 -1.012322
C 1.386045 -0.000954 -1.720587
C 1.722647 -0.147786 -2.086149
C 1.862269 -0.190823 -2.407892
C 1.819287 -0.244365 -2.498866
C 1.733153 -0.248940 -2.592086
C 1.652543 -0.220868 -2.684092
C 1.680258 -0.129734 -2.803926
C 1.504987 -0.033585 -2.776144
C 1.097596 0.140043 -2.695150
C 0.726300 0.286123 -2.512461
C 0.481420 0.287978 -2.375768
C 0.284871 0.436891 -2.431995
C 0.031973 0.474710 -2.449124
C -0.230526 0.456485 -2.367170
C -0.405801 0.456880 -2.544163
C -0.329849 0.257253 -2.743475
C -0.246710 0.066020 -3.004143
C -0.059151 -0.157419 -3.273165
C -0.067406 -0.387267 -3.312899
C 0.023528 -0.552240 -3.450895
C 0.137399 -0.712336 -3.660849
C 0.114807 -0.844903 -3.721460
C 0.024432 -0.848480 -3.671101
C -0.030226 -1.035514 -3.627576
C -0.101641 -1.180302 -3.560772
C -0.226151 -1.300031 -3.586960
C -0.476074 -1.212583 -3.484659
C -0.749772 -1.196911 -3.464530
C -1.034272 -1.091328 -3.394237
C -1.319891 -1.063599 -3.495864
C -1.639709 -1.006728 -3.426954
C -2.122444 -0.729897 -3.233424
C -2.526947 -0.610634 -3.026211
C -2.675372 -0.617796 -2.926892
C -2.738534 -0.555716 -2.639904
C -2.737864 -0.553930 -2.355366
C -2.836732 -0.529240 -2.005950
C -2.963996 -0.369816 -1.798170
C -2.962769 -0.406364 -1.743019
C -2.909987 -0.221268 -1.547767
C -2.956005 -0.106301 -1.312304
C -2.998752 -0.164980 -1.304876
C -2.979436 -0.264631 -1.207114
C -2.931648 -0.166880 -1.034298
C -2.880009 -0.180920 -0.848166
C -2.812573 -0.127517 -0.716425
C -2.748120 -0.250433 -0.700638
C -2.817546 -0.323423 -0.665563
C -2.898399 -0.420978 -0.599536
C -2.808707 -0.444262 -0.618114
C -2.717370 -0.859909 -0.767236
C -2.707426 -1.204627 -0.933649
C -2.673953 -1.479589 -1.019768
C -2.491258 -1.771664 -1.137766
C -2.258170 -2.119942 -1.329964
C -1.976188 -2.326717 -1.482654
C -1.855449 -2.664800 -1.625592
C -1.642772 -2.780455 -1.697470
C -1.325600 -2.693586 -1.652665
C -1.130163 -2.729565 -1.624530
C -0.912650 -2.705760 -1.559772
C -0.685686 -2.735731 -1.457947
C -0.543312 -2.814507 -1.285682
C -0.472162 -2.838830 -1.065161
C -0.339478 -2.926492 -0.846981
C -0.456930 -3.127709 -0.739049
C -0.312816 -3.224223 -0.608410
C -0.338481 -3.415396 -0.487493
C -0.440709 -3.530130 -0.356666
C -0.536712 -3.399390 -0.267885
C -0.642243 -3.412197 -0.194199
C -0.958451 -3.245006 -0.074447
C -1.029877 -3.079433 0.053395
C -1.219414 -2.981267 0.161995
C -1.211359 -2.895675 0.286226
C -1.176290 -2.735688 0.401630
C -1.067653 -2.860132 0.652607
C -1.102760 -2.770025 0.778626
C -1.006131 -2.560193 0.833473
C -0.975292 -2.286035 0.946261
C -1.007926 -1.992042 1.137569
C -1.150810 -1.703292 1.125800
C -1.108815 -1.633286 1.240107
C -1.525602 -1.238229 1.201754
C -1.717792 -0.959877 1.299014
C -1.801236 -0.838190 1.428960
C -1.915504 -0.782200 1.473593
C -2.145429 -0.647395 1.493737
C -2.370664 -0.515271 1.676435
C -2.701945 -0.234482 1.754606
C -2.632495 -0.341573 1.754534
C -2.618956 -0.469781 1.758176
C -2.647886 -0.651553 1.731680
C -2.666294 -0.930819 1.714556
C -2.598567 -1.075338 1.754183
C -2.515795 -1.193586 1.796321
C -2.417194 -1.543258 1.933199
C -2.379558 -1.729404 2.107877
C -2.220218 -1.838518 2.219986
C -2.148220 -1.929306 2.394281
C -1.973169 -2.063771 2.526439
C -1.922177 -2.293970 2.485709
C -1.853536 -2.444170 2.513253
C -1.712480 -2.422595 2.372432
C -1.514546 -2.489353 2.312284
C -1.440619 -2.315126 2.421684
C -1.301546 -2.241951 2.292387
C -1.203083 -1.986116 2.248019
C -1.095989 -1.774958 2.327084
C -1.043925 -1.529761 2.416201
C -1.144952 -1.166963 2.512785
C -1.150690 -0.723044 2.586657
C -0.950798 -0.711774 2.665222
C -0.790022 -0.539433 3.111445
C -0.860834 -0.315158 3.261561
C -0.895033 -0.071763 3.409662
C -0.830175 0.077216 3.625905
C -0.706960 0.274185 3.902649
C -0.657489 0.314820 4.106126
C -0.839247 0.624878 4.191733
C -1.097359 0.859241 3.968576
