291
chr8 3D structure from Hi-C (resolution 500000bp)
C -2.845757 2.565019 -0.646224
C -2.773787 2.778930 -0.672588
C -2.731512 2.684239 -0.874309
C -2.606706 2.475254 -1.073777
C -2.393767 2.397685 -1.238147
C -2.240322 2.346217 -1.427689
C -2.176270 1.987200 -1.727574
C -2.114042 1.577141 -1.983305
C -2.063254 1.158248 -2.153468
C -1.986599 0.837536 -2.092304
C -1.996160 0.564982 -1.882082
C -2.245792 0.547188 -1.634402
C -2.461922 0.785355 -1.219947
C -2.588408 0.375088 -0.812154
C -2.637117 0.028624 -0.464465
C -2.698982 -0.210148 -0.195339
C -2.927688 -0.309746 0.012098
C -3.155695 -0.274861 0.102510
C -3.032335 -0.496728 0.168260
C -2.952582 -1.082151 0.118356
C -2.903171 -0.994265 0.058866
C -3.126469 -0.501257 0.038690
C -3.105166 -0.360532 -0.113190
C -2.835078 -0.270225 -0.350272
C -2.611418 -0.189042 -0.624571
C -2.598757 0.016261 -0.880120
C -2.571101 0.331685 -1.210735
C -2.509415 0.682529 -1.585588
C -2.263537 0.487728 -1.964291
C -2.308539 0.669342 -2.104421
C -2.398276 0.737837 -2.228238
C -2.402317 0.658282 -2.208261
C -2.283378 0.443201 -2.167274
C -2.138398 0.229845 -2.085188
C -2.152045 -0.025898 -1.959187
C -2.203211 -0.182271 -1.762522
C -2.130964 -0.489160 -1.598734
C -2.184528 -0.643829 -1.363475
C -2.331109 -0.664978 -1.281971
C -2.471968 -0.656389 -1.194892
C -2.602354 -0.814098 -1.044160
C -2.626592 -1.065124 -0.785005
C -2.597806 -1.325166 -0.546438
C -2.558900 -1.499355 -0.406068
C -2.470031 -1.607128 -0.377601
C -2.479419 -1.704476 -0.317536
C -2.539776 -1.588976 -0.297228
C -2.519854 -1.545626 -0.362162
C -2.499631 -1.433414 -0.628890
C -2.480860 -1.345999 -0.807967
C -2.436945 -1.276018 -0.922060
C -2.364693 -1.351770 -0.878986
C -2.231289 -1.502714 -0.740768
C -2.030722 -1.863505 -0.555276
C -1.960630 -2.049346 -0.279426
C -1.878780 -2.287198 0.078900
C -1.760417 -2.443581 0.266817
C -1.755734 -2.565080 0.340076
C -1.719640 -2.644092 0.219896
C -1.596989 -2.557361 -0.079390
C -1.516194 -2.257774 -0.559532
C -1.406901 -1.999170 -1.036980
C -1.379920 -1.711026 -1.538590
C -1.386936 -1.586227 -1.883786
C -1.358615 -1.410312 -2.220830
C -1.337650 -1.011584 -2.493660
C -1.360406 -0.748850 -2.630921
C -1.342269 -0.695925 -2.652545
C -1.403832 -0.529937 -2.742389
C -1.363123 -0.303453 -2.841940
C -1.361217 -0.068243 -3.063966
C -1.360059 -0.111519 -2.958403
C -1.457172 -0.467634 -2.736577
C -1.421900 -0.900469 -2.294370
C -1.416385 -1.238973 -1.961012
C -1.351703 -1.833631 -1.541931
C -1.282436 -2.411003 -1.213605
C -1.217250 -2.506063 -0.994270
C -1.157692 -2.489925 -1.012471
C -1.044046 -2.372314 -0.984383
C -1.077180 -2.336245 -1.081418
C -1.127697 -2.422116 -1.017318
C -1.143894 -2.335871 -1.090521
C -1.173347 -2.211237 -1.298367
C -1.289000 -1.707992 -1.392516
C -1.350402 -0.927567 -1.301648
C -1.362600 -0.131826 -1.311722
C -1.267247 0.825312 -1.498239
C -1.136534 1.791223 -1.848367
C -1.043509 2.592307 -2.220563
C -0.934824 3.149528 -2.337058
C -0.702845 2.571058 -2.419788
C -0.516521 1.565794 -2.406206
C -0.335285 0.759164 -2.518750
C -0.167835 0.112715 -2.656811
C -0.015463 -0.426835 -2.570496
C 0.162713 -0.681760 -2.504417
C 0.304993 -0.813922 -2.491648
C 0.434134 -0.512732 -2.567343
C 0.576964 -0.069142 -2.846592
C 0.713641 0.021757 -2.986993
C 0.821112 0.029919 -3.013801
C 0.916340 -0.166790 -3.082367
C 0.966803 -0.366730 -3.088192
C 0.971200 -0.786963 -2.884065
C 0.994486 -1.187962 -2.657303
C 1.033536 -1.372461 -2.573719
C 1.000983 -1.442280 -2.414902
C 0.881077 -1.711218 -2.026028
C 0.850662 -1.646194 -1.863469
C 0.850321 -1.614747 -1.699088
C 0.937822 -1.484724 -1.689840
C 0.991894 -1.467682 -1.617170
C 0.929195 -1.624594 -1.269471
C 0.967657 -1.848006 -1.069173
C 1.170461 -1.919637 -1.224636
C 1.304208 -1.939310 -1.286740
C 1.376257 -2.134408 -1.227616
C 1.315662 -2.286407 -0.979749
C 1.291524 -2.295296 -0.879372
C 1.392705 -2.230756 -0.977399
C 1.567791 -1.999640 -1.150625
C 1.561617 -1.671323 -1.187723
C 1.566974 -1.771464 -1.083980
C 1.716682 -1.706917 -1.119038
C 1.826000 -1.449841 -1.315962
C 1.890541 -1.540296 -1.239752
C 1.930535 -1.482849 -1.259177
C 1.752357 -1.719531 -0.921045
C 1.722508 -1.972967 -0.634410
C 1.661060 -2.132258 -0.359182
C 1.547278 -2.302328 -0.102044
C 1.629994 -2.466413 0.003128
C 1.732836 -2.173216 -0.150842
C 1.843061 -2.001503 -0.284804
C 1.930253 -1.568108 -0.546770
C 2.003012 -1.456186 -0.584635
C 2.062123 -1.347334 -0.609018
C 2.118483 -1.131715 -0.695844
C 2.026581 -0.926408 -0.669876
C 1.999237 -1.008778 -0.532115
C 1.898175 -1.085291 -0.313245
C 2.041603 -1.273003 -0.172324
C 1.998037 -1.259187 -0.177280
C 2.051508 -1.229713 -0.208873
C 2.116944 -1.119749 -0.269467
C 2.275494 -1.019128 -0.397334
C 2.369124 -0.800828 -0.578418
C 2.484430 -0.603306 -0.778032
C 2.459956 -0.316167 -0.970296
C 2.582631 0.012386 -1.322453
C 2.595798 0.469670 -1.708042
C 2.598823 0.631958 -1.739921
C 2.617693 0.709926 -1.709223
C 2.675689 0.634809 -1.516285
C 2.764451 0.577701 -1.371826
C 2.769294 0.353519 -1.059491
C 2.766547 -0.068290 -0.512268
C 2.840262 -0.329127 -0.123325
C 2.843698 -0.580629 0.121280
C 2.797093 -0.624416 0.229461
C 2.638282 -0.291111 0.038125
C 2.460470 -0.104876 -0.024468
C 2.302638 0.371615 -0.369473
C 2.173319 1.026046 -0.771743
C 1.994472 1.469632 -1.123435
C 1.926209 1.854239 -1.402027
C 1.746606 1.930024 -1.432979
C 1.530125 2.029045 -1.377621
C 1.425410 2.062980 -1.321152
C 1.456806 1.853841 -1.056822
C 1.408916 1.931247 -1.069510
C 1.433806 1.869117 -0.892351
C 1.526837 1.959949 -0.843203
C 1.716098 2.147545 -0.850784
C 1.965810 1.962379 -0.740902
C 2.197371 1.735841 -0.503353
C 2.261870 1.787595 -0.488925
C 2.477385 1.440085 -0.189794
C 2.707880 1.240050 0.024142
C 2.595033 1.335578 0.070673
C 2.641738 1.257223 0.228376
C 2.755026 1.264316 0.388105
C 2.647998 1.369983 0.338700
C 2.669260 1.103761 0.555607
C 2.448836 0.843856 0.703238
C 2.177137 0.564688 0.913328
C 2.088041 0.002734 1.234022
C 1.861540 -0.186478 1.305848
C 1.638336 -0.462762 1.420410
C 1.640159 -0.670815 1.641053
C 1.543714 -0.702949 1.690515
C 1.522754 -0.679436 1.720501
C 1.424171 -0.722160 1.707886
C 1.299825 -0.896637 1.814440
C 1.262477 -1.248690 1.993564
C 1.166865 -1.508690 2.137445
C 0.881228 -1.769121 2.264954
C 0.709303 -1.923095 2.358936
C 0.600613 -2.017649 2.430216
C 0.585945 -1.996196 2.445347
C 0.600189 -1.973474 2.436150
C 0.536107 -1.872772 2.448682
C 0.592726 -1.644028 2.347556
C 0.829572 -1.259465 2.102420
C 1.050726 -0.997276 2.008573
C 1.295966 -0.723231 1.922914
C 1.561592 -0.341781 1.812958
C 1.862543 0.169590 1.683067
C 2.083469 0.535615 1.556672
C 2.185744 0.738150 1.565913
C 2.235059 0.951840 1.600604
C 2.246805 1.198218 1.522186
C 2.148517 1.350259 1.432571
C 2.014865 1.433566 1.393475
C 1.842977 1.342586 1.392315
C 1.805201 1.443348 1.477406
C 1.662297 1.781099 1.229322
C 1.416958 2.029072 1.055868
C 1.210164 2.247702 0.911989
C 1.184844 2.425047 0.844676
C 1.073622 2.591904 0.747691
C 1.035312 2.922158 0.651127
C 0.920264 3.058791 0.476737
C 0.988641 2.981724 0.627680
C 1.083534 2.834329 0.773430
C 1.175101 2.699591 0.923706
C 1.155956 2.658447 1.093778
C 1.057041 2.728313 1.191219
C 1.009524 2.656973 1.300393
C 1.025311 2.359045 1.511357
C 0.941944 2.306709 1.661177
C 0.929588 2.104530 1.858163
C 0.863789 1.851892 2.034806
C 0.863325 1.519200 2.176510
C 0.946396 1.249941 2.298307
C 0.973720 1.003366 2.447591
C 0.924898 1.125451 2.439827
C 0.942463 1.008156 2.481483
C 0.863613 1.166931 2.412420
C 0.773541 1.367216 2.362558
C 0.681134 1.656638 2.220507
C 0.667383 1.470735 2.333304
C 0.575537 1.303704 2.414448
C 0.454295 1.119527 2.614674
C 0.343982 0.887912 2.668766
C 0.274465 0.508643 2.823091
C 0.224692 0.149784 2.932005
C 0.183536 -0.088218 3.051901
C 0.104020 0.052072 2.952368
C -0.051978 0.255801 2.909293
C -0.109350 0.184304 2.822712
C -0.227929 0.148982 2.847013
C -0.287109 0.219489 2.774346
C -0.570725 0.586629 2.739784
C -0.615295 0.682847 2.741438
C -0.673000 0.632464 2.867105
C -0.601477 0.455667 2.833862
C -0.593238 0.694762 2.800354
C -0.594522 1.034087 2.702249
C -0.605217 1.253458 2.664028
C -0.419712 1.164611 2.610858
C -0.503449 1.178576 2.594691
C -0.559448 1.135097 2.495614
C -0.604909 1.194979 2.447773
C -0.653738 1.154525 2.382621
C -0.648007 0.987152 2.354836
C -0.687101 1.043855 2.284822
C -0.685951 1.178960 2.211180
C -0.726794 1.378716 2.101128
C -0.843096 1.698278 2.000659
C -0.895951 2.029196 1.845272
C -0.877493 2.208386 1.717929
C -0.980944 2.430482 1.634662
C -0.996520 2.358782 1.641727
C -1.041620 2.158349 1.679418
C -1.091200 1.931967 1.757827
C -1.055464 1.495031 1.882820
C -1.161709 0.953807 2.124069
C -1.347176 0.424881 2.349414
C -1.446037 0.025030 2.554074
C -1.619115 -0.221512 2.706582
C -1.771629 -0.447020 2.812717
C -1.994584 -0.675125 2.895599
C -2.350757 -0.530758 2.862999
C -2.602223 -0.299691 2.806720
C -2.804162 -0.077844 2.726321
C -3.067410 0.209871 2.545388
C -3.220427 0.279460 2.466583
C -3.412817 0.443616 2.387536
C -3.526445 0.734446 2.265185
