291
chr8 3D structure from Hi-C (resolution 500000bp)
C -3.544437 1.950969 0.184662
C -3.484817 2.239018 0.184756
C -3.480515 2.150804 -0.042622
C -3.446015 1.938603 -0.239748
C -3.247945 1.956872 -0.397949
C -3.141132 1.964587 -0.581183
C -3.081373 1.617819 -0.914342
C -3.015655 1.223188 -1.217484
C -2.923190 0.843316 -1.489490
C -2.773496 0.565303 -1.483576
C -2.600056 0.332110 -1.359835
C -2.826521 0.213443 -1.137138
C -2.978403 0.379836 -0.751033
C -2.938294 -0.057465 -0.452051
C -2.750347 -0.484916 -0.200577
C -2.716318 -0.784638 0.036510
C -2.881849 -0.934700 0.234502
C -3.101994 -0.958779 0.363691
C -2.870741 -1.153145 0.393192
C -2.645637 -1.777609 0.264890
C -2.590836 -1.731721 0.243826
C -3.001941 -1.322461 0.361794
C -3.058045 -1.183674 0.254293
C -2.863953 -1.002726 0.007302
C -2.711440 -0.806565 -0.312823
C -2.727491 -0.436923 -0.631642
C -2.743621 0.044392 -1.004685
C -2.792563 0.440677 -1.414899
C -2.578035 0.443886 -1.870559
C -2.628140 0.682400 -2.034793
C -2.706169 0.865238 -2.111491
C -2.659703 0.790065 -2.111372
C -2.596844 0.555336 -1.992811
C -2.502218 0.295518 -1.877255
C -2.437483 0.060264 -1.776916
C -2.427265 -0.144398 -1.652551
C -2.329867 -0.493631 -1.535145
C -2.314742 -0.856840 -1.332892
C -2.451827 -1.026574 -1.207474
C -2.557751 -1.164771 -1.163024
C -2.615503 -1.381311 -0.974730
C -2.552265 -1.644914 -0.702961
C -2.350439 -1.949277 -0.496711
C -2.235139 -2.123484 -0.351582
C -2.103396 -2.191608 -0.338779
C -2.065697 -2.275365 -0.288921
C -2.130775 -2.283863 -0.212363
C -2.086920 -2.281960 -0.271109
C -2.107520 -2.186029 -0.481919
C -2.183737 -2.090235 -0.632997
C -2.166038 -2.006215 -0.759615
C -2.101138 -2.069291 -0.808023
C -1.888223 -2.188867 -0.730283
C -1.595181 -2.408572 -0.654067
C -1.436702 -2.582441 -0.503992
C -1.289561 -2.808678 -0.218292
C -1.126887 -2.972836 -0.066084
C -1.059527 -3.126895 0.003686
C -1.040391 -3.237494 0.019388
C -1.023127 -3.132804 -0.264070
C -1.090520 -2.769081 -0.662080
C -1.168716 -2.363935 -1.054583
C -1.261118 -2.007090 -1.506500
C -1.381279 -1.771159 -1.845684
C -1.495269 -1.585825 -2.098258
C -1.598651 -1.187058 -2.437984
C -1.690724 -0.865807 -2.569891
C -1.695398 -0.807279 -2.598536
C -1.793935 -0.726995 -2.702537
C -1.862857 -0.480245 -2.798221
C -1.934953 -0.305490 -2.947293
C -1.860445 -0.277223 -2.933561
C -1.792988 -0.629070 -2.751762
C -1.645954 -1.120087 -2.449199
C -1.511765 -1.521260 -2.165984
C -1.316586 -1.973507 -2.090342
C -1.184461 -2.451115 -2.003021
C -1.051060 -2.511121 -1.869556
C -1.086379 -2.416770 -1.818676
C -1.037990 -2.230309 -1.784484
C -1.043081 -2.138270 -1.822516
C -0.992367 -2.201604 -1.776349
C -0.943426 -2.243756 -1.562787
C -1.031906 -1.587159 -1.538047
C -1.233613 -1.074425 -1.488792
C -1.359845 -0.391736 -1.278146
C -1.516603 0.403007 -1.107586
C -1.656381 1.402671 -1.071061
C -1.871322 2.482939 -1.210855
C -2.099031 3.401381 -1.398991
C -2.006648 3.401805 -1.488124
C -1.682980 2.871886 -1.715534
C -1.344294 2.037844 -2.026385
C -1.042974 1.433049 -2.385345
C -0.783488 0.872349 -2.741016
C -0.460872 0.307679 -2.874258
C -0.121012 0.017915 -2.961573
C 0.092343 -0.074007 -2.982053
C 0.172039 0.328341 -2.974846
C 0.276421 0.655081 -3.109625
C 0.356319 0.733041 -3.203196
C 0.489658 0.720220 -3.212388
C 0.598677 0.743495 -3.292541
C 0.691287 0.569692 -3.319370
C 0.807081 0.023662 -3.123498
C 0.909324 -0.454851 -3.016728
C 0.947030 -0.628411 -2.949898
C 1.016952 -0.827811 -2.810043
C 1.030347 -1.156539 -2.517269
C 0.970728 -1.299750 -2.321734
C 0.951869 -1.328743 -2.137694
C 0.969390 -1.143184 -2.153718
C 0.981675 -1.065959 -2.081324
C 1.012956 -1.236322 -1.770926
C 1.088724 -1.378058 -1.727370
C 1.207545 -1.418269 -1.877414
C 1.380355 -1.552616 -1.920530
C 1.461016 -1.672960 -1.881643
C 1.474040 -1.815441 -1.690177
C 1.566330 -1.928543 -1.487440
C 1.637216 -1.786680 -1.592081
C 1.709901 -1.606705 -1.665920
C 1.686482 -1.293456 -1.567576
C 1.714596 -1.248313 -1.514278
C 1.902108 -1.165211 -1.618961
C 1.991255 -0.919630 -1.832585
C 2.078698 -0.957160 -1.800827
C 2.140089 -0.917652 -1.803659
C 2.135232 -1.241788 -1.471695
C 2.162134 -1.563278 -1.278530
C 2.165635 -1.800357 -1.043558
C 2.051609 -2.070132 -0.723604
C 2.159176 -2.198171 -0.571796
C 2.165846 -1.923014 -0.683124
C 2.263551 -1.866730 -0.731434
C 2.250222 -1.404118 -0.918848
C 2.320591 -1.217818 -0.946424
C 2.391343 -1.003622 -1.007391
C 2.427792 -0.747511 -1.109203
C 2.341002 -0.582827 -1.120860
C 2.258829 -0.689900 -0.963342
C 2.127581 -0.668281 -0.795754
C 2.281962 -0.829121 -0.633274
C 2.305558 -0.875436 -0.567119
C 2.296093 -0.944219 -0.482597
C 2.306850 -0.727435 -0.574062
C 2.273146 -0.491191 -0.702469
C 2.424754 -0.175123 -0.931252
C 2.605955 -0.084817 -1.028885
C 2.567292 0.233420 -1.178555
C 2.684065 0.666881 -1.360700
C 2.624891 1.209813 -1.737979
C 2.564582 1.296519 -1.690458
C 2.632822 1.368714 -1.600853
C 2.651242 1.294545 -1.476445
C 2.535809 1.448253 -1.526911
C 2.555222 1.298617 -1.334445
C 2.574321 0.885737 -1.048516
C 2.723009 0.609432 -0.693942
C 2.906938 0.369122 -0.506189
C 2.906533 0.203956 -0.384576
C 2.714125 0.483507 -0.450132
C 2.624363 0.583493 -0.351289
C 2.379287 0.925346 -0.609732
C 2.043917 1.515406 -0.930086
C 1.769126 1.961025 -1.171675
C 1.528405 2.321082 -1.372293
C 1.329759 2.434122 -1.417661
C 1.076708 2.531842 -1.425099
C 0.932515 2.502232 -1.427321
C 0.967272 2.345322 -1.194303
C 0.850742 2.430637 -1.159812
C 0.798784 2.400269 -1.014004
C 0.666222 2.605953 -1.007385
C 0.640250 2.869523 -0.997242
C 0.885628 2.721315 -0.875194
C 1.209465 2.478219 -0.667120
C 1.346490 2.431715 -0.591063
C 1.664890 2.182448 -0.377654
C 2.001076 2.046934 -0.244111
C 2.323978 1.947223 -0.048833
C 2.680361 1.651470 0.150136
C 2.752190 1.716089 0.225991
C 2.690071 1.871505 0.248576
C 2.689349 1.722558 0.412001
C 2.632941 1.365309 0.594095
C 2.485325 0.883985 0.762464
C 2.346985 0.367765 0.900672
C 2.092965 0.250032 0.929691
C 2.029181 -0.239779 1.151897
C 2.041742 -0.473810 1.303207
C 1.997319 -0.535175 1.380505
C 1.950395 -0.567040 1.400107
C 1.854377 -0.559132 1.450609
C 1.833095 -0.759813 1.616340
C 1.828009 -1.140364 1.774276
C 1.809867 -1.376349 1.863844
C 1.697046 -1.727744 1.949460
C 1.632303 -2.020062 1.984482
C 1.544258 -2.200664 2.057960
C 1.529503 -2.225382 2.051133
C 1.570629 -2.207295 2.027920
C 1.607620 -2.091487 2.066116
C 1.664989 -1.819420 1.998365
C 1.688546 -1.360437 1.868501
C 1.810237 -0.974092 1.860696
C 1.983858 -0.561998 1.831302
C 2.108355 -0.059085 1.787283
C 2.210302 0.468118 1.725113
C 2.278189 0.910645 1.641858
C 2.317368 1.147975 1.644701
C 2.313663 1.379681 1.632871
C 2.196087 1.663496 1.529362
C 2.069609 1.753460 1.441353
C 1.993134 1.771672 1.427471
C 1.814543 1.691459 1.364009
C 1.752885 1.780385 1.389886
C 1.497271 2.078312 1.274856
C 1.240995 2.289033 1.209844
C 1.084661 2.422763 1.238309
C 1.031654 2.598821 1.223939
C 0.903537 2.734545 1.177381
C 0.789253 3.034151 1.148428
C 0.649094 3.125032 1.124122
C 0.671905 3.056902 1.256175
C 0.748574 2.912073 1.383689
C 0.786496 2.765631 1.420235
C 0.713151 2.733128 1.590051
C 0.554097 2.785014 1.713529
C 0.601075 2.665119 1.868996
C 0.702642 2.372224 1.996190
C 0.810592 2.154278 2.156727
C 0.852923 1.895431 2.289552
C 0.905375 1.644065 2.437983
C 1.005264 1.384995 2.512310
C 1.146759 1.112314 2.576780
C 1.169712 0.864522 2.709295
C 1.066513 0.931236 2.675150
C 0.982307 0.929988 2.663918
C 0.804238 1.124365 2.599904
C 0.666546 1.284227 2.548575
C 0.540176 1.446902 2.493038
C 0.563119 1.222636 2.571481
C 0.497214 0.961115 2.544030
C 0.397554 0.609247 2.722118
C 0.364167 0.301834 2.687700
C 0.446048 -0.165104 2.804887
C 0.451128 -0.615615 2.884501
C 0.470005 -0.864326 2.939605
C 0.364967 -0.781413 2.904703
C 0.265508 -0.539415 2.968281
C 0.283118 -0.458909 2.900179
C 0.295172 -0.458563 2.989232
C 0.252142 -0.413164 2.972031
C -0.089724 -0.106862 3.069035
C -0.162038 -0.021342 3.110962
C -0.194403 -0.110882 3.182248
C -0.178398 -0.240224 3.081609
C -0.233535 -0.112122 3.095387
C -0.404582 0.184105 3.063047
C -0.542374 0.413228 3.032918
C -0.326982 0.431231 2.974790
C -0.432156 0.435707 2.976048
C -0.492333 0.455385 2.885122
C -0.567136 0.533103 2.840730
C -0.628133 0.627715 2.775961
C -0.606147 0.517975 2.690103
C -0.587343 0.606202 2.707261
C -0.677398 0.719844 2.626059
C -0.728826 0.927530 2.536595
C -0.903430 1.275483 2.515315
C -1.019326 1.575130 2.450136
C -1.070185 1.721131 2.365487
C -1.215714 1.939056 2.325900
C -1.247158 1.893869 2.257018
C -1.217247 1.697480 2.265354
C -1.224963 1.380221 2.331174
C -1.113737 0.947196 2.368046
C -1.096894 0.374142 2.531581
C -1.123698 -0.224710 2.680294
C -1.156515 -0.694037 2.837707
C -1.278649 -1.043703 2.966666
C -1.402678 -1.269871 3.043152
C -1.636221 -1.470407 3.064671
C -2.034514 -1.465782 3.087721
C -2.351955 -1.309233 3.050308
C -2.655223 -1.012855 3.009124
C -2.953666 -0.630847 2.872095
C -3.128727 -0.528007 2.832331
C -3.363791 -0.392733 2.772932
C -3.516885 -0.069136 2.703398
