118
chr19 3D structure from Hi-C (resolution 500000bp)
C 0.666567 2.138421 -2.636212
C 0.450930 2.171731 -2.705753
C 0.310612 2.078269 -2.674267
C 0.189311 2.146324 -2.499309
C -0.037264 2.369814 -2.355705
C -0.205113 2.437132 -2.214526
C -0.385428 2.464385 -1.994854
C -0.413934 2.341944 -1.884977
C -0.528982 2.352804 -1.717512
C -0.677432 2.425164 -1.650571
C -0.726701 2.281522 -1.632626
C -0.847348 2.090270 -1.620100
C -0.887080 1.873337 -1.671071
C -0.892530 1.561526 -1.638479
C -0.976353 1.176073 -1.485307
C -0.964544 0.626288 -1.371471
C -0.900050 0.234086 -1.243203
C -0.959215 0.091859 -1.267735
C -1.041447 0.093073 -1.214109
C -1.201301 0.052617 -1.172650
C -1.412218 -0.098367 -1.282655
C -1.653709 -0.031967 -1.346964
C -1.828700 0.256612 -1.389104
C -2.018710 0.448445 -1.277529
C -2.212794 0.492243 -1.153184
C -2.378943 0.539690 -0.976875
C -2.442130 0.519728 -0.711992
C -2.522529 0.751125 -0.412316
C -2.465687 0.973574 -0.164907
C -2.450082 1.156249 0.046666
C -2.433774 1.348613 0.091108
C -2.282906 1.560042 0.226831
C -2.135693 1.607397 0.265593
C -2.096603 1.797134 0.270595
C -2.020626 1.845884 0.382014
C -1.967235 1.755286 0.399248
C -1.916046 1.264292 0.383433
C -1.900464 0.556476 0.408356
C -2.053102 -0.248798 0.321000
C -2.071249 -0.860554 0.279244
C -2.034191 -1.626046 0.228677
C -1.892853 -2.310614 0.052291
C -1.810311 -2.743591 -0.015256
C -1.703290 -2.867648 0.030166
C -1.569593 -2.905037 -0.055325
C -1.295714 -2.857847 -0.110711
C -1.119467 -2.935805 -0.690831
C -0.866509 -2.778870 -1.382022
C -0.502424 -2.525690 -2.054298
C 0.001449 -2.309273 -2.696330
C 0.605287 -2.190851 -3.292161
C 0.996324 -2.302058 -3.358748
C 1.150370 -2.372212 -3.151065
C 1.326162 -2.392186 -2.365954
C 1.376922 -2.503139 -1.524100
C 1.254628 -2.613253 -0.608894
C 0.915441 -2.624845 0.317082
C 0.484544 -2.662005 1.217553
C 0.343998 -2.458448 1.644847
C 0.357164 -2.340198 1.783177
C 0.415744 -2.305365 1.875097
C 0.426632 -2.153773 2.019583
C 0.433610 -1.937805 2.088232
C 0.434820 -1.824027 2.137495
C 0.534227 -1.670169 2.185463
C 0.629743 -1.394500 2.401109
C 0.553810 -1.152105 2.381420
C 0.344491 -0.726995 2.293965
C 0.172045 -0.402281 2.305678
C 0.012686 -0.408302 2.208427
C -0.153783 -0.567143 2.045508
C -0.402194 -0.724392 1.963704
C -0.717057 -0.768852 1.781550
C -0.708216 -0.551213 1.905460
C -0.706533 -0.359653 2.065924
C -0.618572 -0.189838 2.023594
C -0.521696 0.187630 2.106800
C -0.363324 0.663352 2.168153
C -0.098536 1.166434 2.150580
C 0.196839 1.516895 2.154031
C 0.347696 1.701499 2.120824
C 0.699837 1.718663 2.000047
C 1.024049 1.524031 2.036169
C 1.264762 1.246778 2.013782
C 1.333815 1.008303 1.881009
C 1.420353 0.715171 1.707665
C 1.420905 0.592172 1.519374
C 1.365039 0.599444 1.340857
C 1.175043 0.660754 1.241894
C 1.025480 0.879840 1.075366
C 0.944907 1.298956 0.901773
C 1.068497 1.699963 0.868705
C 1.050577 2.061916 0.797249
C 1.109933 2.272590 0.691291
C 1.195746 2.344929 0.539624
C 1.283095 2.319860 0.400793
C 1.400796 2.368835 0.174515
C 1.518097 2.140690 0.080432
C 1.579638 1.848915 0.075399
C 1.613545 1.602199 0.081879
C 1.513844 1.239276 0.088770
C 1.508868 0.689414 0.037018
C 1.473132 0.262734 -0.001227
C 1.373260 -0.297767 0.097026
C 1.302975 -0.764967 0.128087
C 1.603718 -1.133440 -0.066149
C 2.073933 -1.204818 -0.375178
C 2.334811 -1.097357 -0.502021
C 2.425928 -1.074773 -0.389135
C 2.507791 -1.128465 -0.260779
C 2.488581 -1.224984 -0.293255
C 2.414392 -1.123028 -0.341119
C 1.958585 -1.067268 -0.339903
C 1.367532 -1.233192 -0.184600
C 1.404444 -1.488839 -0.400810
C 1.335502 -1.528486 -0.527854
C 1.281082 -1.568378 -0.738937
C 1.347781 -1.362386 -0.901145
