118
chr19 3D structure from Hi-C (resolution 500000bp)
C 0.214906 3.034960 0.999728
C 0.095874 3.028771 1.151083
C -0.026801 2.920024 1.221629
C -0.028284 2.840098 1.329685
C 0.064615 2.693190 1.706107
C 0.044996 2.586279 1.896784
C 0.138181 2.352914 2.068900
C 0.188547 2.081769 2.156830
C 0.363005 1.798638 2.293685
C 0.403823 1.687100 2.470573
C 0.383619 1.535317 2.469658
C 0.271508 1.374774 2.441329
C 0.251016 1.238749 2.358678
C 0.087965 1.077243 2.113909
C -0.202613 0.888036 1.679430
C -0.603462 0.743803 1.226415
C -0.813225 0.515003 0.806656
C -0.894502 0.454707 0.680094
C -1.001395 0.450734 0.647085
C -1.206222 0.448781 0.633736
C -1.469656 0.527564 0.616457
C -1.586868 0.706023 0.742258
C -1.553480 0.800887 1.070627
C -1.448285 0.733412 1.377518
C -1.539346 0.534937 1.538166
C -1.616744 0.391314 1.650123
C -1.534036 0.091020 1.690822
C -1.334784 -0.231180 1.950365
C -1.138020 -0.552431 2.157903
C -0.992911 -0.732705 2.273815
C -0.963886 -0.718634 2.408849
C -0.784312 -0.698901 2.479526
C -0.608966 -0.711790 2.471466
C -0.506031 -0.578298 2.598625
C -0.369545 -0.548410 2.640706
C -0.416886 -0.447254 2.536432
C -0.626627 -0.503374 2.165110
C -0.876140 -0.666727 1.591061
C -1.344666 -0.756378 1.109206
C -1.671796 -0.847299 0.631911
C -2.103347 -0.947160 -0.018629
C -2.491117 -0.930872 -0.666661
C -2.611904 -1.027920 -1.009359
C -2.571769 -1.010040 -1.237238
C -2.582461 -0.964389 -1.262990
C -2.398428 -0.899695 -1.427991
C -2.623740 -0.448923 -1.472628
C -2.690594 0.142218 -1.375711
C -2.673513 0.855886 -1.362780
C -2.596738 1.621155 -1.512413
C -2.491122 2.267803 -1.733228
C -2.331475 2.383362 -2.100973
C -2.175610 2.276076 -2.221758
C -1.752448 1.688586 -2.375003
C -1.387670 0.930675 -2.510894
C -1.148736 0.066279 -2.538617
C -1.010623 -0.807983 -2.239459
C -0.936149 -1.722768 -1.871488
C -0.770646 -2.030329 -1.533197
C -0.722488 -2.188599 -1.385657
C -0.637922 -2.323148 -1.363028
C -0.550200 -2.405949 -1.229461
C -0.424118 -2.445249 -1.024399
C -0.325478 -2.511655 -0.994257
C -0.183971 -2.513734 -0.988539
C 0.001476 -2.629874 -0.843992
C 0.112925 -2.491312 -0.708028
C 0.280880 -2.263826 -0.375896
C 0.473210 -2.196299 -0.062997
C 0.510248 -2.036207 -0.183165
C 0.464903 -1.840470 -0.452424
C 0.575365 -1.661977 -0.710011
C 0.595309 -1.415567 -0.865199
C 0.798000 -1.482393 -0.725979
C 1.014952 -1.583190 -0.568934
C 1.114088 -1.460771 -0.549297
C 1.323035 -1.435385 -0.210743
C 1.594003 -1.400600 0.232334
C 1.776956 -1.300776 0.680016
C 1.968996 -1.241398 0.999694
C 2.147792 -1.155859 1.060029
C 2.280367 -1.040963 0.852592
C 2.331402 -1.131068 0.574409
C 2.311378 -1.198946 0.264036
C 2.174833 -1.154668 0.062156
C 2.022419 -1.132039 -0.249697
C 1.905175 -1.043374 -0.393331
C 1.808556 -0.861997 -0.360418
C 1.662725 -0.689084 -0.186137
C 1.684616 -0.429841 -0.022698
C 1.818280 -0.095117 0.191825
C 2.071976 0.116173 0.331841
C 2.190623 0.254573 0.561285
C 2.229207 0.414795 0.673786
C 2.194876 0.615215 0.644403
C 2.169426 0.709588 0.573446
C 2.161921 0.950153 0.541635
C 2.041376 0.975942 0.406840
C 1.904532 0.944238 0.278016
C 1.797819 0.922118 0.145529
C 1.615665 0.829134 -0.070436
C 1.405879 0.735066 -0.444241
C 1.186016 0.646821 -0.756128
C 0.852132 0.409078 -1.052538
C 0.626264 0.280214 -1.357517
C 0.516785 0.414754 -1.900581
C 0.592378 0.836902 -2.287525
C 0.750847 1.060862 -2.325258
C 0.790551 0.984647 -2.370207
C 0.803629 0.905660 -2.448980
C 0.824827 0.858886 -2.552207
C 0.774724 0.881741 -2.414115
C 0.621648 0.697556 -2.148393
C 0.328753 0.378013 -1.881842
C 0.338594 0.583747 -1.979871
C 0.286344 0.652252 -1.944237
C 0.265999 0.828950 -1.938288
C 0.335917 1.113645 -1.782242
