181
chr16 3D structure from Hi-C (resolution 500000bp)
C 1.321541 3.319290 -0.865182
C 1.335612 3.436490 -0.783422
C 1.380553 3.393143 -0.895048
C 1.373702 3.183789 -1.051189
C 1.340042 2.952488 -1.293789
C 1.373074 2.685356 -1.561041
C 1.469004 2.291320 -1.799028
C 1.144194 1.747059 -1.925632
C 0.691706 1.069945 -2.084596
C 0.123172 0.480670 -2.135368
C -0.347614 0.061057 -2.054797
C -0.895715 -0.356133 -1.915783
C -1.383583 -0.733393 -1.758765
C -1.883772 -1.005300 -1.625426
C -1.748088 -0.961615 -1.634216
C -1.555444 -0.936914 -1.776387
C -1.316724 -0.916344 -1.908146
C -1.080647 -0.872079 -2.130564
C -0.763711 -0.755163 -2.390393
C -0.269420 -0.547364 -2.554214
C 0.195148 -0.344818 -2.796766
C 0.263721 -0.319555 -2.968115
C 0.294347 -0.279210 -2.937989
C 0.215272 -0.256170 -2.868845
C 0.147464 -0.189838 -2.816094
C 0.182317 -0.028855 -2.843712
C -0.061729 0.573348 -2.285480
C -0.370644 1.173918 -1.662460
C -0.722963 1.821064 -1.080599
C -1.060389 2.449598 -0.706999
C -1.314271 3.049091 -0.463108
C -1.357160 3.193705 -0.439809
C -1.654219 3.214971 -0.231262
C -1.976240 2.723743 -0.784023
C -1.955676 2.298776 -1.411503
C -1.768719 1.776733 -1.881646
C -1.443993 1.318142 -2.220656
C -1.207627 0.858425 -2.443267
C -1.160732 0.941100 -2.467304
C -1.078862 1.086794 -2.571441
C -0.896829 1.271139 -2.545578
C -0.895787 1.399734 -2.461775
C -0.995539 1.481435 -2.456568
C -1.075714 1.671860 -2.476862
C -0.800602 1.806013 -2.507886
C -0.802492 1.776026 -2.365835
C -0.627204 1.651267 -2.268784
C -0.505759 1.348306 -2.100342
C -0.578779 0.963902 -1.917957
C -0.672905 0.754021 -1.738893
C -0.713555 0.431148 -1.640760
C -0.843671 0.381125 -1.553121
C -0.850644 0.406703 -1.488149
C -0.962788 0.602028 -1.397917
C -0.756210 0.964458 -1.487836
C -0.474245 1.453881 -1.562341
C 0.146824 1.857703 -1.628566
C 0.671923 2.189269 -1.677472
C 1.109179 2.325740 -1.723174
C 1.400667 2.255335 -1.854175
C 1.169809 1.950683 -1.841351
C 0.462433 1.856327 -1.602936
C -0.226301 1.704188 -1.253309
C -1.202523 1.573560 -0.876675
C -2.197366 1.373011 -0.575956
C -3.220869 1.109260 -0.344659
C -3.905302 0.764544 -0.011865
C -4.090300 0.513319 0.159601
C -4.020048 -0.007679 0.181593
C -4.030050 -0.342645 0.269024
C -3.972137 -0.468871 0.485328
C -3.835174 -0.359884 0.860013
C -3.666928 -0.062160 1.286041
C -3.592405 0.576822 1.552202
C -3.458913 1.280885 1.862353
C -3.221255 1.977981 2.248587
C -2.811622 2.491695 2.512633
C -2.346753 2.878509 2.597276
C -1.836315 3.193986 2.607156
C -1.254342 3.419176 2.661453
C -0.649861 3.461581 2.850020
C -0.110363 3.348081 3.121195
C 0.282891 3.138348 3.381379
C 0.500277 2.880710 3.608872
C 0.520730 2.579460 3.823272
C 0.330594 2.232696 4.042528
C -0.046018 1.868304 4.227752
C -0.564133 1.520875 4.318003
C -1.155906 1.210426 4.285933
C -1.680173 0.741362 3.790887
C -1.532570 0.268814 2.879097
C -1.228464 -0.295137 1.966826
C -0.931783 -0.901026 1.101000
C -0.518046 -1.442742 0.269670
C -0.200462 -1.977702 -0.490747
C 0.186045 -2.405787 -1.195107
C 0.644463 -2.526542 -1.468410
C 0.624501 -2.521508 -1.363937
C 0.535790 -2.438777 -1.225318
C 0.322330 -2.376953 -1.042050
C 0.090367 -2.391328 -0.839185
C -0.015824 -2.357605 -0.653566
C -0.037111 -2.384656 -0.545107
C 0.072319 -2.418806 -0.539405
C 0.023186 -2.528259 -0.434600
C -0.126826 -2.572430 -0.334525
C -0.111183 -2.663611 -0.290460
C -0.062322 -2.621982 -0.278222
C 0.103497 -2.677984 -0.281422
C 0.316641 -2.565719 -0.281107
C 0.491605 -2.412192 -0.244380
C 0.752814 -2.176620 -0.328814
C 1.105858 -2.060591 -0.372310
C 1.438346 -1.889353 -0.392542
C 1.597359 -1.868372 -0.358514
C 1.430445 -1.826765 -0.199815
C 1.044016 -1.921815 -0.010945
C 0.504491 -2.091982 0.210232
C -0.095024 -2.344490 0.548744
C -0.681096 -2.488923 0.813702
C -1.094046 -2.578208 1.023468
C -1.387720 -2.601220 1.223189
C -1.347387 -2.590246 1.342454
C -1.238874 -2.561894 1.498911
C -1.207306 -2.519444 1.696372
C -1.145352 -2.432243 1.750788
C -1.073009 -2.340319 1.832635
C -0.992970 -2.324552 1.861093
C -0.887989 -2.305739 1.801492
C -0.702006 -2.214343 1.603261
C -0.258090 -1.998173 1.276332
C 0.416303 -1.692816 0.892757
C 1.147439 -1.323738 0.606838
C 1.798687 -1.005545 0.320265
C 2.328799 -0.661944 0.166761
C 2.875473 -0.274509 0.044515
C 3.227895 0.050027 -0.043312
C 3.376938 0.176161 0.186770
C 3.288921 0.114834 0.479306
C 3.013061 -0.096113 0.730015
C 2.838203 -0.246636 0.793026
C 2.656754 -0.445835 0.973339
C 2.434175 -0.625127 1.295605
C 2.220276 -0.883174 1.577048
C 1.877014 -1.083056 1.710047
C 1.725582 -1.237537 1.679217
C 1.795284 -1.279618 1.603109
C 1.813265 -1.388813 1.670014
C 1.718736 -1.425653 1.767499
C 1.571792 -1.573075 1.700886
C 1.474266 -1.621547 1.656469
C 1.484740 -1.735194 1.576516
C 1.334647 -1.744070 1.509308
C 1.072142 -1.790556 1.442293
C 0.844202 -1.815349 1.454642
C 0.714216 -1.828121 1.280155
C 0.628954 -1.741913 1.284171
C 0.558190 -1.695571 1.290225
C 0.614895 -1.598478 1.149743
C 0.750405 -1.559955 1.111013
C 0.903147 -1.470805 1.058266
C 0.929831 -1.394808 1.136602
C 0.921098 -1.306258 1.117410
C 0.909910 -1.263674 0.898201
C 0.948428 -1.143790 0.763651
C 0.925498 -0.922917 0.730493
C 0.955830 -0.662741 0.723931
C 1.030098 -0.500859 0.708705
C 1.210573 -0.285254 0.532694
C 1.313205 -0.102156 0.522369
C 1.458733 0.091161 0.615264
C 1.541238 0.306523 0.691676
C 1.633571 0.453235 0.636302
C 1.659778 0.618094 0.731017
C 1.751179 0.842304 0.848524
C 1.847185 1.059183 0.886364
C 2.117927 1.298504 0.794218
C 2.329411 1.646982 0.882442
C 2.509035 1.811314 0.820907
C 2.643289 1.987716 0.967904
C 2.777075 2.094603 0.899150
