181
chr16 3D structure from Hi-C (resolution 500000bp)
C 1.475957 2.806981 -1.481075
C 1.533562 2.897935 -1.496225
C 1.555788 2.847267 -1.604685
C 1.513910 2.624154 -1.719508
C 1.412060 2.414377 -1.894530
C 1.380166 2.102270 -2.140514
C 1.377082 1.658491 -2.338349
C 1.010751 1.162509 -2.320740
C 0.497557 0.525732 -2.211561
C -0.085218 -0.018681 -2.028015
C -0.560237 -0.373599 -1.767474
C -1.123553 -0.685360 -1.427313
C -1.618343 -1.002507 -1.097793
C -2.064704 -1.197772 -0.840405
C -1.979951 -1.130702 -0.889269
C -1.846302 -1.118680 -1.072082
C -1.622686 -1.103534 -1.302152
C -1.381032 -1.058438 -1.560472
C -0.989948 -0.989414 -1.918625
C -0.582347 -0.813634 -2.215323
C -0.198621 -0.610349 -2.569634
C -0.188046 -0.592984 -2.749340
C -0.121655 -0.521840 -2.790279
C -0.190203 -0.461413 -2.722565
C -0.347618 -0.462249 -2.650836
C -0.529962 -0.372479 -2.672458
C -0.736051 0.291855 -2.239172
C -1.020870 0.894830 -1.692716
C -1.281581 1.515726 -1.152531
C -1.609941 2.132542 -0.784910
C -1.874289 2.709112 -0.535602
C -1.846725 2.919622 -0.634877
C -1.970088 2.964256 -0.444169
C -2.295570 2.439968 -0.747238
C -2.295976 1.973251 -1.281424
C -2.157129 1.447555 -1.696890
C -1.924232 0.995137 -2.026349
C -1.703506 0.535709 -2.271307
C -1.734393 0.570747 -2.210646
C -1.682502 0.761680 -2.316755
C -1.426160 0.962633 -2.370930
C -1.394543 1.096367 -2.274521
C -1.461121 1.227709 -2.219749
C -1.553683 1.383360 -2.227246
C -1.265694 1.497425 -2.246868
C -1.243178 1.482764 -2.132516
C -1.097166 1.342158 -2.081633
C -1.028212 1.050539 -1.923612
C -1.059051 0.733456 -1.702583
C -1.102312 0.509204 -1.574659
C -1.038831 0.249349 -1.375807
C -1.139699 0.245074 -1.278464
C -1.054931 0.313858 -1.280653
C -1.079258 0.508591 -1.251505
C -0.871083 0.867539 -1.374397
C -0.629496 1.258203 -1.544205
C -0.242049 1.664187 -1.787058
C 0.095749 1.977365 -2.092059
C 0.384743 2.077610 -2.276349
C 0.599840 1.948428 -2.440904
C 0.380907 1.669989 -2.237048
C -0.214265 1.499748 -1.687479
C -0.791101 1.414937 -1.151938
C -1.442663 1.399114 -0.600034
C -2.200123 1.353074 -0.118456
C -3.046441 1.117953 0.338035
C -3.666554 0.953763 0.855678
C -3.767666 0.701624 1.082245
C -3.682611 0.308687 1.017813
C -3.675121 -0.018199 1.104379
C -3.493805 0.040005 1.299480
C -3.165849 0.264093 1.596729
C -2.740645 0.777276 1.897713
C -2.330519 1.450035 2.075745
C -1.952718 2.301321 2.184448
C -1.429439 3.106259 2.200426
C -0.744008 3.761594 2.130952
C -0.176639 3.910707 2.088794
C 0.334208 3.931602 2.121458
C 0.770782 3.831994 2.221416
C 1.110644 3.613572 2.423131
C 1.306043 3.295895 2.753964
C 1.315296 2.934814 3.159857
C 1.143822 2.586827 3.539131
C 0.830192 2.294129 3.821715
C 0.398161 2.068265 3.999814
C -0.146427 1.902445 4.077467
C -0.756892 1.774381 4.053960
C -1.360841 1.647532 3.941937
C -1.911717 1.178272 3.391062
C -1.795057 0.648045 2.521772
C -1.498699 0.024104 1.666940
C -1.380601 -0.654937 0.885641
C -1.022493 -1.256638 0.103292
C -0.695389 -1.851092 -0.550705
C -0.323573 -2.358831 -1.137788
C 0.128708 -2.493881 -1.295315
C 0.132177 -2.465971 -1.197654
C -0.017553 -2.399953 -1.052055
C -0.016968 -2.320382 -0.835835
C -0.178853 -2.360988 -0.586306
C -0.279533 -2.358100 -0.396617
C -0.264008 -2.375224 -0.233800
C -0.085558 -2.385698 -0.250726
C -0.066958 -2.507879 -0.132621
C -0.134438 -2.499554 -0.009727
C -0.116146 -2.582838 0.098549
C -0.110186 -2.512720 0.134247
C 0.074771 -2.556684 0.104302
C 0.223111 -2.468211 -0.008046
C 0.312291 -2.341156 -0.045304
C 0.497287 -2.092170 -0.226581
C 0.788961 -2.015375 -0.379229
C 1.059715 -1.837950 -0.570135
C 1.284431 -1.820018 -0.599102
C 1.179809 -1.773315 -0.404738
C 0.903195 -1.887967 -0.103697
C 0.524456 -2.019919 0.233961
C 0.021679 -2.203996 0.758882
C -0.371185 -2.356974 1.176575
C -0.726658 -2.430713 1.495807
C -0.937630 -2.455548 1.766849
C -0.978475 -2.353023 1.882099
C -0.848113 -2.255436 1.999449
C -0.775320 -2.207399 2.146408
C -0.677859 -2.140435 2.169508
C -0.635552 -2.010684 2.237206
C -0.592815 -1.942923 2.221056
C -0.565472 -1.884161 2.142688
C -0.336062 -1.899184 1.917837
C -0.008417 -1.716753 1.474243
C 0.515895 -1.395034 0.963050
C 1.168961 -1.115353 0.566772
C 1.718736 -0.900180 0.106072
C 2.258222 -0.725345 -0.242237
C 2.778825 -0.421659 -0.572879
C 3.097178 -0.176450 -0.722525
C 3.309987 -0.042063 -0.648515
C 3.283514 -0.134080 -0.363715
C 3.047837 -0.275694 -0.120452
C 2.900938 -0.373104 -0.007808
C 2.795046 -0.485246 0.261683
C 2.682393 -0.704156 0.609930
C 2.485422 -0.871793 0.872562
C 2.189550 -1.176433 1.117526
C 2.007526 -1.297495 1.238922
C 2.021132 -1.401388 1.151434
C 2.046860 -1.430210 1.183704
C 1.946029 -1.417275 1.355833
C 1.652157 -1.377701 1.456732
C 1.571113 -1.418459 1.517129
C 1.543589 -1.342257 1.608991
C 1.422433 -1.362600 1.515334
C 1.164203 -1.378519 1.559601
C 0.913111 -1.471484 1.666910
C 0.780037 -1.516245 1.553966
C 0.786709 -1.570001 1.495730
C 0.712395 -1.493469 1.463552
C 0.731812 -1.480779 1.218569
C 0.822766 -1.414772 1.168705
C 0.993131 -1.305538 1.040688
C 1.027665 -1.181468 1.090530
C 0.963357 -1.088889 1.021193
C 0.893612 -1.021934 0.860063
C 0.883723 -0.928692 0.714200
C 0.897077 -0.739776 0.687531
C 0.974681 -0.582439 0.610133
C 1.054759 -0.408676 0.632649
C 1.240358 -0.214860 0.414730
C 1.371514 -0.021750 0.346716
C 1.527891 0.207318 0.384003
C 1.711135 0.419084 0.424325
C 1.795890 0.548556 0.388250
C 1.843921 0.768712 0.499171
C 1.930037 0.986482 0.458609
C 2.042422 1.155937 0.435228
C 2.264530 1.341856 0.297392
C 2.534366 1.626720 0.306888
C 2.650197 1.754829 0.195945
C 2.781166 1.929327 0.212630
C 2.873488 2.014979 0.058457
