94
chr21 3D structure from Hi-C (resolution 500000bp)
C -3.051365 3.657542 -0.294421
C -3.268761 3.275221 -0.569651
C -3.347400 2.996068 -0.896425
C -3.301199 2.900340 -1.186596
C -3.291540 2.691900 -1.677693
C -3.135446 2.489542 -2.206383
C -2.835823 2.262127 -2.766724
C -2.416021 2.026686 -3.316534
C -1.946002 1.775369 -3.781719
C -1.528784 1.404330 -4.112286
C -1.293454 0.823439 -4.335265
C -1.308376 0.111208 -4.443538
C -1.531006 -0.524675 -4.393960
C -1.887607 -1.013011 -4.166956
C -2.340731 -1.373956 -3.755666
C -2.880106 -1.508434 -3.228849
C -3.424918 -1.440803 -2.573218
C -3.889408 -1.187823 -1.797055
C -4.192222 -0.830526 -1.010227
C -4.358449 -0.351391 -0.252354
C -4.353168 0.229955 0.448576
C -4.163774 0.921213 1.070674
C -3.810117 1.511316 1.704412
C -3.318949 1.921667 2.283569
C -2.809971 2.141774 2.759304
C -1.995260 1.974451 2.870412
C -1.064284 1.650854 2.993597
C -0.265303 1.127429 3.148024
C 0.418059 0.597259 3.287702
C 0.756834 0.104312 3.406703
C 0.844371 -0.276445 3.422546
C 0.955856 -0.620281 3.312121
C 0.845590 -0.668790 3.428716
C 0.397992 -0.844457 3.455538
C -0.081680 -0.921963 3.323095
C -0.597223 -1.046921 3.225144
C -0.848906 -1.345884 3.015412
C -0.963413 -1.679433 2.793798
C -1.095193 -1.955185 2.568477
C -1.340720 -2.215778 2.302159
C -1.463580 -2.396093 2.053535
C -1.668354 -2.607161 1.862270
C -1.753820 -2.809141 1.678144
C -1.541617 -2.980808 1.547783
C -1.221380 -3.029989 1.446682
C -0.937412 -3.028975 1.441207
C -0.623017 -2.994424 1.452644
C -0.133125 -2.878081 1.432680
C 0.575036 -2.767461 1.468662
C 1.009959 -2.772547 1.292127
C 1.030696 -2.656579 1.067562
C 0.795672 -2.713597 0.730927
C 0.571584 -2.857814 0.290875
C 0.393482 -3.003487 -0.094317
C 0.296514 -3.137669 -0.371141
C 0.374117 -3.106975 -0.645897
C 0.576309 -3.105478 -0.734239
C 0.759579 -3.137083 -1.060192
C 1.157187 -3.044305 -1.138741
C 1.611443 -2.764852 -1.058460
C 2.057542 -2.400168 -0.988138
C 2.328745 -2.026749 -1.002822
C 2.441819 -1.848257 -1.168604
C 2.581151 -1.456082 -1.463624
C 2.756312 -1.040388 -1.508771
C 2.835772 -0.569866 -1.723572
C 2.873709 -0.165066 -1.875385
C 2.779134 0.127839 -2.063070
C 2.656450 0.281960 -2.239137
C 2.584682 0.486355 -2.162320
C 2.596488 0.619904 -1.933352
C 2.652807 0.671235 -1.622276
C 2.772559 0.640190 -1.229496
C 2.812342 0.517971 -0.919623
C 2.963191 0.493156 -0.491737
C 3.127519 0.571291 -0.026068
C 3.027962 0.598294 0.398824
C 2.806255 0.629773 0.848389
C 2.510104 0.726474 1.123530
C 2.316521 0.888611 1.264023
C 2.279119 1.170334 1.202174
C 2.179753 1.432216 1.017124
C 2.035853 1.685856 0.722918
C 1.874919 2.134679 0.216168
C 1.839122 2.519138 -0.314905
C 1.874369 2.961092 -0.695508
C 1.737618 3.264314 -0.831461
C 1.626671 3.468793 -0.775732
C 1.510464 3.590606 -0.673789
C 1.432760 3.683678 -0.350220
C 1.390148 3.701807 0.089086
C 1.385842 3.686818 0.331776
C 1.429226 3.611906 0.614330
C 1.517148 3.617713 0.762286
