94
chr21 3D structure from Hi-C (resolution 500000bp)
C -1.041730 0.577203 -4.123745
C -0.782489 0.865981 -4.091406
C -0.446504 1.074993 -4.033598
C -0.093026 1.165562 -3.971892
C 0.359863 1.338995 -3.885808
C 0.878840 1.313490 -3.821762
C 1.381299 1.055759 -3.772923
C 1.739404 0.588718 -3.702447
C 1.916281 -0.056915 -3.595958
C 1.871192 -0.783579 -3.481588
C 1.568562 -1.415982 -3.435229
C 1.084211 -1.858605 -3.412890
C 0.467001 -2.097033 -3.369097
C -0.234312 -2.159770 -3.271920
C -0.973435 -2.137919 -3.089403
C -1.690375 -2.078877 -2.834900
C -2.121404 -2.178051 -2.279613
C -2.301648 -2.366105 -1.685946
C -2.256793 -2.642159 -1.211032
C -2.051180 -2.987543 -0.904569
C -1.817110 -3.341393 -0.713539
C -1.649009 -3.622173 -0.586190
C -1.572260 -3.776808 -0.436815
C -1.712032 -3.599958 -0.415873
C -1.950363 -3.328885 -0.321729
C -1.863271 -2.505135 -0.253557
C -1.638418 -1.521636 -0.083950
C -1.355000 -0.538666 0.120361
C -0.954068 0.397162 0.219795
C -0.563644 1.307144 0.160220
C -0.260917 2.068797 -0.156289
C 0.063320 2.766518 -0.483442
C -0.015185 2.930219 -0.536117
C -0.452612 2.902686 -0.569307
C -0.872171 2.728416 -0.608820
C -1.293927 2.537044 -0.613683
C -1.643091 2.251434 -0.577640
C -1.875113 2.027061 -0.538561
C -2.097630 1.920049 -0.418741
C -2.405291 1.747551 -0.342148
C -2.524821 1.508413 -0.221592
C -2.750272 1.317810 -0.192728
C -2.882774 1.264224 -0.046305
C -2.794188 1.440604 0.173033
C -2.746404 1.554232 0.441336
C -2.618215 1.540384 0.596116
C -2.374774 1.614821 0.728141
C -2.005660 1.820598 0.850407
C -1.460952 2.072128 1.161111
C -1.104700 2.051950 1.439314
C -1.079417 1.818814 1.614877
C -1.105911 1.505537 1.815008
C -1.286763 1.261534 2.007445
C -1.411959 1.183698 2.190603
C -1.405070 1.131486 2.355220
C -1.284092 1.054156 2.475865
C -1.164269 1.068536 2.582162
C -1.037615 0.951031 2.776884
C -0.882205 0.900338 2.839981
C -0.497191 0.936431 2.856723
C -0.033159 0.892711 2.701017
C 0.238315 0.754636 2.600051
C 0.580021 0.655498 2.254897
C 1.032887 0.554740 1.800409
C 1.630749 0.717367 1.272678
C 2.297072 0.957049 0.810416
C 2.671117 1.108894 0.529718
C 2.880622 1.136131 0.454078
C 3.009542 1.229161 0.373458
C 2.920016 1.168306 0.470662
C 2.817528 1.110419 0.691184
C 2.708960 1.005995 0.966253
C 2.494201 0.825421 1.334464
C 2.315581 0.583542 1.560718
C 2.121033 0.296475 1.779302
C 1.971425 -0.007920 1.922090
C 1.606754 -0.203158 2.083726
C 1.209710 -0.453292 2.204382
C 0.797298 -0.685318 2.288155
C 0.689649 -0.818186 2.204566
C 0.823199 -0.901542 2.062023
C 1.051899 -0.945171 1.801902
C 1.211005 -1.059480 1.527760
C 1.647055 -1.248781 1.110460
C 2.092248 -1.349952 0.753756
C 2.534971 -1.581495 0.426538
C 2.718278 -1.752490 0.301848
C 2.683447 -1.968703 0.211619
C 2.542479 -2.206488 0.286081
C 2.380193 -2.444248 0.418239
C 2.130305 -2.656624 0.659268
C 2.013292 -2.729166 0.820694
C 1.891753 -2.704147 0.964751
C 1.778546 -2.848287 1.017928
