102
chr22 3D structure from Hi-C (resolution 500000bp)
C -1.689943 -1.746170 -5.197004
C -1.712985 -1.207917 -5.251566
C -1.830426 -0.676619 -5.203674
C -1.989750 -0.130655 -5.044933
C -2.099141 0.916804 -4.830874
C -2.113918 1.967532 -4.563110
C -1.971822 2.830000 -4.340714
C -1.669512 3.415377 -4.193401
C -1.187610 3.703496 -4.137842
C -0.534537 3.686921 -4.195440
C 0.236974 3.331214 -4.397744
C 1.005196 2.624840 -4.731927
C 1.624776 1.658139 -5.034135
C 1.995381 0.554244 -5.157986
C 2.135285 -0.594183 -5.094137
C 2.041510 -1.722829 -4.869379
C 1.708493 -2.756742 -4.523037
C 1.159267 -3.623886 -4.089118
C 0.391957 -4.231287 -3.516900
C -0.494547 -4.561939 -2.838446
C -1.454735 -4.629134 -2.229906
C -2.406778 -4.454166 -1.790334
C -3.232666 -4.084597 -1.576812
C -3.891187 -3.468104 -1.627455
C -4.382412 -2.667587 -1.760813
C -4.694940 -1.749906 -1.948218
C -4.909328 -0.804368 -2.122860
C -5.071676 -0.007847 -2.124327
C -5.181742 0.492314 -1.877576
C -5.154253 0.831974 -1.309568
C -4.852143 0.982106 -0.519841
C -4.354971 1.053207 0.217078
C -3.768236 0.992390 0.831607
C -3.229860 1.058077 1.307464
C -2.751876 1.303187 1.586095
C -1.960706 1.442616 1.663575
C -1.241732 1.697125 1.522734
C -0.766848 1.974809 1.307464
C -0.410341 2.176629 1.145473
C -0.112837 2.553466 0.909122
C 0.303275 2.504808 0.765558
C 0.921959 2.367732 0.635789
C 1.249422 2.557147 0.511382
C 1.400538 2.708649 0.520424
C 1.466101 2.855031 0.600704
C 1.499424 2.836057 0.676671
C 1.368495 2.520329 0.977235
C 1.146721 2.344971 1.212204
C 0.868774 2.132122 1.457768
C 0.529368 1.869987 1.774750
C 0.309077 1.573245 1.966884
C 0.002417 1.218079 2.172625
C -0.254661 1.022254 2.397225
C -0.374726 0.884370 2.546068
C -0.260302 0.837000 2.602273
C -0.107044 0.812329 2.608450
C 0.165269 0.832173 2.582213
C 0.430035 0.908260 2.538628
C 0.828860 0.977220 2.430467
C 1.166316 1.023729 2.338017
C 1.476328 1.012478 2.241727
C 1.467251 0.871145 2.225940
C 1.297817 0.671136 2.347434
C 1.084726 0.446900 2.432706
C 0.867880 0.185259 2.536852
C 0.507812 -0.093873 2.695584
C 0.214769 -0.368709 2.862123
C 0.170489 -0.534194 2.883035
C 0.311696 -0.657424 3.000898
C 0.622766 -0.630228 2.827389
C 0.930138 -0.622504 2.660329
C 1.281454 -0.573722 2.462930
C 1.847607 -0.389717 2.139208
C 2.333082 -0.159520 1.732211
C 2.656063 -0.025680 1.416038
C 2.943675 0.079916 0.993649
C 3.109574 0.004288 0.840346
C 3.230012 0.072505 0.600208
C 3.340458 0.006141 0.415376
C 3.370367 -0.125060 0.281382
C 3.327774 -0.286542 0.220499
C 3.292496 -0.491029 0.135888
C 3.151287 -0.597761 0.123958
C 2.925918 -0.640596 0.138729
C 2.705929 -0.836713 0.338944
C 2.382941 -0.871115 0.470485
C 2.029601 -0.985611 0.690217
C 1.750396 -1.086259 0.896678
C 1.454382 -1.146347 1.200664
C 1.179193 -1.162274 1.311607
C 0.967600 -1.211591 1.420466
C 0.655015 -1.337437 1.524654
C 0.314354 -1.524666 1.670671
C 0.039542 -1.628512 1.759662
C -0.345898 -1.825210 1.870374
C -0.748622 -1.870926 1.923413
C -0.899570 -1.996949 2.026821
C -0.792644 -2.164248 2.005153
C -0.500745 -2.286205 1.836403
C -0.383164 -2.303492 1.796360
C -0.262007 -2.333225 1.748254
C 0.087556 -2.265765 1.638452
