102
chr22 3D structure from Hi-C (resolution 500000bp)
C -1.737071 -1.651848 -5.168705
C -1.738573 -1.129521 -5.222450
C -1.825540 -0.602613 -5.179508
C -1.939457 -0.049962 -5.033487
C -1.951289 0.979862 -4.851349
C -1.865394 2.007380 -4.625314
C -1.645868 2.837675 -4.430758
C -1.284014 3.383790 -4.296899
C -0.765324 3.623049 -4.247591
C -0.112267 3.545318 -4.303538
C 0.618270 3.118059 -4.489709
C 1.314742 2.351034 -4.778516
C 1.851930 1.350408 -5.017144
C 2.151376 0.245064 -5.087307
C 2.227241 -0.882854 -4.989420
C 2.075781 -1.966564 -4.751814
C 1.701545 -2.933701 -4.412614
C 1.128684 -3.724829 -4.001147
C 0.327685 -4.260550 -3.465495
C -0.576908 -4.551077 -2.837929
C -1.533813 -4.592845 -2.287444
C -2.489707 -4.357481 -1.940074
C -3.298749 -3.924594 -1.780304
C -3.938492 -3.233098 -1.833227
C -4.402011 -2.352545 -1.939748
C -4.653870 -1.341473 -2.071564
C -4.834950 -0.344112 -2.197203
C -5.010366 0.422024 -2.165144
C -5.122090 0.808555 -1.891706
C -5.077724 0.945391 -1.295504
C -4.819573 0.942662 -0.484914
C -4.345947 0.881367 0.254887
C -3.799256 0.716954 0.838106
C -3.297999 0.704051 1.301164
C -2.844989 0.997862 1.538837
C -2.030249 1.230823 1.677436
C -1.357650 1.619176 1.569251
C -0.838078 1.965093 1.354669
C -0.473590 2.192375 1.213144
C -0.224703 2.571059 1.036290
C 0.233689 2.510113 0.912859
C 0.852011 2.391891 0.833394
C 1.110012 2.611649 0.712541
C 1.214786 2.755752 0.717800
C 1.218049 2.909278 0.817821
C 1.199812 2.900707 0.934053
C 1.085564 2.541650 1.188144
C 0.798446 2.395457 1.412995
C 0.507530 2.119303 1.663771
C 0.145844 1.757811 1.950488
C -0.055636 1.426918 2.145814
C -0.366879 0.974841 2.336271
C -0.619488 0.728098 2.498749
C -0.709028 0.555123 2.621210
C -0.622344 0.475381 2.675449
C -0.458624 0.486728 2.695584
C -0.148208 0.561408 2.660502
C 0.105348 0.655976 2.613743
C 0.515345 0.797733 2.531108
C 0.851367 0.854769 2.482588
C 1.145938 0.891116 2.440009
C 1.188997 0.758601 2.441799
C 1.025463 0.506352 2.435794
C 0.831335 0.200661 2.520065
C 0.685176 -0.084744 2.633589
C 0.366185 -0.392224 2.719028
C 0.061832 -0.689033 2.751865
C -0.005090 -0.847602 2.733781
C 0.180760 -0.974479 2.743953
C 0.502167 -0.905774 2.690935
C 0.808600 -0.792958 2.549565
C 1.132790 -0.621546 2.331391
C 1.680314 -0.381117 2.094794
C 2.214092 -0.200264 1.864183
C 2.583054 -0.142810 1.622786
C 2.834429 0.055708 1.278689
C 3.024181 0.191768 1.039800
C 3.183470 0.272923 0.817184
C 3.279176 0.310192 0.606770
C 3.334588 0.291317 0.417996
C 3.340893 0.278719 0.273068
C 3.334534 0.213735 0.142638
C 3.199275 0.177500 0.088619
C 2.999917 -0.077946 0.169506
C 2.743666 -0.296865 0.250837
C 2.480442 -0.478670 0.363085
C 2.123799 -0.635573 0.521947
C 1.805771 -0.709057 0.667933
C 1.488327 -0.780411 0.875203
C 1.311743 -0.999766 1.074182
C 1.146429 -1.085646 1.186342
C 0.904845 -1.242449 1.357808
C 0.572517 -1.507301 1.519711
C 0.373942 -1.706622 1.636159
C 0.132119 -2.036622 1.768103
C -0.201994 -2.130525 1.823875
C -0.353157 -2.170931 1.839836
C -0.225538 -2.259920 1.768312
C 0.111869 -2.311100 1.575219
C 0.292721 -2.270606 1.521777
C 0.456780 -2.278333 1.461710
C 0.748393 -2.085621 1.322158
