204
chr15 3D structure from Hi-C (resolution 500000bp)
C -3.716421 2.908958 -0.842813
C -3.545761 3.139052 -0.537365
C -3.378290 3.339450 -0.371496
C -3.247438 3.485470 -0.403435
C -3.030623 3.745917 -0.427465
C -2.816309 3.868690 -0.642590
C -2.529608 3.485142 -1.226511
C -2.282908 2.872705 -1.925930
C -2.149540 2.120429 -2.668114
C -2.157059 1.353055 -3.320570
C -2.217654 0.682416 -3.803988
C -2.248316 0.186939 -4.146326
C -2.242984 -0.096415 -4.347558
C -2.369707 0.104863 -4.217843
C -2.588455 0.456940 -4.007938
C -2.832954 0.875741 -3.745643
C -3.052242 1.377482 -3.098661
C -3.253889 1.734418 -2.455749
C -3.521501 1.851826 -1.887738
C -3.845452 1.760538 -1.420626
C -4.120521 1.550971 -1.116892
C -4.265105 1.291993 -0.991002
C -4.312645 0.952891 -0.989306
C -4.312460 0.464733 -1.377288
C -4.371018 0.088689 -1.556073
C -4.371522 -0.066768 -1.306576
C -4.309465 -0.081734 -0.805592
C -4.228730 0.064115 -0.149383
C -4.196684 0.327232 0.550289
C -4.250119 0.630219 1.170399
C -4.343037 0.783936 1.582177
C -4.314584 0.650275 1.655880
C -4.283543 0.353511 1.272632
C -4.244824 -0.071545 0.633124
C -4.218953 -0.665016 -0.039568
C -4.191046 -1.367324 -0.553853
C -4.055109 -2.055545 -0.714747
C -3.812085 -2.520886 -0.620383
C -3.746686 -2.652969 -0.441207
C -3.774354 -2.602321 -0.123479
C -3.860027 -2.425865 0.396233
C -3.883886 -2.170953 1.040999
C -3.678584 -1.767973 1.661012
C -3.594784 -1.600024 1.997829
C -3.362529 -1.558950 2.115763
C -3.023095 -1.744177 2.202224
C -2.566162 -1.972089 2.372778
C -2.046188 -2.235359 2.376091
C -1.633118 -2.511336 2.256058
C -1.465343 -2.920827 2.079076
C -1.238630 -3.130591 1.911919
C -1.206164 -3.214375 1.854746
C -1.157689 -3.229317 1.767312
C -1.308327 -3.386401 1.274833
C -1.526117 -3.543719 0.922045
C -1.729109 -3.660386 0.304305
C -1.896930 -3.685529 -0.416378
C -2.041470 -3.560758 -1.173429
C -2.206125 -3.392758 -1.945012
C -2.466467 -2.472579 -2.444614
C -2.564675 -1.402264 -2.004673
C -2.659685 -0.417403 -1.517149
C -2.700705 0.244090 -0.604809
C -2.449407 0.651140 0.156478
C -2.186241 0.977876 1.083469
C -1.965123 1.314984 2.142394
C -1.541220 0.925360 2.874825
C -1.122967 0.321138 3.095817
C -0.773837 -0.298370 3.153290
C -0.423525 -0.718493 3.022451
C -0.365725 -0.823899 3.133387
C -0.383785 -1.006150 3.161476
C -0.270548 -1.262076 2.974290
C -0.186417 -1.283419 2.906656
C -0.089727 -1.160166 2.795327
C 0.050752 -1.015571 2.722923
C 0.133888 -0.634582 2.683385
C 0.187922 -0.246276 2.646862
C 0.284196 0.325810 2.614722
C 0.309997 0.918047 2.684625
C 0.256217 1.353935 2.703226
C 0.172205 1.805661 2.637179
C 0.075139 2.308636 2.664033
C 0.095845 2.624804 2.642789
C 0.139484 2.743981 2.596701
C 0.021198 2.772340 2.590701
C -0.086928 2.738063 2.727249
C 0.019955 2.388878 2.873844
C 0.161050 1.775057 2.894640
C 0.300081 0.934277 2.802834
C 0.310980 0.186208 2.830029
C 0.318272 -0.640692 2.842121
C 0.557919 -1.323865 2.824336
C 0.793812 -1.913822 2.737739
C 0.945070 -2.067801 2.717710
C 1.037602 -2.065000 2.909135
C 1.126025 -1.877472 2.992764
C 1.313236 -1.608177 2.966618
C 1.511628 -1.001546 3.074620
C 1.609604 -0.612122 2.996247
C 1.705348 -0.249773 2.786470
C 1.799302 -0.082920 2.742147
C 1.981376 -0.017630 2.546024
C 2.119369 -0.051268 2.445947
C 2.108607 -0.225754 2.357799
C 2.061820 -0.649234 2.134091
C 2.059061 -1.076918 2.086257
C 2.212783 -1.418154 2.113701
C 2.248321 -1.569355 1.940502
C 2.234242 -1.577778 1.815426
C 2.315350 -1.321042 1.757255
C 2.384801 -0.977909 1.689256
C 2.506983 -0.655442 1.579486
C 2.550672 -0.127955 1.473570
C 2.562781 0.417763 1.457551
C 2.551003 0.785214 1.408103
C 2.535804 1.038500 1.290974
C 2.452689 1.149369 1.162895
C 2.544736 1.188559 1.053006
C 2.619969 1.209420 1.004007
C 2.791364 1.166312 0.920664
C 2.898453 1.014711 0.704706
C 2.930504 0.909047 0.536202
C 2.852102 1.077379 0.505615
C 2.786672 1.408861 0.500996
C 2.540026 1.727330 0.526754
C 2.292904 2.126533 0.543386
C 1.959764 2.520417 0.501724
C 1.533864 2.969552 0.460118
C 1.282031 3.342755 0.436098
C 1.228374 3.386660 0.303488
C 1.218832 3.326184 0.142974
C 1.284635 3.366317 -0.003717
C 1.411119 3.311431 -0.143858
C 1.650535 3.136893 -0.274806
C 2.035514 2.803846 -0.453087
C 2.287540 2.577649 -0.625866
C 2.393437 2.500021 -0.713632
C 2.579898 2.390667 -0.883220
C 2.758698 2.111842 -0.990238
C 2.795571 1.945276 -1.131650
C 2.742382 2.000177 -1.308118
C 2.570629 2.091560 -1.408370
C 2.495300 2.008782 -1.537400
C 2.403196 2.001268 -1.667421
C 2.129442 2.132535 -1.690074
C 1.716065 2.408772 -1.797078
C 1.371673 2.700394 -1.813820
C 1.127686 2.735837 -1.809389
C 0.920768 2.737118 -1.854409
C 0.610354 2.855966 -1.938807
C 0.410969 2.903832 -2.104292
C 0.439648 2.760477 -2.198387
C 0.552867 2.556407 -2.205685
C 0.724153 2.279207 -2.389639
C 0.871403 2.003824 -2.503519
C 0.995769 1.742673 -2.372719
C 1.173209 1.438782 -2.288524
C 1.319203 1.170868 -2.216523
C 1.395118 0.952364 -2.236003
C 1.407707 0.594174 -2.299995
C 1.425540 0.404203 -2.371208
C 1.361456 0.215876 -2.434182
C 1.325562 0.035815 -2.695882
C 1.332144 -0.118446 -2.728986
C 1.233292 -0.344366 -2.962592
C 1.262047 -0.395957 -2.888473
C 1.319964 -0.343280 -2.751257
C 1.333039 -0.469543 -2.500961
C 1.320477 -0.753773 -2.343170
C 1.277263 -0.995904 -2.143164
C 1.201683 -1.310871 -2.098756
C 1.195631 -1.560313 -1.759972
C 1.109532 -1.853352 -1.751340
C 1.200071 -2.003347 -1.854555
C 1.346698 -1.961540 -1.835538
C 1.590232 -1.712157 -1.873859
C 1.855910 -1.357572 -1.827806
C 2.211127 -1.030486 -1.787408
C 2.485713 -0.830166 -1.778190
C 2.608619 -0.740578 -1.694721
C 2.640008 -0.824950 -1.680252
C 2.601183 -0.961789 -1.654436
C 2.505499 -1.148626 -1.510621
C 2.349473 -1.558060 -1.479094
C 2.102989 -1.835278 -1.334031
C 1.912919 -2.064348 -1.204079
C 1.813542 -2.375794 -1.123256
C 1.756705 -2.585497 -0.913507
C 1.667816 -2.830416 -0.837645
C 1.516136 -3.088097 -0.805377
C 1.394131 -3.231777 -0.770777
C 1.290711 -3.390875 -0.717571
C 1.289542 -3.385779 -0.628811
C 1.399352 -3.267060 -0.571721
C 1.543044 -3.105120 -0.576341
C 1.646414 -2.883708 -0.548031
C 1.851780 -2.749025 -0.497121
C 2.018064 -2.483387 -0.405421
C 2.319575 -2.189726 -0.442189
C 2.610136 -1.996923 -0.563766
C 2.652834 -1.877177 -0.589817
C 2.624918 -1.847980 -0.629039
C 2.697920 -1.954709 -0.696536
