204
chr15 3D structure from Hi-C (resolution 500000bp)
C -3.788879 2.871453 -0.800698
C -3.756794 2.945653 -0.414682
C -3.670179 3.062562 -0.123856
C -3.547883 3.217052 0.003383
C -3.411134 3.420614 0.227409
C -3.256409 3.611981 0.292813
C -3.182481 3.537313 0.007670
C -3.119939 3.354164 -0.448901
C -3.072995 3.056008 -1.088806
C -3.027030 2.619036 -1.829078
C -2.952501 2.042344 -2.560564
C -2.808778 1.469012 -3.224756
C -2.607527 1.011670 -3.794238
C -2.340447 0.937625 -4.066118
C -2.089667 0.943270 -4.273101
C -1.765812 0.674377 -4.493768
C -1.489910 0.382894 -4.624196
C -1.309166 0.055175 -4.641857
C -1.265830 -0.388905 -4.544379
C -1.339266 -0.928562 -4.395494
C -1.469189 -1.508436 -4.275083
C -1.797913 -1.853031 -4.014845
C -2.265167 -1.759097 -3.617991
C -2.764751 -1.489717 -3.172976
C -3.275706 -1.060044 -2.689585
C -3.759328 -0.501050 -2.170906
C -4.166398 0.107599 -1.582347
C -4.449805 0.683448 -0.885951
C -4.486739 1.020714 -0.229446
C -4.492094 1.191930 0.402213
C -4.508767 1.179555 0.915129
C -4.507800 0.883001 1.200948
C -4.479336 0.504571 1.099424
C -4.394450 0.004422 0.794089
C -4.149182 -0.728506 0.262005
C -3.874539 -1.517936 -0.358908
C -3.589008 -2.265949 -0.844375
C -3.301983 -2.876139 -1.166997
C -3.275771 -2.967952 -1.307537
C -3.324591 -2.848757 -1.135347
C -3.437764 -2.602509 -0.767119
C -3.636782 -2.261078 -0.076389
C -3.679683 -1.819632 0.656501
C -3.791843 -1.607766 1.130072
C -3.645359 -1.454095 1.476464
C -3.268526 -1.695617 1.764480
C -2.794647 -2.089928 1.957283
C -2.278051 -2.386193 2.101720
C -1.841953 -2.619593 2.056749
C -1.657471 -2.947854 1.889492
C -1.388802 -3.051325 1.816465
C -1.402428 -3.087994 1.828169
C -1.439944 -3.033316 1.770430
C -1.764564 -2.983605 1.627794
C -2.083901 -3.043589 1.426284
C -2.440632 -3.085665 0.920331
C -2.735239 -2.958031 0.293565
C -3.024626 -2.675055 -0.424403
C -3.252412 -2.310050 -1.225332
C -3.304672 -1.431416 -1.898408
C -3.095858 -0.479753 -2.327927
C -2.950478 0.485890 -2.649971
C -2.894804 1.212556 -2.031267
C -2.524144 1.504674 -1.347442
C -2.178648 1.622805 -0.594926
C -1.939952 1.777835 0.364579
C -1.695401 1.364755 1.212833
C -1.525983 0.837419 2.086897
C -1.281526 0.140222 2.829094
C -0.955035 -0.305950 2.928808
C -0.911389 -0.332407 3.077731
C -0.948844 -0.448921 3.261673
C -0.832944 -0.724160 3.216151
C -0.751496 -0.764523 3.236649
C -0.612322 -0.815818 3.081561
C -0.531192 -0.655010 3.057427
C -0.407121 -0.410018 2.907235
C -0.336618 -0.088967 2.850064
C -0.192042 0.463498 2.720822
C -0.042554 1.060051 2.628313
C -0.018077 1.542456 2.472625
C -0.055018 2.108635 2.393422
C -0.138684 2.586104 2.270648
C -0.145102 2.917121 2.233176
C -0.156304 3.003819 2.119580
C -0.185578 3.033778 2.182179
C -0.404167 2.993283 2.332285
C -0.376972 2.671370 2.526255
C -0.275754 1.978350 2.599368
C -0.196531 1.143110 2.667870
C -0.180663 0.355476 2.703746
C -0.212228 -0.413166 2.873371
C -0.085328 -1.149257 2.883583
C 0.192208 -1.748949 2.905335
C 0.312639 -1.952703 2.934665
C 0.466647 -1.886111 3.114520
C 0.616833 -1.680194 3.158799
C 0.762171 -1.360807 3.267247
C 0.990990 -0.779835 3.341462
C 1.106483 -0.418802 3.270147
C 1.192146 -0.086763 3.013967
C 1.292011 0.155767 2.975823
C 1.404052 0.172254 2.861641
C 1.477912 0.022438 2.738467
C 1.512194 -0.173787 2.631876
C 1.545916 -0.524109 2.431200
C 1.612668 -0.796950 2.464631
C 1.764487 -1.121829 2.593830
C 1.835990 -1.353065 2.467258
C 1.856206 -1.260537 2.356631
C 2.024482 -0.952923 2.318513
C 2.135116 -0.591129 2.184401
C 2.265313 -0.357267 2.085633
C 2.319322 0.050810 1.905933
C 2.359235 0.573227 1.864449
C 2.357022 0.918997 1.797651
C 2.357506 1.118697 1.669554
C 2.351065 1.194161 1.547776
C 2.458528 1.269514 1.533319
C 2.532050 1.243691 1.458777
C 2.659898 1.177575 1.386751
C 2.773767 1.008912 1.255114
C 2.802814 0.953757 1.121210
C 2.762850 1.097239 1.037152
C 2.715210 1.443522 0.983398
C 2.534240 1.692702 0.876422
C 2.307666 2.106823 0.788890
C 2.020357 2.529625 0.667832
C 1.615516 3.007896 0.370920
C 1.416620 3.344649 0.180784
C 1.384367 3.422940 0.098312
C 1.302057 3.406734 -0.052096
C 1.374187 3.419338 -0.177024
C 1.479756 3.328556 -0.281273
C 1.768244 3.112052 -0.364669
C 2.154146 2.825145 -0.361221
C 2.408228 2.620807 -0.370421
C 2.533171 2.524242 -0.500956
C 2.755505 2.345877 -0.635093
C 2.867755 2.065952 -0.825431
C 2.874616 1.921886 -0.920191
C 2.819810 1.935037 -1.122208
C 2.709846 1.827285 -1.413098
C 2.636603 1.675241 -1.623890
C 2.525429 1.657927 -1.707600
C 2.299726 1.790907 -1.810229
C 1.968286 2.116888 -1.861476
C 1.715795 2.412304 -2.000994
C 1.443616 2.510449 -2.011799
C 1.262257 2.596651 -2.019180
C 1.022680 2.694884 -2.175913
C 0.840981 2.756363 -2.387325
C 0.794230 2.661270 -2.386055
C 0.901352 2.452888 -2.383795
C 1.047900 2.156873 -2.424785
C 1.147716 1.871195 -2.489161
C 1.228551 1.665134 -2.233353
C 1.377414 1.452251 -2.042507
C 1.559735 1.088508 -1.936891
C 1.665929 0.775256 -2.005939
C 1.704327 0.345457 -2.061586
C 1.730170 0.055772 -2.144654
C 1.726322 -0.097192 -2.218664
C 1.826483 -0.290730 -2.419481
C 1.860665 -0.460828 -2.341269
C 1.807511 -0.618846 -2.568949
C 1.882309 -0.616234 -2.447120
C 1.964657 -0.562245 -2.262302
C 1.963582 -0.610452 -1.961950
C 1.911292 -0.945473 -1.694314
C 1.666005 -1.219453 -1.514950
C 1.497913 -1.552518 -1.543789
C 1.353782 -1.857531 -1.202584
C 1.184336 -2.191005 -1.209212
C 1.239345 -2.296287 -1.183904
C 1.394311 -2.249796 -1.208821
C 1.704743 -1.941427 -1.228832
C 2.056674 -1.565243 -1.184961
C 2.509219 -1.254799 -1.076085
C 2.861568 -1.015667 -1.024866
C 2.996500 -0.917549 -0.961272
C 2.974175 -1.055610 -1.012694
C 2.924182 -1.190023 -0.936644
C 2.710589 -1.425075 -0.760305
C 2.461439 -1.860843 -0.689226
C 2.160329 -2.118508 -0.635960
C 1.917428 -2.363758 -0.476888
C 1.842970 -2.608259 -0.324019
C 1.811085 -2.716237 -0.107967
C 1.733380 -2.947930 -0.010109
C 1.673908 -3.153923 -0.031456
C 1.614481 -3.246679 -0.067301
C 1.489816 -3.414915 -0.063849
C 1.501990 -3.353880 -0.061453
C 1.606527 -3.237088 -0.088154
C 1.709728 -3.095124 -0.121284
C 1.894406 -2.884452 -0.165708
C 2.024722 -2.773007 -0.199887
C 2.258773 -2.461155 -0.188356
C 2.470629 -2.204042 -0.398492
C 2.547658 -2.107739 -0.704704
C 2.557538 -2.015090 -0.772749
C 2.497848 -2.032448 -0.958833
C 2.357104 -2.132351 -1.191667
