102
chr22 3D structure from Hi-C (resolution 500000bp)
C -1.136373 -0.592110 -4.563836
C -1.458017 -0.251940 -4.426446
C -1.798397 0.104715 -4.188190
C -2.031009 0.474874 -3.958259
C -2.327350 1.171290 -3.713979
C -2.415654 1.823240 -3.533976
C -2.280314 2.346589 -3.402006
C -1.922802 2.733600 -3.329917
C -1.349882 2.954865 -3.363392
C -0.611484 2.945300 -3.560993
C 0.136783 2.687123 -3.845220
C 0.770083 2.200612 -4.088199
C 1.280505 1.562394 -4.230066
C 1.705147 0.818439 -4.265851
C 2.021669 -0.016297 -4.193577
C 2.169642 -0.888195 -4.031518
C 2.127344 -1.701368 -3.827320
C 1.928371 -2.407002 -3.593720
C 1.596128 -3.025935 -3.282813
C 1.101523 -3.536701 -2.869438
C 0.439789 -3.875650 -2.547167
C -0.310768 -3.992409 -2.413350
C -1.032069 -3.883535 -2.391259
C -1.687903 -3.595997 -2.420242
C -2.298224 -3.155754 -2.411623
C -2.886716 -2.542826 -2.369226
C -3.404348 -1.904771 -2.340791
C -3.816003 -1.466257 -2.192465
C -4.095731 -1.303979 -1.852300
C -4.236673 -1.338258 -1.335135
C -4.195716 -1.362902 -0.641973
C -3.871356 -1.306992 0.004963
C -3.408000 -1.272164 0.471548
C -3.185225 -1.070289 0.818474
C -3.035513 -0.678670 1.049446
C -2.618049 -0.204444 1.223196
C -2.220837 0.374824 1.212314
C -1.997117 0.985620 1.030986
C -1.760165 1.374325 0.901622
C -1.835378 1.845707 0.752839
C -1.299635 2.078078 0.633166
C -0.693326 2.325287 0.537130
C -0.487757 2.727448 0.402600
C -0.380329 3.029886 0.423518
C -0.230682 3.239718 0.494153
C -0.308620 3.318588 0.587322
C -0.211317 3.057143 0.884995
C -0.436513 2.832551 1.191428
C -0.621832 2.479705 1.468587
C -0.724232 2.037477 1.816092
C -0.806740 1.635654 2.031614
C -0.932171 1.073894 2.264466
C -1.047091 0.684688 2.471590
C -1.096372 0.472952 2.626523
C -1.080394 0.360134 2.743003
C -0.971922 0.547456 2.817019
C -0.755470 0.698096 2.729390
C -0.536681 0.907099 2.725623
C -0.190395 1.169745 2.692654
C 0.177917 1.421842 2.561761
C 0.493560 1.574929 2.442341
C 0.703179 1.553621 2.368334
C 0.760516 1.168999 2.373411
C 0.768958 0.843081 2.549797
C 0.789059 0.512658 2.622257
C 0.670237 0.118107 2.705004
C 0.510092 -0.274392 2.831294
C 0.551758 -0.436619 2.797905
C 0.851078 -0.450036 2.834060
C 1.111489 -0.276377 2.679213
C 1.366141 -0.157704 2.455949
C 1.625652 0.037961 2.229162
C 1.928823 0.439141 1.911953
C 2.372135 0.826891 1.545569
C 2.770085 0.934197 1.155646
C 2.830410 1.110037 0.733038
C 3.007028 1.239978 0.403821
C 3.094977 1.393394 0.097021
C 3.232736 1.248053 -0.106098
C 3.337922 1.114430 -0.188345
C 3.290560 0.928574 -0.231667
C 3.193966 0.883472 -0.301588
C 3.077985 0.717005 -0.269399
C 2.884595 0.463569 -0.065482
C 2.682379 0.124034 0.220286
C 2.446931 -0.027021 0.437873
C 2.211317 -0.322739 0.661637
C 2.068789 -0.626645 0.884190
C 1.928643 -0.936135 1.208321
C 1.840908 -1.297353 1.374170
C 1.630213 -1.499954 1.465313
C 1.414541 -1.726316 1.547975
C 1.084569 -2.029532 1.638840
C 0.821468 -2.239034 1.661667
C 0.507648 -2.474811 1.665966
C 0.112201 -2.701705 1.718434
C -0.134157 -2.702883 1.776110
C -0.037137 -2.831829 1.634765
C 0.215498 -2.817634 1.354744
C 0.298739 -2.746918 1.245939
C 0.405777 -2.735140 1.128724
C 0.567297 -2.574790 1.025874
