102
chr22 3D structure from Hi-C (resolution 500000bp)
C -1.664826 3.358514 -2.931437
C -1.206420 3.477286 -2.887141
C -0.749731 3.537542 -2.825034
C -0.309111 3.527035 -2.769177
C 0.512338 3.540023 -2.708793
C 1.324340 3.391954 -2.656689
C 2.069250 3.064769 -2.586428
C 2.736332 2.568891 -2.481328
C 3.287388 1.883226 -2.350435
C 3.656228 1.068676 -2.264799
C 3.836323 0.302624 -2.288589
C 3.839808 -0.249069 -2.428518
C 3.676916 -0.612208 -2.633718
C 3.314750 -0.862699 -2.914995
C 2.734956 -1.012197 -3.268513
C 1.988637 -1.030245 -3.659086
C 1.197620 -1.003588 -3.988633
C 0.472330 -1.104015 -4.158640
C -0.078430 -1.442285 -4.135785
C -0.412430 -1.937766 -3.975387
C -0.432269 -2.440417 -3.702148
C -0.203233 -2.865714 -3.421753
C 0.133718 -3.125292 -3.247424
C 0.464905 -2.704950 -3.263188
C 0.678066 -2.100125 -3.345048
C 0.618486 -1.419605 -3.479540
C 0.265586 -0.746190 -3.631046
C -0.399366 -0.191624 -3.760953
C -1.207421 0.203012 -3.803206
C -1.964028 0.375333 -3.634562
C -2.575667 -0.026272 -3.114716
C -2.917353 -0.322085 -2.452414
C -2.942983 -0.430488 -1.757115
C -3.053002 -0.333745 -1.228711
C -3.071251 0.020116 -0.851715
C -2.765955 0.352614 -0.276163
C -2.467950 0.842536 0.159546
C -2.135785 1.399951 0.412146
C -1.840895 1.744173 0.569752
C -1.719433 2.175040 0.550856
C -1.222627 2.323157 0.820021
C -0.693779 2.441742 1.111063
C -0.362856 2.759252 1.116112
C -0.169012 2.916606 1.197357
C -0.132051 3.021834 1.291135
C -0.212305 3.022653 1.380415
C -0.383305 2.606145 1.514396
C -0.689462 2.291353 1.490902
C -0.996846 1.885629 1.564037
C -1.393250 1.341048 1.678776
C -1.587379 0.884581 1.697892
C -1.785273 0.313826 1.636189
C -2.046740 -0.102816 1.512523
C -2.200709 -0.266842 1.559919
C -2.276389 -0.254298 1.684455
C -2.179698 -0.288018 1.861999
C -1.978520 -0.154646 1.946263
C -1.825047 0.018244 2.079256
C -1.553220 0.177026 2.320718
C -1.205426 0.397317 2.591658
C -0.872317 0.447709 2.733001
C -0.684938 0.238657 2.746078
C -0.712804 -0.015236 2.622645
C -0.852331 -0.392533 2.523665
C -0.996862 -0.806452 2.370122
C -1.212332 -1.151912 2.102558
C -1.460715 -1.494416 1.824219
C -1.453534 -1.638239 1.673124
C -1.271012 -1.650657 1.345731
C -0.996738 -1.384172 1.310964
C -0.617082 -1.070131 1.437552
C -0.191364 -0.691215 1.579810
C 0.316250 -0.224000 1.751558
C 0.904077 0.216502 1.893168
C 1.435383 0.504929 1.930808
C 1.752982 0.797001 2.172788
C 2.060160 0.997737 2.103723
C 2.341149 1.105028 1.914016
C 2.530736 1.162421 1.743706
C 2.654980 1.076192 1.630198
C 2.735669 0.895368 1.573509
C 2.719961 0.725762 1.563348
C 2.609711 0.607477 1.551482
C 2.443812 0.283030 1.649891
C 2.123442 -0.023800 1.738322
C 1.865634 -0.362998 1.850403
C 1.557771 -0.629004 1.934890
C 1.329322 -0.931368 2.011137
C 1.028971 -1.205297 2.038853
C 0.934632 -1.523224 2.005796
C 0.755969 -1.666011 1.898935
C 0.562794 -1.903623 1.768797
C 0.264907 -2.156992 1.552915
C 0.008011 -2.401871 1.339614
C -0.367220 -2.562038 1.087314
C -0.629313 -2.659094 0.923718
C -0.754792 -2.661057 0.892401
C -0.557956 -2.810180 0.842440
C -0.166697 -2.826352 0.802568
C -0.008924 -2.792450 0.843201
C 0.253662 -2.727321 0.887304
C 0.706961 -2.605418 0.997804
