342
chr6 3D structure from Hi-C (resolution 500000bp)
C -2.171330 1.312164 -2.767218
C -2.093166 1.282690 -2.808772
C -2.071129 1.214204 -2.796183
C -2.023133 1.217468 -2.796224
C -2.114265 1.099192 -2.709815
C -2.092841 0.935127 -2.641525
C -2.155581 0.842040 -2.605889
C -2.228777 0.765347 -2.543976
C -2.318590 0.658641 -2.447981
C -2.383595 0.539661 -2.390383
C -2.375810 0.420769 -2.327790
C -2.403505 0.332053 -2.320447
C -2.351424 0.254177 -2.300330
C -2.228259 0.080275 -2.163754
C -2.317835 -0.183887 -1.965477
C -2.394476 -0.436103 -1.772460
C -2.481359 -0.567135 -1.589750
C -2.621649 -0.774523 -1.446236
C -2.674353 -0.861339 -1.338978
C -2.583706 -0.815417 -1.388128
C -2.482237 -0.674225 -1.594612
C -2.301407 -0.429251 -1.893264
C -2.281955 -0.299351 -2.092125
C -2.109424 -0.186920 -2.355380
C -1.934868 -0.032431 -2.625793
C -1.747086 0.007576 -2.828062
C -1.664470 0.024803 -2.977408
C -1.625905 0.018911 -3.035875
C -1.603661 -0.099615 -3.031070
C -1.398468 -0.112572 -3.109403
C -1.352367 -0.198005 -3.035448
C -1.487608 -0.372924 -2.823685
C -1.589018 -0.524233 -2.655853
C -1.681028 -0.731355 -2.432457
C -1.829029 -1.043663 -2.119759
C -1.980964 -1.271228 -1.797257
C -2.142016 -1.467222 -1.536752
C -2.182799 -1.607929 -1.482685
C -2.022847 -1.584852 -1.589033
C -1.959789 -1.632080 -1.688847
C -1.951689 -1.680927 -1.797826
C -1.857638 -1.666180 -2.047061
C -1.907759 -1.646950 -2.191772
C -1.936591 -1.662805 -2.212445
C -2.050756 -1.717852 -2.100190
C -2.185096 -1.872885 -2.023096
C -2.022497 -1.753291 -2.021525
C -1.857236 -1.513375 -2.061119
C -1.717957 -1.300204 -2.030688
C -1.396427 -0.866413 -2.273977
C -1.093464 -0.257130 -2.624034
C -0.789856 0.077487 -2.991428
C -0.535680 0.547079 -3.226685
C -0.450768 0.644922 -3.304496
C -1.004583 0.405983 -2.805512
C -1.552740 0.207161 -2.265319
C -2.083070 -0.199115 -1.542492
C -2.572738 -0.772722 -0.723424
C -3.045598 -1.072002 0.170042
C -3.496144 -1.501082 1.069335
C -2.913048 -1.266582 1.187390
C -2.964782 -1.109410 1.170655
C -3.028914 -0.932595 1.043131
C -2.242646 -0.188330 0.350735
C -1.542622 0.314871 -0.468895
C -0.865404 0.843213 -1.382606
C -0.151586 1.321280 -2.313054
C -0.634432 1.297873 -2.487625
C 0.147162 1.531733 -3.056479
C 0.979986 1.769603 -3.617997
C 0.950371 1.383406 -3.671350
C 1.022365 1.277307 -3.650779
C 1.054943 1.085643 -3.565315
C 1.052369 0.854379 -3.486744
C 1.068039 0.607980 -3.390451
C 1.047585 0.402206 -3.359164
C 1.027780 0.156934 -3.338872
C 0.956179 -0.136874 -3.302407
C 0.832551 -0.405163 -3.268887
C 0.810026 -0.580025 -3.306457
C 0.716957 -0.580650 -3.376775
C 0.731939 -0.545316 -3.433845
C 0.876941 -0.447926 -3.487405
C 0.892877 -0.460124 -3.576337
C 1.030851 -0.369852 -3.595889
C 1.073169 -0.421415 -3.620838
C 0.980934 -0.574820 -3.509843
C 0.943388 -0.785676 -3.350704
C 0.805755 -1.034325 -3.252131
C 0.617614 -1.377421 -3.105320
C 0.428478 -1.693824 -2.852497
C 0.178703 -1.968318 -2.637020
C -0.002498 -2.141790 -2.397971
C -0.137929 -2.361350 -2.184588
C -0.259565 -2.594697 -1.947045
C -0.344988 -2.778999 -1.717096
C -0.558278 -2.939457 -1.499533
C -0.654566 -3.038872 -1.337569
C -0.695595 -3.191532 -1.229090
C -0.740011 -3.238738 -1.067488
C -0.683889 -3.185844 -1.057050
C -0.590574 -3.101651 -1.220988
C -0.500207 -2.993476 -1.341162
C -0.265792 -2.885199 -1.526002
C -0.161174 -2.743564 -1.544571
C -0.283668 -2.707389 -1.458167
C -0.301861 -2.759861 -1.457039
C -0.410971 -2.835790 -1.308857
C -0.608737 -2.975056 -1.028018
C -0.566137 -3.102498 -0.910533
C -0.435587 -3.118103 -0.872542
C -0.186731 -3.145370 -1.037555
C -0.314296 -3.179076 -0.875385
C -0.526433 -3.232421 -0.673329
C 0.203837 -2.826618 -1.004092
C 0.981830 -2.316495 -1.319537
C 1.590204 -1.871507 -1.481701
C 1.869825 -1.872760 -1.474458
C 1.369082 -1.929285 -0.883468
C 1.320771 -1.831628 -0.648736
C 1.429199 -1.743170 -0.450615
C 0.652798 -2.111876 0.220731
C -0.155321 -2.588077 0.809968
C -0.814122 -2.902682 1.189670
C -1.235540 -2.837800 1.481136
C -0.984758 -2.741936 1.407393
C -0.712182 -2.818231 1.348506
C -0.530137 -2.834384 1.222575
C -0.399456 -2.814166 1.141305
C -0.219597 -2.793876 1.094135
C -0.207320 -2.903950 1.194173
C -0.259836 -3.009609 1.394345
C -0.195613 -3.148642 1.418885
C -0.017445 -3.153424 1.230383
C 0.098618 -3.210475 1.194101
C 0.248144 -3.264485 1.092921
C 0.374263 -3.047631 0.915486
C 0.474047 -2.992658 0.798305
C 0.711750 -2.978010 0.557352
C 0.817271 -2.867870 0.418733
C 0.831283 -2.732566 0.483451
C 0.874842 -2.579594 0.474008
C 0.986767 -2.280562 0.260918
C 1.142678 -2.292710 0.112717
C 1.350020 -2.212677 -0.003695
C 1.335242 -2.203558 0.122104
C 1.490485 -2.252604 0.089321
C 1.719031 -2.311954 -0.068562
C 1.878210 -2.324334 -0.201796
C 1.799054 -2.469107 0.123491
C 1.645437 -2.547613 0.470917
C 1.538518 -2.621554 0.823292
C 1.529244 -2.627837 0.983456
C 1.444200 -2.592945 1.194589
C 1.378415 -2.531856 1.370392
C 1.480098 -2.469029 1.305189
C 1.550000 -2.476115 1.270068
C 1.651085 -2.385317 1.150182
C 1.763810 -2.345723 1.069302
C 1.835007 -2.315861 1.061038
C 1.982582 -2.250481 0.972633
C 2.097725 -2.156503 0.933922
C 2.141178 -2.165422 1.108315
C 2.307851 -2.003197 0.928425
C 2.521204 -1.995177 0.852148
C 2.653186 -1.938739 0.712302
C 2.725217 -1.813713 0.533485
C 2.779496 -1.709243 0.435921
C 2.850852 -1.626665 0.288417
C 2.771489 -1.550587 0.360986
C 2.804460 -1.539413 0.481699
C 2.766923 -1.396858 0.365462
C 2.704118 -1.170809 0.183566
C 2.819769 -0.931396 0.019321
C 2.752885 -0.720443 -0.185930
C 2.604236 -0.523147 -0.265380
C 2.624372 -0.305654 -0.520230
C 2.644093 -0.159854 -0.686029
C 2.536093 -0.133906 -0.455407
C 2.556708 -0.145687 -0.173910
C 2.578565 -0.195581 0.071738
C 2.693228 -0.250085 0.419026
C 2.815314 -0.365716 0.798361
C 2.945641 -0.409257 1.119103
C 2.882279 -0.485612 1.511759
C 2.910488 -0.558290 1.741783
C 2.849190 -0.643634 2.015918
C 2.808253 -0.615844 2.226081
C 2.697952 -0.608253 2.340339
C 2.689928 -0.641334 2.474542
C 2.517066 -0.624031 2.490898
C 2.497011 -0.500249 2.386896
C 2.345475 -0.540110 2.437551
C 2.198878 -0.596228 2.414187
C 1.965425 -0.714069 2.501619
C 1.794188 -0.690948 2.391909
C 1.609715 -0.634447 2.269981
C 1.533137 -0.666070 2.367139
C 1.465060 -0.668903 2.264485
C 1.332346 -0.643950 2.223420
C 1.199002 -0.555747 2.333333
C 1.061078 -0.593956 2.371648
C 1.007696 -0.733074 2.672214
C 0.890861 -0.764711 2.831955
C 0.615870 -0.901515 2.957040
C 0.476722 -1.009156 3.184096
C 0.614183 -0.828250 3.015634
C 0.908586 -0.601026 2.565293
C 1.205429 -0.218238 2.076924
C 1.427918 0.121258 1.485396
C 1.601112 0.456511 0.921371
C 1.951809 0.864182 0.259783
C 2.067125 1.180156 -0.306049
C 2.188512 1.353391 -0.727172
C 2.083418 1.493089 -0.974073
C 2.012196 1.572090 -1.195133
C 2.099426 1.623685 -1.215870
C 2.125810 1.654710 -1.231271
C 2.142796 1.760031 -1.228539
C 2.293834 1.846806 -1.201965
C 2.327648 1.889589 -1.034788
C 2.317924 1.765350 -0.755179
C 1.831100 1.368226 -0.067655
C 1.201755 1.044168 0.438403
C 1.175970 0.935189 0.670849
C 0.746541 0.523003 1.292825
C 0.361671 0.216320 1.867960
C 0.141162 -0.013023 2.365305
C -0.097003 -0.143404 2.684187
C 0.372708 0.175464 2.332856
C 0.624617 0.365503 2.233602
C 0.347050 0.236696 2.485093
C 0.402929 0.384450 2.358497
C 0.302805 0.417744 2.350743
C 0.253330 0.503653 2.062411
C 0.381613 0.646517 1.849064
C 0.185379 0.547273 2.088836
C 0.107450 0.477567 2.323921
C 0.022438 0.518969 2.501389
C 0.006201 0.596253 2.616664
C -0.054899 0.554401 2.725309
C -0.065730 0.596624 3.003072
C -0.147628 0.608384 3.216336
C -0.211364 0.682415 3.353579
C -0.079669 0.860513 3.270860
C 0.035788 0.973610 3.255208
C 0.226658 1.017456 3.268337
C 0.453183 1.245886 3.129674
C 0.555429 1.446513 3.011424
C 0.638910 1.576849 2.961183
C 0.816916 1.628367 2.868234
C 0.901083 1.709045 2.778158
C 1.301906 1.853990 2.548386
C 1.822963 1.922502 1.954442
C 1.943827 1.930285 1.864709
C 2.068526 1.852042 1.870100
C 2.099386 1.853195 1.637965
C 1.990134 1.859136 1.445151
C 1.850767 1.802102 1.204213
C 1.532315 1.784290 1.143458
C 1.039769 1.865023 1.551842
C 1.039906 1.971136 1.443150
C 1.052209 2.098074 1.257270
C 1.178619 2.222780 1.333574
C 1.290621 2.314538 1.354571
C 1.421424 2.528951 1.253799
C 1.500603 2.561518 1.117298
C 1.545301 2.642027 0.784700
C 1.535020 2.702744 0.680732
C 1.410088 2.825687 0.466152
C 1.292518 2.864843 0.183013
C 1.195969 2.943357 -0.154355
C 1.111723 2.938723 -0.267121
C 0.971316 3.059913 -0.405487
C 0.861600 3.060632 -0.357242
C 0.781906 3.108674 -0.374006
C 0.748577 3.065476 -0.203974
C 0.593010 3.170787 0.028285
C 0.517000 3.193909 0.402124
C 0.512871 3.294007 0.769534
C 0.437221 3.244106 1.175934
C 0.292594 3.160076 1.530433
C 0.200513 3.072466 1.601781
C 0.109734 2.991504 1.632087
C 0.084953 2.793762 1.571041
C 0.018677 2.863219 1.351349
C -0.093795 2.789249 1.208362
C -0.134574 2.806769 1.085192
C -0.147713 2.942004 0.989813
C -0.424688 2.837163 1.261866
C -0.647773 2.694462 1.526553
C -0.857822 2.687582 1.754869
C -0.962900 2.418076 2.041653
C -1.138889 2.208061 2.165084
C -1.202444 2.158340 2.047701
C -1.157208 2.060102 1.738509
C -0.952904 2.278881 1.174537
C -0.872112 2.451753 0.746157
C -0.715022 2.496172 0.375311
C -0.719152 2.738562 0.062544
C -0.730525 2.922743 -0.060096
C -0.754698 2.902439 0.038161
C -0.917924 2.893173 0.342729
C -1.023247 2.732669 0.770714
C -1.157041 2.560730 1.136506
C -1.234219 2.417509 1.342484
C -1.285842 2.338405 1.381731
C -1.208853 2.273301 1.247450
C -1.275164 2.265478 1.173303
C -1.381749 2.343703 0.987222
C -1.469953 2.516800 0.606044
C -1.378664 2.693164 0.189676
C -1.391749 2.833222 -0.075333
C -1.307106 2.845664 -0.264429
C -1.321974 2.910372 -0.426082
C -1.365492 3.004559 -0.589716
C -1.288451 2.900455 -0.647095
C -1.351452 2.706899 -0.416298
C -1.584993 2.645524 -0.207085
C -1.759657 2.589400 0.063779
C -2.001748 2.448926 0.439760
C -2.178046 2.246300 0.878211
C -2.238773 2.028633 1.214264
C -2.324196 1.957939 1.450970
C -2.344613 1.959898 1.525240
C -2.299344 1.750364 1.734344
C -2.350789 1.584072 1.880037
C -2.377711 1.462384 1.960903
C -2.399057 1.449084 1.939150
C -2.471316 1.523849 1.679034
C -2.530775 1.588884 1.428661
C -2.542439 1.629110 1.222641
C -2.621057 1.771406 0.992034
C -2.645992 1.785994 0.871708
C -2.717668 1.749808 0.851304
C -2.843894 1.613787 0.882719
C -3.009542 1.399510 1.090288
C -3.203936 1.222191 1.292369
C -3.510916 1.002193 1.383210
C -3.610836 0.824571 1.491004
C -3.747547 0.732788 1.517292
C -3.894836 0.730484 1.388673
