342
chr6 3D structure from Hi-C (resolution 500000bp)
C 3.164869 -1.582424 0.360993
C 3.127720 -1.618839 0.323336
C 3.081562 -1.594420 0.288240
C 3.071056 -1.532785 0.240185
C 2.964046 -1.628087 0.145999
C 2.826358 -1.723753 -0.013739
C 2.808174 -1.741201 -0.076797
C 2.779185 -1.705552 -0.158312
C 2.707161 -1.799430 -0.218323
C 2.642284 -1.862997 -0.281931
C 2.556534 -1.878435 -0.295669
C 2.481559 -1.944160 -0.269837
C 2.385220 -1.932872 -0.279395
C 2.151291 -1.921281 -0.373562
C 1.874122 -2.161115 -0.444138
C 1.617447 -2.238062 -0.550345
C 1.396990 -2.390906 -0.653120
C 1.205318 -2.566159 -0.805365
C 1.138113 -2.606332 -0.917646
C 1.208816 -2.481542 -0.992990
C 1.446927 -2.300146 -0.972107
C 1.693738 -2.138613 -0.971708
C 1.933522 -2.037287 -0.996967
C 2.151267 -1.865053 -0.998754
C 2.395286 -1.740347 -0.964134
C 2.545412 -1.620307 -0.964306
C 2.653601 -1.594483 -0.972655
C 2.666955 -1.616915 -1.037415
C 2.702118 -1.520042 -1.090811
C 2.701254 -1.345157 -1.088506
C 2.624762 -1.257416 -1.120865
C 2.436079 -1.311655 -1.280445
C 2.226935 -1.304022 -1.466994
C 1.923841 -1.394778 -1.535988
C 1.525668 -1.566837 -1.647789
C 1.128204 -1.818362 -1.699931
C 0.817322 -2.033189 -1.833858
C 0.717457 -2.148168 -1.884598
C 0.744351 -2.071060 -1.841611
C 0.762731 -2.164593 -1.838153
C 0.782399 -2.232051 -1.885423
C 0.940937 -2.260659 -1.920558
C 1.081494 -2.236030 -1.995149
C 1.117107 -2.253253 -2.003833
C 1.008457 -2.373240 -2.082505
C 0.890663 -2.528688 -2.111378
C 0.955708 -2.268358 -2.051291
C 1.147003 -1.980056 -1.966807
C 1.290824 -1.691764 -1.834124
C 1.638172 -1.348863 -1.565729
C 2.183659 -1.003271 -1.179868
C 2.604343 -0.653685 -1.088848
C 3.021222 -0.342859 -0.904041
C 3.158662 -0.341412 -0.873491
C 2.734241 -0.934048 -0.703822
C 2.254057 -1.517298 -0.547336
C 2.125178 -0.931570 -0.572876
C 1.801966 -0.284826 -0.748165
C 1.560242 0.393706 -0.650077
C 0.611345 -0.061597 -0.575098
C -0.228704 -0.484890 -0.404767
C 0.092634 0.697933 -0.713061
C 0.274001 0.683481 -0.687814
C 0.002792 -0.535032 -0.566541
C 0.286038 -1.037803 -0.474305
C 0.615378 -1.436014 -0.351944
C 1.601586 -0.748043 -0.312146
C 2.546580 -0.129676 -0.349142
C 2.813244 -0.530833 -0.022066
C 3.294360 0.281330 -0.124629
C 3.733543 1.053950 -0.207551
C 3.675694 1.124225 -0.342109
C 3.570796 1.018541 -0.435033
C 3.407210 1.018962 -0.593436
C 3.272942 0.986552 -0.694408
C 3.196404 0.906265 -0.903876
C 3.082648 0.844607 -1.065745
C 2.926507 0.787137 -1.305746
C 2.760258 0.699032 -1.438572
C 2.720209 0.717146 -1.622589
C 2.759153 0.673420 -1.716095
C 2.792780 0.745441 -1.723200
C 2.824942 0.914270 -1.761592
C 2.870599 1.083525 -1.759989
C 2.928014 1.218888 -1.715792
C 2.968829 1.256755 -1.757343
C 2.818932 1.157563 -1.839885
C 2.608860 1.043287 -1.971389
C 2.437159 0.871480 -2.170998
C 2.196767 0.560349 -2.323159
C 1.899865 0.205615 -2.540563
C 1.635202 -0.035836 -2.697430
C 1.337577 -0.240382 -2.779286
C 0.980817 -0.523757 -2.832064
C 0.664082 -0.752781 -2.858669
C 0.318641 -0.918993 -2.873035
C 0.109193 -1.017531 -2.929382
C -0.137033 -1.172759 -2.886393
C -0.329301 -1.310798 -2.962495
C -0.417930 -1.380282 -2.986830
C -0.284553 -1.230939 -3.016599
C -0.032434 -1.036294 -3.042566
C 0.185289 -0.887274 -2.996816
C 0.356220 -0.653421 -2.952390
C 0.526306 -0.413446 -2.926865
C 0.498753 -0.342020 -2.913857
C 0.458312 -0.294046 -2.940327
C 0.299585 -0.354197 -2.950593
C 0.014359 -0.458331 -3.031445
C -0.136332 -0.428780 -3.120042
C -0.161096 -0.299651 -3.136826
C -0.070996 -0.113058 -3.218253
C -0.055997 0.040997 -3.360602
C -0.263535 -0.223302 -3.289806
C -0.408419 -0.661875 -2.969621
C -0.570731 -1.140043 -2.535299
C -0.846655 -1.713388 -2.166477
C -1.335718 -2.359120 -1.939013
C -1.878671 -2.859691 -1.712533
C -2.231198 -3.290287 -1.333868
C -2.345140 -3.165840 -1.279360
C -2.479391 -2.809836 -1.435726
C -2.596117 -2.440804 -1.678043
C -2.430123 -1.829631 -1.940368
C -2.201428 -1.360308 -2.021936
C -2.040034 -1.097393 -2.021726
C -2.049047 -0.849950 -2.072146
C -1.944643 -0.709293 -2.066599
C -1.914649 -0.593882 -2.088952
C -1.929530 -0.438426 -2.060916
C -2.097503 -0.515223 -2.040053
C -2.309555 -0.569320 -1.975953
C -2.478206 -0.565816 -2.020398
C -2.347174 -0.362294 -2.177279
C -2.432987 -0.262962 -2.192312
C -2.417478 -0.177395 -2.213975
C -2.103496 0.001385 -2.145184
C -1.879792 0.206210 -2.200680
C -1.628353 0.439071 -2.331935
C -1.426252 0.549606 -2.380961
C -1.433540 0.512773 -2.173978
C -1.364440 0.580041 -2.082136
C -1.004255 0.803085 -1.932238
C -0.908041 0.929751 -1.985376
C -0.840357 1.035227 -1.896722
C -0.988045 0.993459 -1.891512
C -0.978200 1.098254 -1.991373
C -0.850401 1.326943 -2.191252
C -0.714407 1.499007 -2.269007
C -1.025264 1.427907 -2.343955
C -1.304944 1.331214 -2.348252
C -1.624005 1.225794 -2.392093
C -1.689259 1.307830 -2.398812
C -1.885745 1.252112 -2.216821
C -1.980300 1.192471 -2.047244
C -1.909805 1.278295 -2.048463
C -1.846678 1.424447 -2.078492
C -1.751760 1.507115 -2.016798
C -1.768367 1.535173 -1.934195
C -1.825844 1.533851 -1.837447
C -1.726097 1.682602 -1.869779
C -1.583159 1.831118 -1.864150
C -1.892546 1.631989 -1.729787
C -1.732206 1.710041 -1.626677
C -1.735984 1.875988 -1.644247
C -1.521405 2.076652 -1.686858
C -1.402734 2.166764 -1.620478
C -1.269519 2.231058 -1.520731
C -1.269873 2.309635 -1.446871
C -1.197748 2.463389 -1.441403
C -1.350145 2.456755 -1.435909
C -1.155757 2.479337 -1.356128
C -0.927142 2.415312 -1.198501
C -0.600803 2.510701 -1.113090
C -0.370285 2.560896 -0.978905
C -0.141102 2.426170 -0.878854
C 0.229844 2.441297 -0.751866
C 0.463344 2.494415 -0.644650
C 0.289200 2.334327 -0.569575
C -0.039591 2.343406 -0.513450
C -0.337184 2.365396 -0.472297
C -0.758460 2.335110 -0.475394
C -1.231579 2.358167 -0.413007
C -1.710693 2.381091 -0.422096
C -2.136192 2.266074 -0.356354
C -2.394462 2.250754 -0.352865
C -2.655181 2.119683 -0.287186
C -2.797019 2.091892 -0.190691
C -2.683935 2.148306 -0.132645
C -2.562336 2.349095 -0.058876
C -2.300376 2.418794 0.062411
C -2.109689 2.502337 0.140104
C -1.952350 2.699003 0.313535
C -1.783168 2.852268 0.436936
C -1.646239 2.873151 0.505502
C -1.583179 2.699469 0.550776
C -1.595999 2.473202 0.543110
C -1.722611 2.354255 0.544390
C -1.670245 2.228971 0.550309
C -1.766955 1.925564 0.471499
C -1.962945 1.579229 0.359967
C -2.250823 1.220124 0.263766
C -2.525113 1.209891 0.331015
C -2.711291 1.037366 0.330917
C -2.857469 1.000011 0.391708
C -3.046070 0.942048 0.381062
C -2.885577 0.998975 0.429048
C -2.397382 1.343508 0.533871
C -1.790638 1.662925 0.615688
C -1.206007 1.812304 0.613777
C -0.580724 1.993526 0.657009
C 0.096873 2.043679 0.678284
C 0.701689 2.188172 0.719000
C 1.142584 2.305142 0.722994
C 1.393076 2.233884 0.718788
C 1.521471 2.211492 0.761317
C 1.565303 2.270041 0.790361
C 1.549010 2.322179 0.845027
C 1.577234 2.415509 0.880314
C 1.523374 2.537442 0.981549
C 1.385267 2.602175 1.079729
C 0.935246 2.525686 1.143087
C 0.234074 2.019529 1.088450
C -0.388209 1.420636 1.033834
C -0.582444 1.371443 1.021559
C -1.289705 0.905416 0.930526
C -1.860252 0.469953 0.847930
C -2.397565 0.141242 0.809620
C -2.550358 -0.092266 0.746715
C -2.097201 0.317697 0.862093
C -1.855466 0.594147 0.940334
C -2.116990 0.330574 0.973184
C -1.896757 0.611838 1.128062
C -1.831711 0.544870 1.135648
C -1.490125 0.588230 1.168965
C -1.245113 0.668345 1.227340
C -1.520162 0.461296 1.233201
C -1.773318 0.273334 1.254781
C -1.895212 0.105505 1.279681
C -2.060880 -0.195081 1.261535
C -2.174162 -0.276230 1.376260
C -2.394496 -0.400339 1.442592
C -2.593109 -0.407398 1.517890
C -2.682897 -0.416232 1.627814
C -2.608688 -0.368901 1.740159
C -2.586451 -0.276298 1.877839
C -2.592299 -0.180872 1.950071
C -2.480913 0.052026 2.030444
C -2.289116 0.379328 2.138951
C -2.159398 0.508750 2.266339
C -2.134749 0.590104 2.274713
C -2.010058 0.695830 2.358191
C -2.059131 0.483954 2.285676
C -2.080851 -0.019895 2.082332
C -2.009757 -0.078865 2.073819
C -2.175653 -0.181068 2.057746
C -1.917036 -0.164724 1.961623
C -1.527245 -0.168299 1.891765
C -1.279309 -0.049161 1.768686
C -0.885836 0.426082 1.834735
C -0.586094 1.155198 2.097779
C -0.404185 1.300624 2.088300
C -0.150090 1.360021 2.180328
C -0.336381 1.407894 2.308668
C -0.473627 1.445000 2.436194
C -0.407082 1.521402 2.540178
C -0.278223 1.483418 2.516911
C 0.050131 1.508860 2.472106
C 0.242209 1.575146 2.517098
C 0.469395 1.589968 2.493696
C 0.818231 1.558762 2.448833
C 1.173401 1.547486 2.384972
C 1.359483 1.430521 2.330989
C 1.515150 1.399475 2.391972
C 1.450846 1.291918 2.408620
C 1.444248 1.207811 2.440968
C 1.169286 1.056602 2.491129
C 0.906382 1.126693 2.622865
C 0.525043 1.055134 2.788108
C 0.128810 0.991688 3.037396
C -0.334194 0.825427 3.117394
C -0.660969 0.671616 3.221385
C -0.816591 0.569726 3.204235
C -0.711754 0.514192 3.157014
C -0.616208 0.324317 3.043500
C -0.351424 0.321662 3.027051
C -0.159337 0.321761 2.936620
C -0.063874 0.270628 2.923189
C 0.145019 0.245811 3.023508
C -0.013621 0.074313 3.128425
C -0.242661 -0.121242 3.136069
C -0.326581 -0.313260 3.264408
C -0.559640 -0.482408 3.168047
C -0.657597 -0.637301 3.081751
C -0.428269 -0.568874 3.013934
C -0.240702 -0.465806 2.771358
C 0.259855 -0.335667 2.686144
C 0.678525 -0.198427 2.651067
C 0.903090 -0.100879 2.454777
C 1.145892 -0.098540 2.545885
C 1.278136 -0.119858 2.642372
C 1.200146 -0.222037 2.660127
C 0.849795 -0.448360 2.763500
C 0.427396 -0.614584 2.732797
C 0.144510 -0.770341 2.786225
C -0.017885 -0.864722 2.826020
C -0.018632 -0.905938 2.788185
C 0.028922 -0.904907 2.627496
C 0.053051 -0.956798 2.673771
C 0.313469 -0.995454 2.708961
C 0.764464 -0.962524 2.741323
C 1.084423 -0.891044 2.683335
C 1.331780 -0.842976 2.680569
C 1.468227 -0.731072 2.569115
C 1.632179 -0.689628 2.584685
C 1.805951 -0.739352 2.516387
C 1.856740 -0.624795 2.395178
C 1.620363 -0.694844 2.376352
C 1.453253 -0.921832 2.398215
C 1.218013 -1.135473 2.428048
C 0.800423 -1.389926 2.473457
C 0.356738 -1.629686 2.458527
C -0.015726 -1.693151 2.446956
C -0.263327 -1.835291 2.468532
C -0.392836 -1.919874 2.451182
C -0.541204 -1.925582 2.406468
C -0.675643 -2.028880 2.360952
C -0.726758 -2.083017 2.317834
C -0.676661 -2.081866 2.317499
C -0.490139 -2.163751 2.273117
C -0.324503 -2.232501 2.247902
C -0.151072 -2.265594 2.232025
C 0.031886 -2.296213 2.181782
C 0.131991 -2.290532 2.130584
C 0.273748 -2.415676 2.119627
C 0.194079 -2.540626 2.080088
C 0.125741 -2.725471 2.065977
C -0.002789 -2.916521 2.015879
C -0.239465 -3.208931 1.853917
C -0.413737 -3.326848 1.815311
C -0.495010 -3.482743 1.784192
C -0.546001 -3.563400 1.733897
