485
chr2 3D structure from Hi-C (resolution 500000bp)
C 4.302955 -0.668432 -0.909086
C 4.328440 -0.676428 -0.839740
C 4.253988 -0.560395 -0.876490
C 4.194558 -0.376856 -0.976325
C 4.180069 -0.202161 -1.049782
C 4.208893 -0.355519 -0.945189
C 4.097114 -0.444698 -0.947448
C 4.125014 -0.583163 -0.922352
C 4.082543 -0.606481 -0.922100
C 4.065341 -0.660722 -0.865722
C 4.036882 -0.714030 -0.811911
C 4.001772 -0.599363 -0.777004
C 3.842357 -0.139414 -0.962480
C 3.630467 0.360125 -1.173054
C 3.368025 0.895587 -1.360477
C 3.094172 1.347675 -1.541086
C 2.821862 1.836131 -1.758355
C 2.606967 2.180464 -1.913572
C 2.440345 2.372007 -1.989112
C 2.324119 2.427441 -2.011608
C 2.308084 2.373753 -2.022055
C 2.338462 2.212768 -1.961010
C 2.538530 1.943303 -1.913507
C 2.844978 1.579496 -1.764013
C 3.085925 1.322681 -1.627413
C 3.368041 1.053698 -1.491748
C 3.607517 0.760426 -1.429668
C 3.688406 0.655509 -1.406446
C 3.757400 0.559036 -1.466426
C 3.760946 0.452724 -1.483723
C 3.657052 0.342917 -1.530048
C 3.641538 0.109444 -1.564592
C 3.500283 0.050895 -1.701863
C 3.408940 -0.071465 -1.657893
C 3.440588 -0.277807 -1.659302
C 3.465132 -0.463398 -1.649749
C 3.338055 -0.432753 -1.693087
C 3.234705 -0.186875 -1.798652
C 3.082039 -0.021542 -1.862905
C 3.152990 -0.217495 -1.757409
C 3.160812 -0.329559 -1.771686
C 3.153532 -0.479109 -1.674314
C 3.123202 -0.520087 -1.629517
C 3.072379 -0.448136 -1.604368
C 2.980390 -0.403608 -1.633235
C 2.662252 -0.042144 -1.754408
C 2.232488 0.586327 -1.983609
C 1.791227 1.263998 -2.219303
C 1.361254 1.996213 -2.443737
C 0.947142 2.631127 -2.621193
C 0.715431 3.022077 -2.767232
C 0.493885 3.270391 -2.839526
C 0.552657 3.279735 -2.862628
C 0.684412 3.187618 -2.829593
C 0.765085 3.125161 -2.828011
C 0.940720 2.929945 -2.817695
C 1.177246 2.652968 -2.832968
C 1.317430 2.492040 -2.836920
C 1.590169 2.202168 -2.850734
C 1.795342 1.943431 -2.798086
C 1.885947 1.756079 -2.816157
C 1.973621 1.667175 -2.832982
C 2.045567 1.500653 -2.862224
C 2.118224 1.301049 -2.855423
C 2.244724 0.948793 -2.818410
C 2.374993 0.535219 -2.699254
C 2.537268 0.089647 -2.560577
C 2.739400 -0.430083 -2.364509
C 2.979017 -1.004968 -2.185778
C 3.164705 -1.321663 -2.110564
C 3.095598 -1.309422 -2.044101
C 2.904127 -0.932992 -2.114419
C 2.616031 -0.408217 -2.294635
C 2.270174 0.185218 -2.512930
C 1.939437 0.747812 -2.751416
C 1.732805 1.146195 -2.923941
C 1.583470 1.261841 -2.936928
C 1.687729 1.052360 -2.853772
C 1.897363 0.442731 -2.659273
C 2.136761 -0.121028 -2.496791
C 2.328567 -0.555285 -2.365853
C 2.342222 -0.661326 -2.357688
C 2.226261 -0.552810 -2.398668
C 1.906959 -0.131833 -2.535200
C 1.589373 0.355836 -2.757058
C 1.268511 0.918277 -3.041268
C 0.964287 1.432101 -3.190615
C 0.755474 1.741526 -3.259434
C 0.619407 1.906117 -3.236150
C 0.531612 1.947846 -3.230514
C 0.541631 1.890381 -3.250000
C 0.545198 1.798660 -3.238850
C 0.590982 1.673654 -3.171138
C 0.708314 1.459097 -3.158020
C 0.828316 1.055652 -3.064490
C 1.130849 0.475202 -2.983798
C 1.441501 -0.158151 -2.798384
C 1.767462 -0.771421 -2.597450
C 2.005960 -1.351328 -2.420792
C 2.237315 -1.898926 -2.222912
C 2.405263 -2.438139 -1.997856
C 2.528491 -2.677466 -1.982272
C 2.528989 -2.802308 -1.993846
C 2.475226 -2.824003 -2.054542
C 2.267567 -2.599798 -2.139232
C 2.156074 -2.298544 -2.286922
C 1.947786 -1.895290 -2.584862
C 1.665727 -1.391921 -2.841714
C 1.475392 -1.061301 -2.999657
C 1.383330 -0.971269 -3.035629
C 1.345634 -0.986494 -3.095855
C 1.474787 -1.225384 -3.136773
C 1.480012 -1.326661 -3.162606
C 1.508805 -1.430487 -3.131215
C 1.624696 -1.778067 -3.042602
C 1.695117 -1.976568 -3.050169
C 1.671428 -1.913400 -3.147606
C 1.536216 -1.667568 -3.229782
C 1.283148 -1.266936 -3.308045
C 0.978219 -0.851150 -3.382718
C 0.739804 -0.519324 -3.408345
C 0.428271 0.010132 -3.508247
C 0.218657 0.340640 -3.626495
C 0.035212 0.554733 -3.723347
C -0.112962 0.751903 -3.791968
C -0.206293 0.847960 -3.787997
C -0.199047 0.766772 -3.757934
C -0.174611 0.617321 -3.751619
C 0.019071 0.230018 -3.705903
C 0.082112 -0.092936 -3.649168
C 0.156170 -0.369061 -3.553403
C 0.286750 -0.725320 -3.450124
C 0.418679 -1.126962 -3.401966
C 0.445521 -1.290290 -3.425020
C 0.452177 -1.432764 -3.428324
C 0.303704 -1.248450 -3.466511
C 0.067651 -0.770893 -3.471843
C -0.167732 -0.336075 -3.507457
C -0.324078 -0.057657 -3.553469
C -0.488473 0.218524 -3.618614
C -0.431350 0.046780 -3.580602
C -0.384131 -0.145651 -3.496754
C -0.379917 -0.293434 -3.486823
C -0.355901 -0.483562 -3.437881
C -0.437296 -0.476540 -3.455314
C -0.566419 -0.254670 -3.428403
C -0.615185 -0.229091 -3.374429
C -0.682137 -0.155728 -3.334189
C -0.754787 -0.131028 -3.315522
C -0.732694 -0.375751 -3.287953
C -0.593524 -0.806525 -3.262795
C -0.279213 -1.495913 -3.029682
C -0.021446 -2.242571 -2.903856
C 0.253581 -2.845305 -2.722448
C 0.363200 -3.201921 -2.653609
C 0.482215 -3.424458 -2.526944
C 0.559299 -3.470601 -2.390759
C 0.527282 -3.380575 -2.313773
C 0.357197 -3.141657 -2.397921
C 0.222469 -3.074506 -2.479539
C 0.122434 -3.018927 -2.544306
C 0.110000 -3.120490 -2.544361
C 0.071951 -3.177935 -2.606614
C 0.069091 -3.286667 -2.577570
C 0.166188 -3.441456 -2.492826
C 0.192193 -3.472190 -2.475372
C 0.140472 -3.182369 -2.465566
C -0.049226 -2.757292 -2.555862
C -0.298480 -2.015376 -2.618081
C -0.538782 -1.386568 -2.680519
C -0.862025 -0.877728 -2.937958
C -1.427305 -0.554478 -3.335640
C -1.044002 -0.957514 -2.930280
C -1.086314 -0.990454 -2.893676
C -1.135389 -1.108844 -2.906411
C -0.616814 -2.089263 -2.462273
C -0.341175 -2.894188 -2.267785
C 0.111950 -3.647865 -1.767018
C 1.097178 -4.172070 -0.776616
C 1.190704 -4.148621 -0.606185
C 1.525068 -4.688315 -0.336401
C 2.323339 -5.130827 0.375098
C 2.684734 -4.877617 0.721543
C 3.312191 -4.694077 1.322897
C 2.514025 -3.223642 1.146288
C 1.296698 -2.047411 0.533597
C 0.442622 -1.640167 -0.068131
C -0.080978 -0.905250 -0.283561
C -1.125802 -0.166458 -0.972664
C -2.188913 0.656469 -1.669786
C -3.247226 1.464244 -2.359098
C -3.205047 1.136965 -2.560739
C -2.926536 0.920075 -2.600223
C -2.913492 1.484706 -2.523698
C -2.981660 1.636697 -2.499872
C -2.946535 1.695656 -2.354203
C -2.926632 1.329717 -2.260698
C -2.968226 0.967460 -2.215459
C -2.783516 0.538100 -2.060200
C -2.724813 0.303055 -1.969779
C -2.697244 0.036923 -1.915115
C -2.710756 -0.168686 -1.841035
C -2.567745 -0.653722 -1.695486
C -2.413600 -1.023477 -1.549576
C -2.242267 -1.483792 -1.390794
C -2.013243 -1.902528 -1.170904
C -1.894302 -2.329919 -1.024277
C -1.875132 -2.481641 -0.954729
C -1.810444 -2.580409 -0.924029
C -1.970846 -2.566510 -1.015021
C -2.053165 -2.561166 -1.032367
C -1.995117 -2.562278 -0.954037
C -2.148488 -2.562725 -1.043315
C -2.250647 -2.385121 -1.074055
C -2.381121 -2.181471 -1.107044
C -2.461397 -1.974846 -1.121047
C -2.613828 -1.617041 -1.193222
C -2.996821 -1.129963 -1.373599
C -3.338449 -0.445719 -1.581310
C -3.588678 0.241480 -1.695926
C -3.804978 0.726113 -1.789293
C -3.833677 0.963238 -1.783036
C -3.871568 1.115214 -1.778315
C -3.800197 1.124112 -1.671107
C -3.665157 1.093820 -1.526723
C -3.447059 0.555059 -1.340643
C -3.132473 -0.102561 -1.079327
C -2.888444 -0.912038 -0.875421
C -2.664262 -1.789748 -0.666207
C -2.436398 -2.583691 -0.451097
C -2.169561 -3.285815 -0.231562
C -1.882958 -3.848018 -0.046202
C -1.936499 -3.843011 -0.023676
C -2.030808 -3.564099 -0.098281
C -2.110975 -3.285417 -0.171477
C -2.215716 -2.765260 -0.261881
C -2.411145 -2.189822 -0.400689
C -2.604051 -1.560791 -0.559382
C -2.718496 -1.152564 -0.676472
C -2.773851 -0.851380 -0.716095
C -2.819026 -0.739058 -0.708500
C -2.850999 -0.787682 -0.631316
C -2.920896 -0.997220 -0.583555
C -2.890416 -1.450694 -0.394644
C -2.802005 -1.992151 -0.169742
C -2.748644 -2.364675 0.015206
C -2.706742 -2.768802 0.129153
C -2.795714 -3.028383 0.259780
C -2.816227 -3.090323 0.339197
C -2.772670 -3.199853 0.405349
C -2.788246 -3.004519 0.354801
C -2.903319 -2.460757 0.198048
C -3.028411 -1.782618 0.014731
C -3.115021 -1.256555 -0.075544
C -3.096219 -1.071253 -0.166163
C -3.076573 -0.846245 -0.248102
C -3.201230 -0.592226 -0.279757
C -3.401692 -0.301175 -0.303660
C -3.535430 -0.372947 -0.263841
C -3.674098 -0.583203 -0.201550
C -3.886365 -0.830810 -0.118329
C -3.962291 -1.155037 -0.021413
C -3.943553 -1.292420 0.109890
C -3.848346 -1.365867 0.203373
C -3.678014 -1.596266 0.294063
C -3.477673 -1.554842 0.362932
C -3.310667 -1.525786 0.465906
C -3.142292 -1.270854 0.485856
C -3.052842 -0.654713 0.410403
C -3.016193 -0.329162 0.358970
C -2.864061 -0.432481 0.444555
C -2.739224 -0.598910 0.568022
C -2.608393 -0.968577 0.713747
C -2.531064 -1.131606 0.825854
C -2.380535 -1.489533 0.992459
C -2.109041 -2.113920 1.246162
C -1.838448 -2.594059 1.483081
C -1.712471 -2.723598 1.568121
C -1.607463 -2.787528 1.665446
C -1.624165 -2.834593 1.769477
C -1.481115 -3.070676 1.890306
C -1.339968 -3.208333 1.983747
C -1.473702 -2.933454 1.968210
C -1.693163 -2.561580 1.869350
C -1.927750 -2.208840 1.839910
C -2.131982 -1.730895 1.744441
C -2.247826 -1.564941 1.755732
C -2.195164 -1.550535 1.772636
C -2.236389 -1.510890 1.820648
C -2.103088 -1.752501 1.930403
C -2.039602 -2.041224 2.094150
C -2.052463 -2.113300 2.174659
C -2.093141 -2.231381 2.252103
C -2.154479 -1.986274 2.175312
C -2.461344 -1.604454 2.120571
C -2.624547 -1.348249 2.058687
C -2.755381 -1.210526 2.079222
C -2.831032 -1.115662 2.091004
C -2.652954 -1.222289 2.094821
C -2.542659 -1.231975 2.080124
C -2.467274 -1.189738 2.112770
C -2.334155 -1.190819 2.081522
C -2.274241 -1.144330 2.119807
C -2.189869 -1.224907 2.185693
C -1.950111 -1.377607 2.248582
C -1.888655 -1.447135 2.385839
C -1.814903 -1.586725 2.567607
C -1.717499 -1.773328 2.750114
C -1.397007 -2.155252 2.932653
C -1.376027 -2.134430 3.007001
C -1.514358 -1.882817 3.031560
C -1.660802 -1.548806 2.904402
C -1.769608 -1.363968 2.902339
C -1.799049 -1.262707 2.890232
C -1.745632 -1.196494 2.820205
C -2.117399 -0.654240 2.696677
C -2.160996 -0.417079 2.523931
C -2.045621 -0.382394 2.464253
C -1.970978 -0.515291 2.604160
C -1.988380 -0.299862 2.494891
C -1.748496 -0.477499 2.499504
C -1.670291 -0.516696 2.522363
C -1.413054 -0.922732 2.737586
C -1.102799 -1.394136 3.000479
C -0.879848 -1.627491 3.070572
C -0.741948 -1.680274 3.082896
C -0.544812 -1.957942 3.211878
C -0.544219 -1.853870 3.219168
C -0.545445 -1.827424 3.262142
C -0.415798 -1.841437 3.266140
C -0.287367 -1.867362 3.252055
C -0.248566 -1.840824 3.290084
C -0.320165 -1.765034 3.320221
C -0.435205 -1.508225 3.236634
C -0.688845 -1.164868 3.128443
C -0.778457 -0.962524 3.014137
C -1.148642 -0.375093 2.694382
C -1.558470 0.279616 2.422465
C -1.909018 0.915694 2.081917
C -2.143574 1.537344 1.691821
C -2.276938 1.907908 1.392852
C -2.272988 2.097961 1.205983
C -2.350829 2.312209 1.080636
C -2.337570 2.306346 1.095672
C -2.292639 2.282952 1.076545
C -2.272154 2.323108 1.067417
C -2.199909 2.177668 1.194619
C -2.171115 2.042978 1.432400
C -2.183519 1.941693 1.656594
C -2.196791 1.905904 1.782077
C -2.142762 1.878822 1.921022
C -2.144498 1.886239 1.967179
C -2.076090 1.733023 2.165564
C -2.002001 1.654390 2.311109
C -1.877639 1.591497 2.339875
C -1.774946 1.527899 2.416481
C -1.578551 1.288982 2.638649
C -1.339716 0.944278 2.877165
C -1.094286 0.584258 3.236135
C -1.041034 0.540321 3.351993
C -0.979561 0.417140 3.505401
C -0.730318 0.083536 3.744056
C -0.604052 -0.049690 3.853994
C -0.507507 -0.075167 3.861292
C -0.412038 -0.126076 3.875823
C -0.313074 -0.176960 3.904685
C 0.013970 -0.540195 3.997722
C 0.285812 -0.828668 4.045334
C 0.396370 -0.889355 3.996518
C 0.504233 -0.904493 3.947918
C 0.491510 -0.821064 3.923815
C 0.568360 -0.768103 3.874539
C 0.708891 -0.796490 3.853223
C 0.738037 -0.719851 3.865343
C 0.806999 -0.673565 3.869798
C 0.656075 -0.454728 3.927197
C 0.525838 -0.272915 3.877189
C 0.425269 -0.040285 3.715513
C 0.139777 0.389142 3.494291
C -0.105904 0.720038 3.387452
C -0.290259 1.009510 3.319986
C -0.379707 1.198539 3.355531
C -0.157698 1.081258 3.350214
C 0.201951 0.800388 3.478078
C 0.549119 0.470361 3.761885
C 0.933176 0.087693 4.085944
C 1.174439 -0.152543 4.235801
C 1.233282 -0.173165 4.350311
C 1.141009 -0.034056 4.292038
C 0.859356 0.358828 4.152044
C 0.514180 0.794223 3.961591
C 0.204048 1.216164 3.618932
C -0.075523 1.569794 3.406702
C -0.202423 1.830730 3.283482
C -0.156126 1.871299 3.221405
C -0.094056 1.872999 3.213155
C -0.059960 1.820673 3.219555
C -0.020967 1.824515 3.206730
C -0.054340 1.878694 3.164851
C -0.151335 2.051283 2.953739
C -0.326262 2.311901 2.686062
C -0.547015 2.591555 2.295418
C -0.797845 2.916115 1.973671
C -0.921805 3.144538 1.781971
C -0.913118 3.170648 1.740669
C -0.670911 2.929176 1.913338
C -0.336811 2.549572 2.160208
C -0.010670 2.198029 2.381727
C 0.173375 1.992954 2.589876
C 0.306296 1.873216 2.664751
C 0.474735 1.797619 2.761060
C 0.553818 1.829661 2.729816
C 0.440094 2.027043 2.602250
C 0.371500 2.147893 2.526883
C 0.479426 2.070971 2.614864
C 0.774896 1.778033 2.745422
C 1.096852 1.462798 2.967820
C 1.282668 1.196821 3.079968
C 1.586829 0.830426 3.252793
C 1.959469 0.458083 3.456384
C 2.253527 0.224339 3.575183
C 2.315732 0.195206 3.541175
C 2.197569 0.451313 3.533206
C 2.069541 0.722313 3.463232
C 2.162046 0.795145 3.507868
C 2.215146 0.901629 3.523915
C 2.097038 1.188363 3.457580
C 1.897120 1.591131 3.366177
C 1.670906 1.958036 3.238141
C 1.490868 2.172071 2.927613
C 1.449712 2.324574 2.731720
C 1.195011 2.604830 2.436894
C 0.887285 2.970455 2.110707
C 0.640858 3.160468 1.751757
C 0.359824 3.307067 1.413955
C 0.224094 3.452132 1.166864
C 0.355871 3.413540 1.271108
C 0.544635 3.182781 1.389092
C 0.789696 2.977140 1.603546
C 0.968755 2.781784 1.800611
C 1.337462 2.523538 2.110838
C 1.706716 2.269870 2.373113
C 1.891856 2.108342 2.535678
C 2.063309 1.945679 2.597332
C 2.023193 2.056624 2.519720
C 2.033605 2.160480 2.389111
C 1.972296 2.242048 2.268660
C 1.942730 2.265593 2.260428
C 2.071366 2.191647 2.352982
C 2.285541 2.030878 2.483245
C 2.265688 2.078413 2.497681
C 2.292660 2.055764 2.546422
C 2.203494 2.012039 2.588957
C 2.463457 1.843044 2.717478
C 2.560059 1.752743 2.716358
C 2.543932 1.765719 2.654153
C 2.328605 2.026377 2.491407
C 2.056171 2.325158 2.319827
C 1.769913 2.592847 2.090455
C 1.477556 2.910180 1.779577
C 0.976838 3.346485 1.402534
C 0.540784 3.805984 1.050437
C 0.065185 4.176620 0.689316
C -0.181254 4.308693 0.442957
C -0.127190 4.298717 0.354745
C 0.033612 4.228249 0.361605
C 0.379153 4.085197 0.526653
C 0.765353 3.917352 0.718471
C 1.096839 3.769284 0.860177
C 1.420887 3.727521 1.014800
C 1.666843 3.682274 1.129516
C 1.726511 3.647712 1.146292
C 1.613282 3.700581 1.057012
C 1.391569 3.843498 0.901444
C 1.285608 3.969415 0.770329
C 1.148420 4.118438 0.616751
C 1.113498 4.190988 0.522581
C 1.063944 4.282887 0.390074
C 0.831716 4.451652 0.255727
C 0.680933 4.585315 0.179801
C 0.516670 4.712975 0.023925
C 1.052142 3.756946 0.314172
C 1.019786 3.630614 0.329422
C 0.925012 3.466709 0.291892
C 0.919618 3.207470 0.345362
