485
chr2 3D structure from Hi-C (resolution 500000bp)
C 4.378242 -0.034639 -0.842484
C 4.377021 -0.043488 -0.835853
C 4.341600 0.022005 -0.828872
C 4.245557 0.206207 -0.939096
C 4.270448 0.297633 -1.012576
C 4.294129 0.146168 -0.850561
C 4.213965 0.098784 -0.890239
C 4.242976 -0.019034 -0.811387
C 4.227604 -0.073512 -0.747748
C 4.121887 -0.047135 -0.767342
C 4.100796 -0.083585 -0.698975
C 4.026528 0.058932 -0.738083
C 3.833483 0.480081 -0.972555
C 3.518480 0.927948 -1.143906
C 3.198426 1.406371 -1.352357
C 2.900863 1.841257 -1.590809
C 2.603728 2.188333 -1.806007
C 2.364000 2.451560 -2.004123
C 2.165736 2.605807 -2.065529
C 2.023932 2.652123 -2.113396
C 2.014892 2.601130 -2.128971
C 2.077765 2.445216 -2.090113
C 2.271265 2.190318 -1.991703
C 2.634361 1.914985 -1.790776
C 2.914206 1.707574 -1.643129
C 3.208524 1.453895 -1.543441
C 3.483882 1.209093 -1.403625
C 3.581803 1.063499 -1.359796
C 3.644084 0.955419 -1.386069
C 3.645645 0.862633 -1.435011
C 3.580203 0.752495 -1.515844
C 3.567708 0.511898 -1.482476
C 3.423776 0.427963 -1.510660
C 3.381664 0.302977 -1.550654
C 3.427481 0.103559 -1.542744
C 3.476155 -0.062600 -1.538374
C 3.389293 -0.049647 -1.593321
C 3.247061 0.132465 -1.731484
C 3.085187 0.292895 -1.840654
C 3.191677 0.122021 -1.728699
C 3.184476 0.000745 -1.627142
C 3.246341 -0.069192 -1.543582
C 3.261965 -0.115942 -1.473908
C 3.199664 -0.104704 -1.465624
C 3.106696 -0.075874 -1.433449
C 2.797237 0.226908 -1.579100
C 2.303509 0.804741 -1.845909
C 1.728883 1.410265 -2.170472
C 1.158912 1.988166 -2.481665
C 0.639674 2.524936 -2.739424
C 0.380789 2.936066 -2.877233
C 0.105604 3.144670 -3.018287
C 0.141470 3.142848 -3.003082
C 0.271415 3.054821 -3.004101
C 0.420569 3.010864 -3.019231
C 0.653647 2.897676 -3.015843
C 0.944177 2.643584 -3.028887
C 1.047758 2.459193 -3.038475
C 1.361928 2.250621 -2.985521
C 1.542319 1.996420 -2.969170
C 1.633454 1.819332 -2.955925
C 1.716631 1.730702 -2.940011
C 1.795648 1.510668 -2.936453
C 1.882957 1.379764 -2.900341
C 2.069290 1.057341 -2.820469
C 2.333841 0.612690 -2.603708
C 2.583476 0.202863 -2.377099
C 2.906055 -0.247123 -2.170096
C 3.268670 -0.793383 -1.958801
C 3.526910 -1.092234 -1.787841
C 3.475379 -1.099883 -1.778847
C 3.258507 -0.719709 -1.867185
C 2.823479 -0.244561 -2.145510
C 2.422688 0.301300 -2.475338
C 2.007980 0.776275 -2.742429
C 1.691999 1.104806 -2.931322
C 1.498837 1.171890 -2.982062
C 1.616164 0.940094 -2.827994
C 1.937249 0.409096 -2.701369
C 2.253954 -0.062154 -2.525274
C 2.505198 -0.472837 -2.401792
C 2.565241 -0.590407 -2.378098
C 2.394142 -0.416223 -2.451325
C 2.044319 0.032267 -2.621858
C 1.641080 0.512204 -2.901257
C 1.168487 1.000207 -3.083334
C 0.743093 1.457446 -3.252047
C 0.465689 1.728906 -3.341944
C 0.303992 1.865893 -3.360349
C 0.338021 1.792572 -3.395594
C 0.396972 1.707119 -3.463376
C 0.432206 1.608228 -3.417983
C 0.514551 1.486651 -3.321859
C 0.654340 1.290062 -3.276169
C 0.886841 0.974639 -3.123900
C 1.210308 0.424218 -2.917446
C 1.556494 -0.056791 -2.709541
C 1.899654 -0.608690 -2.418149
C 2.248143 -1.087926 -2.241048
C 2.573169 -1.621104 -2.079442
C 2.861564 -2.088836 -1.892939
C 2.969887 -2.311684 -1.913195
C 3.015819 -2.386024 -1.927225
C 2.945077 -2.460180 -1.856123
C 2.763638 -2.257167 -2.016206
C 2.555810 -2.060439 -2.189059
C 2.292336 -1.676007 -2.427999
C 1.991054 -1.254399 -2.723010
C 1.782309 -1.001218 -2.837239
C 1.669792 -0.924873 -2.929538
C 1.672105 -0.925029 -3.060126
C 1.758945 -1.167845 -3.013424
C 1.789344 -1.270325 -3.013111
C 1.818142 -1.473259 -3.023287
C 1.978362 -1.805397 -2.892092
C 2.049688 -1.987311 -2.884684
C 2.008977 -1.947193 -2.977001
C 1.801727 -1.715613 -3.096933
C 1.579833 -1.385396 -3.265990
C 1.273057 -0.989508 -3.382646
C 1.002873 -0.627440 -3.486424
C 0.606330 -0.151399 -3.615496
C 0.325635 0.150736 -3.732907
C 0.104166 0.385511 -3.855933
C -0.058105 0.551619 -3.897637
C -0.225436 0.658509 -3.931399
C -0.250880 0.594897 -3.906510
C -0.222127 0.453455 -3.844644
C -0.032682 0.127398 -3.793773
C 0.097092 -0.179552 -3.664971
C 0.168789 -0.485522 -3.553780
C 0.285243 -0.809563 -3.507435
C 0.493479 -1.172250 -3.379928
C 0.618060 -1.369798 -3.320482
C 0.621807 -1.501078 -3.318264
C 0.505833 -1.381312 -3.355058
C 0.199340 -0.929228 -3.435823
C -0.030478 -0.539977 -3.502927
C -0.178342 -0.335577 -3.533548
C -0.394712 -0.093949 -3.616629
C -0.392392 -0.247946 -3.590153
C -0.242860 -0.453019 -3.463410
C -0.207061 -0.575063 -3.365828
C -0.128912 -0.759097 -3.318855
C -0.171485 -0.760610 -3.319135
C -0.326473 -0.507400 -3.295029
C -0.371913 -0.451354 -3.249177
C -0.460324 -0.393256 -3.217467
C -0.560923 -0.363349 -3.199568
C -0.400742 -0.600730 -3.081214
C -0.133393 -1.050789 -2.890542
C 0.253370 -1.627679 -2.623920
C 0.672598 -2.351524 -2.390803
C 0.990789 -2.912676 -2.178052
C 1.210216 -3.224365 -2.016273
C 1.347759 -3.419657 -1.932492
C 1.306064 -3.471471 -1.956150
C 1.187385 -3.376958 -2.035945
C 1.028495 -3.293110 -2.154418
C 0.875324 -3.254013 -2.305650
C 0.753379 -3.228664 -2.375262
C 0.732866 -3.343445 -2.397596
C 0.758898 -3.456043 -2.397051
C 0.729295 -3.552945 -2.386518
C 0.767995 -3.687688 -2.326420
C 0.741624 -3.629251 -2.264566
C 0.618648 -3.322229 -2.234417
C 0.389807 -2.903006 -2.336752
C 0.029741 -2.237049 -2.509104
C -0.361596 -1.595177 -2.697577
C -0.691079 -1.145397 -2.962851
C -1.152827 -0.966307 -3.375552
C -0.774635 -1.334357 -3.011768
C -0.838596 -1.391040 -3.018736
C -0.861470 -1.528952 -3.073618
C -0.174739 -2.331201 -2.479072
C -0.003369 -3.016280 -2.417963
C 0.589225 -3.640277 -1.841670
C 1.593930 -3.855732 -0.778403
C 1.764395 -3.715173 -0.550705
C 2.074033 -4.216934 -0.234579
C 2.777516 -4.678582 0.555733
C 3.031583 -4.398983 0.817331
C 3.837480 -4.154651 1.637657
C 2.751475 -2.880478 1.368415
C 1.578497 -2.876820 0.519409
C 0.678580 -2.693979 -0.111545
C 0.145158 -2.040233 -0.402906
C -0.825662 -1.291698 -1.155747
C -1.973840 -0.607894 -1.910248
C -3.130119 0.002150 -2.641356
C -3.050611 -0.231714 -2.691535
C -2.989277 0.544327 -2.558321
C -3.134584 1.128956 -2.557592
C -3.227363 1.338705 -2.515414
C -3.178653 1.381756 -2.331757
C -3.135406 1.045097 -2.231332
C -3.113179 0.686970 -2.207475
C -2.821522 0.217113 -2.172071
C -2.725117 -0.086120 -2.071947
C -2.630949 -0.355703 -1.962461
C -2.546134 -0.621159 -1.876113
C -2.372617 -1.070102 -1.720444
C -2.077626 -1.521366 -1.451949
C -1.881441 -1.960992 -1.265627
C -1.635161 -2.335951 -1.006345
C -1.446541 -2.699488 -0.836438
C -1.374751 -2.841431 -0.773338
C -1.390521 -2.941225 -0.763729
C -1.586545 -2.885774 -0.876607
C -1.787173 -2.797969 -1.011303
C -1.760135 -2.765289 -0.965817
C -1.825878 -2.825345 -1.010602
C -1.955343 -2.691423 -1.076479
C -2.105691 -2.474180 -1.102839
C -2.104444 -2.234443 -1.071714
C -2.269445 -1.956221 -1.150338
C -2.666584 -1.549221 -1.356775
C -3.053138 -0.934605 -1.552468
C -3.443176 -0.209309 -1.760346
C -3.694404 0.203750 -1.880255
C -3.758460 0.410424 -1.957396
C -3.849603 0.575062 -1.974416
C -3.748749 0.616521 -1.883649
C -3.580747 0.600731 -1.732464
C -3.307579 0.094004 -1.488312
C -2.947362 -0.549188 -1.196284
C -2.493478 -1.257528 -0.837832
C -2.176252 -2.074979 -0.514821
C -1.941612 -2.847510 -0.283598
C -1.725858 -3.523787 -0.061001
C -1.424367 -4.033584 0.166390
C -1.455954 -4.018313 0.176922
C -1.543066 -3.814411 0.101081
C -1.780724 -3.561677 -0.057839
C -2.011385 -3.044698 -0.225261
C -2.211196 -2.490672 -0.385147
C -2.361091 -1.885263 -0.515426
C -2.536438 -1.544516 -0.690170
C -2.638273 -1.302261 -0.768275
C -2.777598 -1.151531 -0.769343
C -2.856433 -1.149641 -0.724544
C -2.855190 -1.370350 -0.641799
C -2.844190 -1.767186 -0.471825
C -2.711600 -2.301736 -0.298848
C -2.631069 -2.624107 -0.108463
C -2.549228 -2.966382 0.061632
C -2.594229 -3.168550 0.147408
C -2.599036 -3.246341 0.249239
C -2.521369 -3.396840 0.337833
C -2.498346 -3.286699 0.302267
C -2.672529 -2.756556 0.174966
C -2.818656 -2.106113 0.011804
C -3.001866 -1.583290 -0.154893
C -3.017306 -1.439297 -0.206940
C -3.056007 -1.197241 -0.296781
C -3.174770 -0.919276 -0.369225
C -3.425655 -0.649261 -0.416246
C -3.571695 -0.771426 -0.374379
C -3.664727 -0.977862 -0.271440
C -3.806072 -1.114136 -0.145150
C -3.805760 -1.390127 -0.062278
C -3.718545 -1.503475 0.063402
C -3.591976 -1.636208 0.158264
C -3.351675 -1.808709 0.288498
C -3.148472 -1.712335 0.335968
C -3.060960 -1.650251 0.400133
C -2.905943 -1.480478 0.384545
C -2.881767 -0.910012 0.339073
C -2.913331 -0.613796 0.282811
C -2.902163 -0.613307 0.422021
C -2.783012 -0.791873 0.579571
C -2.620495 -1.145723 0.779694
C -2.552884 -1.321307 0.922385
C -2.399986 -1.637635 1.132108
C -2.044139 -2.207435 1.437826
C -1.767383 -2.703546 1.668818
C -1.627051 -2.814866 1.751802
C -1.563907 -2.825769 1.841347
C -1.435431 -2.876115 1.961298
C -1.183725 -3.104022 2.072506
C -0.962331 -3.288106 2.190122
C -1.125053 -3.062369 2.156142
C -1.295565 -2.692812 2.083423
C -1.382494 -2.410765 2.006611
C -1.565049 -1.980544 1.822544
C -1.809933 -1.822363 1.813574
C -1.829131 -1.764306 1.826594
C -1.967893 -1.675052 1.829182
C -1.925001 -1.821259 1.940452
C -1.855899 -2.094668 2.104557
C -2.007389 -2.072563 2.153799
C -2.060278 -2.169148 2.270598
C -2.190456 -1.910154 2.157972
C -2.491982 -1.560510 2.063769
C -2.604527 -1.337791 1.969066
C -2.697609 -1.286591 1.971185
C -2.781700 -1.220650 1.943578
C -2.687762 -1.314967 2.026252
C -2.630444 -1.322597 2.033995
C -2.494958 -1.335360 2.058471
C -2.337200 -1.325165 2.052377
C -2.288716 -1.349079 2.111474
C -2.034389 -1.403632 2.127639
C -1.828994 -1.493658 2.207633
C -1.610220 -1.658299 2.321123
C -1.477925 -1.792784 2.510559
C -1.448139 -1.937034 2.771033
C -1.323158 -2.240083 3.080170
C -1.337553 -2.221381 3.177401
C -1.526699 -2.039572 3.253093
C -1.705404 -1.679399 3.157288
C -1.857355 -1.445790 3.111645
C -1.805394 -1.414717 3.041972
C -1.821883 -1.285979 2.900097
C -2.055785 -0.900814 2.665360
C -2.155190 -0.623009 2.488716
C -2.190916 -0.506649 2.439298
C -2.081438 -0.620414 2.542616
C -2.096290 -0.458969 2.471415
C -1.871755 -0.567437 2.529359
C -1.717853 -0.613979 2.621644
C -1.325297 -0.955235 2.824178
C -0.923333 -1.384673 3.092695
C -0.621718 -1.575216 3.100495
C -0.527689 -1.642213 3.160844
C -0.340748 -1.875133 3.297781
C -0.378327 -1.781100 3.332673
C -0.278146 -1.807553 3.347390
C -0.223758 -1.812474 3.347601
C -0.137845 -1.796039 3.361789
C -0.094280 -1.795397 3.411767
C -0.012760 -1.770138 3.368362
C -0.091565 -1.555309 3.229536
C -0.434727 -1.244755 3.139413
C -0.648710 -1.025513 3.016170
C -1.080821 -0.474564 2.689845
C -1.505596 0.084928 2.325997
C -1.921715 0.650002 2.000314
C -2.336190 1.244326 1.615402
C -2.589459 1.620330 1.365140
C -2.631884 1.813497 1.116702
C -2.704266 1.989347 0.971014
C -2.629960 2.004090 0.974422
C -2.624417 2.029199 1.004752
C -2.611633 2.062571 0.965495
C -2.488553 1.921685 1.128730
C -2.415397 1.819622 1.311921
C -2.349778 1.741913 1.533887
C -2.350686 1.674071 1.694321
C -2.362481 1.626969 1.818845
C -2.338136 1.612193 1.890765
C -2.245672 1.484518 2.087598
C -2.164620 1.402661 2.187646
C -2.067602 1.360866 2.256797
C -1.980284 1.294339 2.342946
C -1.715689 1.105962 2.509599
C -1.401320 0.824186 2.768346
C -1.095738 0.470961 3.122273
C -1.064529 0.447213 3.283036
C -0.973582 0.358074 3.463210
C -0.729711 0.080385 3.721905
C -0.631977 -0.004107 3.818893
C -0.624953 0.022033 3.845427
C -0.448915 -0.091389 3.853729
C -0.298250 -0.150422 3.857040
C 0.107220 -0.453917 3.939924
C 0.386885 -0.668095 4.053246
C 0.578331 -0.776973 4.011879
C 0.684841 -0.785083 3.999167
C 0.753524 -0.717247 3.993454
C 0.633676 -0.537298 3.980422
C 0.645986 -0.496617 3.967827
C 0.581867 -0.373762 3.983506
C 0.536929 -0.293313 4.006501
C 0.411597 -0.128283 4.022442
C 0.330160 0.044221 3.961587
C 0.161405 0.259926 3.837799
C -0.097884 0.601688 3.583062
C -0.321813 0.857433 3.461831
C -0.476113 1.025829 3.394007
C -0.472754 1.142401 3.365056
C -0.261218 1.086476 3.380142
C 0.087602 0.857181 3.518840
C 0.531156 0.544006 3.727073
C 1.040696 0.162245 4.047407
C 1.387194 -0.063277 4.182781
C 1.459169 -0.033642 4.300594
C 1.358891 0.090331 4.255674
C 0.979928 0.486481 4.092150
C 0.595462 0.867846 3.839922
C 0.158330 1.259667 3.520095
C -0.298395 1.677522 3.300055
C -0.591753 1.989846 3.237227
C -0.609429 2.037580 3.181579
C -0.593009 2.076293 3.146296
C -0.565434 2.024373 3.164617
C -0.514078 1.972848 3.152656
C -0.522633 2.033944 3.084497
C -0.600852 2.122547 2.865989
C -0.748600 2.326658 2.544770
C -0.970606 2.582159 2.157407
C -1.228018 2.855565 1.780130
C -1.342365 3.068515 1.570928
C -1.305704 3.134136 1.523295
C -1.002136 2.909444 1.713273
C -0.574254 2.625301 2.015456
C -0.228505 2.333586 2.280685
C 0.032512 2.123783 2.495725
C 0.215402 1.989687 2.655534
C 0.404639 1.898192 2.818681
C 0.466098 1.900925 2.879541
C 0.313696 2.082450 2.761113
C 0.170217 2.179577 2.698222
C 0.344957 2.070071 2.730833
C 0.595483 1.938827 2.904174
C 0.921936 1.712773 3.118115
C 1.119802 1.492541 3.180667
C 1.378007 1.297670 3.352344
C 1.733381 1.009524 3.574415
C 2.021834 0.848443 3.669494
C 2.064273 0.884340 3.661132
C 2.053226 0.972594 3.553387
C 1.868733 1.211679 3.490620
C 1.844181 1.380240 3.543213
C 1.972289 1.362052 3.494756
C 1.875687 1.540853 3.407594
C 1.649012 1.836548 3.317921
C 1.347158 2.180817 3.161268
C 1.042087 2.429963 2.924549
C 0.942961 2.573714 2.669806
C 0.738030 2.704290 2.352024
C 0.393671 3.047504 2.050881
C 0.066827 3.296751 1.672591
C -0.099399 3.446750 1.353217
C -0.206769 3.550128 1.127405
C -0.065422 3.511746 1.170068
C 0.220454 3.296001 1.314915
C 0.515203 3.129948 1.501105
C 0.655565 3.035316 1.680422
C 1.009713 2.820949 1.998349
C 1.256205 2.585330 2.241202
C 1.424276 2.441995 2.414724
C 1.586990 2.337036 2.532046
C 1.461127 2.450720 2.503334
C 1.412036 2.576119 2.435508
C 1.276468 2.635983 2.340367
C 1.314791 2.637150 2.392333
C 1.556732 2.544006 2.473048
C 1.822883 2.384606 2.601489
C 1.800206 2.434371 2.583290
C 1.888543 2.453831 2.609616
C 1.928370 2.428957 2.631549
C 2.291316 2.262248 2.783944
C 2.390527 2.242922 2.736682
C 2.332830 2.319052 2.684494
C 2.063399 2.525334 2.478263
C 1.701243 2.738902 2.286445
C 1.292991 2.901124 1.989185
C 0.925212 3.117761 1.629823
C 0.420095 3.442505 1.188779
C -0.064566 3.733269 0.798642
C -0.505250 4.044485 0.446915
C -0.684572 4.195878 0.252203
C -0.555127 4.178912 0.159841
C -0.201306 4.129304 0.214558
C 0.134766 4.094722 0.439640
C 0.514441 3.968232 0.615397
C 0.896479 3.922527 0.773478
C 1.214168 3.855622 0.901546
C 1.429348 3.825734 0.980925
C 1.505235 3.833873 0.979726
C 1.293103 3.902207 0.896635
C 1.053380 3.963082 0.701442
C 0.902814 4.115071 0.611190
C 0.727098 4.215844 0.450856
C 0.641721 4.279715 0.352158
C 0.506665 4.371785 0.254603
C 0.294045 4.501443 0.101489
C 0.157395 4.598523 -0.033467
C -0.041649 4.713394 -0.154270
C -0.728563 4.798770 -0.483503
C -0.964770 4.848753 -0.559047
C -1.375347 4.943301 -0.743908
C -1.768706 5.021968 -0.951013
