161
chr18 3D structure from Hi-C (resolution 500000bp)
C -0.917701 3.419369 -1.146210
C -0.856500 3.387505 -1.217941
C -0.930723 3.354164 -1.275773
C -1.050223 3.263715 -1.393936
C -0.809130 3.183531 -1.592428
C -0.679794 3.162886 -1.750466
C -0.552418 2.940547 -1.998399
C -0.653187 2.848013 -2.106329
C -0.735140 2.736127 -2.222125
C -0.622969 2.606233 -2.403946
C -0.413353 2.490763 -2.495129
C -0.389037 2.336659 -2.724191
C -0.357128 2.210269 -2.932499
C -0.508289 2.089341 -2.988994
C -0.564130 1.843974 -3.029188
C -0.676899 1.682010 -3.146257
C -0.938747 1.540402 -3.151900
C -1.104650 1.379087 -3.202295
C -1.382535 1.317263 -3.060256
C -1.642919 1.141692 -2.911206
C -1.796649 0.912271 -2.951023
C -1.979918 0.923516 -2.864578
C -2.106857 0.860417 -2.709304
C -2.170611 0.792219 -2.606278
C -2.406237 0.919076 -2.357556
C -2.696495 0.942793 -2.141830
C -3.032693 0.862739 -1.975890
C -3.406771 0.637409 -1.705238
C -3.749234 0.259567 -1.528597
C -4.051382 0.115286 -1.158744
C -4.327951 0.109938 -0.634874
C -4.545710 -0.067359 -0.170501
C -4.632531 -0.446061 0.193625
C -4.625912 -0.853241 0.508415
C -4.553165 -1.105736 0.818907
C -4.379507 -0.657038 1.390446
C -4.067546 -0.297892 1.812214
C -3.725076 0.035051 2.066903
C -3.415999 0.452257 2.141971
C -3.049447 0.966811 2.130881
C -2.799869 1.691069 2.144695
C -2.451472 2.311844 2.007663
C -2.093883 2.251120 1.541738
C -1.997176 2.134111 1.015254
C -1.993173 1.882281 0.615293
C -1.815945 1.639732 0.340747
C -1.571283 1.673485 0.238302
C -1.342053 1.698210 0.307166
C -1.122864 1.769520 0.496691
C -1.006028 2.016270 0.600217
C -0.667809 2.148922 0.712021
C -0.203534 2.395520 0.721219
C 0.076884 2.590052 0.900646
C 0.289450 2.681031 1.120438
C 0.639749 2.855552 1.229596
C 0.838865 3.118100 1.252485
C 1.106365 3.085039 1.383295
C 1.351037 3.102920 1.481470
C 1.468048 2.973906 1.554602
C 1.603722 2.761162 1.360596
C 1.709953 2.570828 1.194830
C 1.730753 2.394905 0.995924
C 1.875254 2.286870 0.796692
C 2.018875 2.225328 0.510717
C 2.155056 2.121652 0.339978
C 2.397843 2.127296 0.246328
C 2.554770 2.089172 0.268465
C 2.560941 2.036233 -0.047000
C 2.518059 1.701959 -0.469332
C 2.367328 1.309064 -0.771136
C 2.205711 1.104642 -0.836551
C 2.164883 0.923626 -0.985424
C 2.169878 0.762547 -1.178582
C 2.247206 0.661573 -1.268875
C 2.340004 0.501484 -1.457781
C 2.646221 0.606810 -1.411804
C 2.976864 0.657808 -1.255453
C 3.225507 0.535201 -1.448572
C 3.274282 0.594635 -1.602835
C 3.115110 0.434231 -1.660881
C 2.994352 0.352366 -1.797669
C 2.989873 0.242314 -1.488234
C 2.959348 0.065827 -1.320188
C 2.954645 -0.100472 -1.233226
C 2.975657 -0.287838 -1.044081
C 2.933725 -0.643521 -1.133797
C 2.763673 -0.814980 -1.287558
C 2.595956 -0.950814 -1.372216
C 2.320614 -1.079742 -1.584037
C 1.552023 -1.365671 -1.655838
C 0.759197 -1.596268 -1.849075
C 0.104589 -1.649303 -2.001660
C -0.333556 -1.694978 -2.054674
C -0.599122 -1.798785 -2.052507
C -0.929480 -1.956999 -2.228534
C -1.052905 -2.065779 -2.430413
C -0.871163 -2.003865 -2.471988
C -0.737771 -2.095544 -2.592552
C -0.688255 -2.207257 -2.591002
C -0.543606 -2.336652 -2.511308
C -0.450871 -2.516180 -2.510308
C -0.117182 -2.558409 -2.380340
C 0.169054 -2.589843 -2.099270
C 0.537183 -2.666225 -1.996863
C 0.827466 -2.814155 -1.709043
C 0.950956 -2.992664 -1.550590
C 1.062423 -3.088938 -1.266288
C 1.220931 -3.032280 -0.983464
C 1.291995 -3.151635 -0.692883
C 1.320857 -3.207284 -0.543837
C 1.146291 -3.264532 -0.394467
C 0.902961 -3.160317 -0.245191
C 0.869869 -3.043802 -0.174097
C 0.607111 -2.971823 -0.164522
C 0.302749 -3.050607 -0.167394
C 0.040181 -2.886530 -0.146122
C -0.148972 -2.908367 -0.001761
C -0.204854 -2.974129 0.205686
C -0.010543 -2.943833 0.367503
C 0.174699 -2.865902 0.698876
C 0.440107 -2.726258 0.939166
C 0.776825 -2.505242 1.113201
C 0.996206 -2.599982 1.313712
C 1.068029 -2.460451 1.350382
C 1.383218 -2.278096 1.341253
C 1.724458 -2.091818 1.376087
C 1.996926 -1.981390 1.371674
C 2.282941 -1.865615 1.487771
C 2.522817 -1.660762 1.664206
C 2.647345 -1.386281 1.751021
C 2.894910 -1.199598 1.974904
C 2.831859 -1.097662 2.223317
C 2.677083 -0.954299 2.460542
C 2.557537 -0.771367 2.650490
C 2.302899 -0.579987 2.867499
C 2.070159 -0.376324 3.120814
C 1.891307 -0.213773 3.284935
C 1.601593 -0.141661 3.345133
C 1.364721 0.064704 3.419068
C 1.095793 0.139187 3.522898
C 0.770427 0.186569 3.624253
C 0.498824 0.204364 3.636538
C 0.279101 -0.089750 3.630326
C 0.017533 -0.240506 3.661024
C -0.127447 -0.389221 3.683862
C -0.193257 -0.479299 3.387568
C -0.362521 -0.691987 3.072123
C -0.489927 -0.930666 2.864099
C -0.624360 -1.186025 2.746391
C -0.730192 -1.306295 2.539676
C -0.854881 -1.426072 2.253264
C -1.018995 -1.389179 2.078101
C -1.311915 -1.392297 2.287306
C -1.453574 -1.305073 2.456363
C -1.681857 -1.216048 2.528081
C -1.874961 -1.273287 2.323482
C -2.141327 -1.232823 2.212099
C -2.303796 -1.160595 2.229676
C -2.462801 -1.195805 2.291831
C -2.530616 -1.304028 2.144043
C -2.644356 -1.362730 1.928951
