161
chr18 3D structure from Hi-C (resolution 500000bp)
C -2.717971 -1.393864 -1.852566
C -2.653915 -1.272715 -1.823311
C -2.527125 -1.190052 -1.957654
C -2.454184 -1.172405 -1.985522
C -2.478983 -0.953683 -1.949003
C -2.510555 -0.646570 -1.936807
C -2.361264 -0.420741 -2.016156
C -2.236373 -0.245873 -2.091378
C -2.199809 -0.062142 -2.193378
C -2.234766 0.028506 -2.206451
C -2.251226 0.203373 -2.199573
C -2.270783 0.461384 -2.267405
C -2.179876 0.674945 -2.389095
C -1.976041 0.821195 -2.531355
C -1.792657 0.782231 -2.667132
C -1.606829 0.812850 -2.830936
C -1.418759 0.880636 -2.958746
C -1.216731 0.852457 -3.147365
C -0.970070 0.673145 -3.279650
C -0.789268 0.370552 -3.388719
C -0.634840 0.101465 -3.526004
C -0.495772 -0.053561 -3.588627
C -0.320815 -0.236860 -3.570911
C -0.130482 -0.394732 -3.543459
C -0.121062 -0.578631 -3.534018
C -0.624671 -0.551440 -3.136143
C -1.136768 -0.442409 -2.730140
C -1.659124 -0.028727 -2.257237
C -2.121037 0.554956 -1.874685
C -2.545218 1.192187 -1.527611
C -2.864497 1.918665 -1.220147
C -2.973175 2.758819 -0.846192
C -2.670867 3.359692 -0.645510
C -2.379481 3.864004 -0.324208
C -2.197204 4.042264 0.034595
C -2.201409 3.980381 0.376673
C -2.397362 3.735986 0.757212
C -2.781098 3.308790 1.143403
C -3.223891 2.691985 1.382002
C -2.932271 1.649698 0.995182
C -2.485470 0.661694 0.477829
C -2.076207 -0.121672 -0.037664
C -1.539832 -0.707899 -0.570710
C -0.798764 -1.283958 -1.182895
C -0.101167 -1.784322 -1.752632
C 0.620927 -2.110574 -2.178356
C 0.475900 -2.073978 -2.070490
C 0.173452 -2.089209 -1.916936
C 0.028951 -2.100515 -1.837070
C -0.035389 -2.335491 -1.757062
C -0.347268 -2.385430 -1.482246
C -0.652841 -2.426218 -1.134327
C -1.003968 -2.546545 -0.832258
C -1.270401 -2.548050 -0.648176
C -1.544720 -2.523109 -0.400486
C -1.796853 -2.657973 -0.108546
C -2.101064 -2.587066 0.252610
C -2.215900 -2.629744 0.510031
C -2.161980 -2.570312 0.654680
C -1.932041 -2.443642 0.718867
C -1.576724 -2.516192 0.753482
C -1.165869 -2.518341 0.694826
C -0.914036 -2.520745 0.823107
C -0.853155 -2.470677 0.927676
C -0.754726 -2.454834 1.030108
C -0.713891 -2.565360 1.240079
C -0.678735 -2.630010 1.367152
C -0.624384 -2.477166 1.356012
C -0.421006 -2.460338 1.241993
C -0.070879 -2.174598 0.741179
C 0.159832 -1.990932 0.473745
C 0.178726 -1.834136 0.367808
C -0.051111 -1.555622 0.302159
C -0.287997 -1.339087 0.418764
C -0.639641 -1.173431 0.728055
C -1.197587 -0.827493 1.233717
C -1.841914 -0.701210 1.831664
C -2.062136 -0.686170 2.253845
C -2.222574 -0.476698 2.485048
C -2.060846 -0.352127 2.499056
C -1.999166 -0.245930 2.410770
C -1.844581 -0.008192 2.321431
C -1.648830 0.174533 2.242377
C -1.409599 0.403782 2.220310
C -1.390909 0.682109 2.162445
C -1.363956 0.913214 2.047580
C -1.199699 1.155261 1.758264
C -0.986586 1.324548 1.496536
C -0.745903 1.470860 1.051562
C -0.404904 1.561712 0.333942
C -0.039214 1.648697 -0.336728
C 0.411580 1.646516 -1.029804
C 1.022828 1.560640 -1.594210
C 1.353735 1.490743 -1.905453
C 1.618829 1.575795 -2.231638
C 1.879975 1.478897 -2.412452
C 1.915851 1.440877 -2.269761
C 1.989112 1.507695 -2.233901
C 1.951938 1.664959 -2.113511
C 1.683094 1.886136 -1.919855
C 1.470210 2.257339 -1.598185
C 1.264905 2.353761 -1.213961
C 0.967675 2.615228 -0.693591
C 0.771861 2.781795 -0.323640
C 0.551570 2.864910 0.156891
C 0.669391 2.933509 0.371896
C 0.849637 2.961966 0.545295
C 1.007524 2.779174 0.528326
C 1.092233 2.865020 0.707868
C 1.203943 2.784659 0.735738
C 1.519360 2.637992 0.523774
C 1.794693 2.489375 0.272793
C 1.898181 2.248831 0.137684
C 2.015209 1.918544 -0.072704
C 2.235516 1.662101 -0.222142
C 2.364632 1.351440 -0.453305
C 2.571612 1.201623 -0.537370
C 2.637097 1.213923 -0.308953
C 2.605035 1.087585 -0.025050
C 2.537033 1.135306 0.320717
C 2.481429 1.134944 0.596593
C 2.395957 1.066259 0.821076
C 2.606313 1.053626 0.831067
C 2.630243 0.954980 0.780338
C 2.655379 0.879448 0.852885
C 2.690847 0.906938 0.987368
C 2.547056 0.942047 1.181127
C 2.405554 1.088988 1.506082
C 2.174554 1.251428 1.848008
C 1.840028 1.234522 2.277808
C 1.638386 1.242527 2.725939
C 1.308814 1.138874 3.017749
C 1.096159 0.995223 3.139268
C 0.926874 0.840904 3.249492
C 0.806975 0.584418 3.299957
C 0.776779 0.301597 3.453901
C 0.747134 0.115259 3.481696
C 0.766812 -0.077341 3.407808
C 0.942546 -0.332828 3.301107
C 1.066498 -0.643219 3.253729
C 1.243534 -1.015086 3.185892
C 1.377838 -1.208785 3.115168
C 1.674894 -1.360037 2.863908
C 1.816566 -1.548228 2.751801
C 1.944644 -1.603646 2.683964
C 1.955080 -1.525996 2.389770
C 2.125665 -1.492898 2.023364
C 2.319710 -1.389500 1.668219
C 2.506630 -1.388955 1.406290
C 2.470717 -1.427717 1.197380
C 2.592000 -1.351562 0.852849
C 2.614359 -1.439378 0.597198
C 2.689514 -1.757611 0.622458
C 2.568010 -1.971692 0.752142
C 2.434189 -2.308389 0.759557
C 2.452516 -2.367136 0.418675
C 2.519545 -2.375925 0.119216
C 2.565195 -2.413991 -0.074991
C 2.564826 -2.548504 -0.157039
C 2.591179 -2.445541 -0.388238
C 2.722608 -2.315583 -0.796994
