204
chr15 3D structure from Hi-C (resolution 500000bp)
C -4.299153 0.522612 -1.774672
C -4.310178 0.766255 -1.560669
C -4.286488 1.023164 -1.343867
C -4.223678 1.290291 -1.166825
C -4.127527 1.783461 -0.896397
C -3.970212 2.266579 -0.757676
C -3.789453 2.645271 -0.785602
C -3.608263 2.888612 -0.959245
C -3.436874 2.990032 -1.261546
C -3.303126 2.932903 -1.666420
C -3.224730 2.703867 -2.122279
C -3.178074 2.331379 -2.573027
C -3.103983 1.908426 -3.004344
C -2.962005 1.478488 -3.392674
C -2.786046 1.021345 -3.709028
C -2.718041 0.274320 -3.724971
C -2.577183 -0.472481 -3.692926
C -2.359840 -1.126259 -3.693162
C -2.157291 -1.623431 -3.723867
C -2.100515 -2.028448 -3.678718
C -2.267687 -2.313605 -3.474523
C -2.530054 -2.488634 -3.179187
C -2.744781 -2.275746 -3.016417
C -3.081884 -1.918106 -2.690159
C -3.491646 -1.501994 -2.075088
C -3.882188 -1.137908 -1.247296
C -4.148762 -0.806599 -0.323839
C -4.220206 -0.477776 0.554241
C -4.208968 -0.068979 1.345143
C -4.152346 0.387417 1.957475
C -4.070176 0.792942 2.297197
C -4.023307 1.075776 2.334342
C -4.047830 1.228386 2.157474
C -4.133887 1.218178 1.782691
C -4.198066 0.860066 1.214414
C -4.143109 0.185206 0.616937
C -3.944612 -0.676425 0.189526
C -3.621468 -1.567489 -0.182712
C -3.346708 -2.351304 -0.571066
C -3.310099 -2.765820 -0.626650
C -3.268211 -2.996266 -0.475625
C -3.200490 -2.951448 -0.003766
C -3.112756 -2.682725 0.585387
C -3.147219 -2.605163 0.870919
C -3.062822 -2.530389 1.197963
C -2.855550 -2.567187 1.612991
C -2.394950 -2.862697 1.722105
C -1.840284 -3.173837 1.785453
C -1.398522 -3.418966 1.707503
C -1.159007 -3.746424 1.568534
C -0.968758 -3.768396 1.621583
C -1.006368 -3.763560 1.724534
C -1.118628 -3.626890 1.873769
C -1.495933 -3.403785 1.986159
C -1.898352 -3.241371 1.976048
C -2.341986 -3.196386 1.695086
C -2.726855 -3.048573 1.242846
C -2.893074 -2.696478 0.405832
C -3.018971 -2.307083 -0.501709
C -3.177741 -1.282223 -0.806879
C -3.056958 -0.375893 -0.934788
C -3.013149 0.497216 -0.907998
C -2.868353 1.332784 -0.542588
C -2.438605 1.757692 0.038166
C -2.259969 1.860643 1.021516
C -2.157237 2.052154 2.173997
C -1.834799 1.467180 2.615773
C -1.506743 0.884473 3.040484
C -1.167931 0.189330 3.357377
C -0.880556 -0.457904 3.529194
C -0.853048 -0.613220 3.594764
C -0.815016 -0.749950 3.679294
C -0.637069 -1.081654 3.582320
C -0.523898 -1.126521 3.501280
C -0.400931 -1.092225 3.351946
C -0.266752 -0.842211 3.240027
C -0.080210 -0.474863 3.180132
C 0.009537 -0.113958 3.170068
C 0.066263 0.471802 3.169096
C 0.063016 1.142473 3.103941
C -0.007817 1.657430 3.040083
C -0.067932 2.119140 2.991258
C -0.154902 2.581749 2.887315
C -0.221516 2.839291 2.818558
C -0.179915 2.980348 2.750027
C -0.230397 3.044178 2.654550
C -0.390952 2.985734 2.788801
C -0.233031 2.740633 2.977812
C -0.075714 2.102342 3.034143
C 0.074606 1.189048 3.062320
C 0.134986 0.459072 3.104121
C 0.162486 -0.322386 3.188385
C 0.444672 -1.108122 3.251284
C 0.863687 -1.717095 3.237345
C 0.999731 -2.036030 3.196494
C 1.108090 -1.967286 3.368138
C 1.211361 -1.782641 3.528980
C 1.454697 -1.487307 3.534341
C 1.619071 -0.820271 3.558497
C 1.784966 -0.321439 3.445597
C 1.839089 0.061580 3.214185
C 1.980376 0.240390 3.146108
C 2.199818 0.206574 2.879123
C 2.379833 0.071157 2.682713
C 2.436505 -0.177553 2.541636
C 2.566669 -0.681151 2.317380
C 2.576214 -1.179268 2.267101
C 2.783656 -1.525391 2.315793
C 2.784719 -1.681451 2.204039
C 2.802449 -1.543525 2.235018
C 2.852148 -1.176820 2.156182
C 2.903240 -0.775681 2.044646
C 2.978018 -0.499045 1.929020
C 3.026532 0.008889 1.750998
C 2.988055 0.524155 1.723070
C 3.014582 0.898084 1.633643
C 2.997054 1.112404 1.414851
C 2.983979 1.236792 1.190653
C 3.047365 1.336597 1.010419
C 3.103692 1.431032 0.900411
C 3.272958 1.467580 0.865842
C 3.325247 1.501913 0.639737
C 3.329567 1.528881 0.472533
C 3.182786 1.663704 0.405120
C 3.017241 2.016723 0.539732
C 2.733419 2.307187 0.671824
C 2.362863 2.683562 0.686219
C 1.923963 3.044531 0.634940
C 1.448168 3.353131 0.607353
C 1.073200 3.632536 0.524013
C 0.982690 3.716442 0.430469
C 0.975610 3.698704 0.241955
C 0.952833 3.762338 0.120037
C 1.049417 3.683333 -0.033064
C 1.262017 3.599017 -0.127018
C 1.652312 3.356080 -0.390503
C 1.982092 3.186881 -0.608917
C 2.088314 3.146352 -0.745553
C 2.150380 3.107640 -0.939146
C 2.329754 2.853935 -1.244725
C 2.387266 2.820385 -1.418297
C 2.207803 2.896609 -1.635392
C 1.977916 2.976293 -1.760328
C 1.757890 2.959373 -1.909544
C 1.613905 2.863108 -2.055808
C 1.354865 2.838076 -2.119801
C 0.853474 3.044161 -2.142748
C 0.426401 3.205919 -2.129709
C 0.216598 3.162203 -2.114288
C 0.033434 3.057342 -2.174390
C -0.187778 2.917016 -2.318753
C -0.414182 2.933503 -2.544759
C -0.364737 2.791044 -2.668229
C -0.147674 2.588696 -2.783646
C 0.139156 2.314970 -2.952420
C 0.415621 2.019456 -3.171672
C 0.631099 1.784495 -3.032590
C 0.937749 1.639238 -2.949229
C 1.303163 1.387592 -2.851560
C 1.481640 1.122637 -2.914076
C 1.596895 0.827619 -2.915745
C 1.604699 0.581845 -3.025448
C 1.571842 0.379452 -3.106013
C 1.543138 0.176742 -3.386325
C 1.512265 0.000305 -3.318645
C 1.292501 -0.225696 -3.491797
C 1.262273 -0.287737 -3.355525
C 1.399638 -0.353065 -3.242545
C 1.492685 -0.557263 -3.023474
C 1.493869 -0.865271 -2.815007
C 1.432723 -1.157581 -2.616290
C 1.327042 -1.549975 -2.594628
C 1.361587 -1.826134 -2.391035
C 1.393768 -2.061442 -2.423605
C 1.427028 -2.146164 -2.430023
C 1.595381 -1.983808 -2.414656
C 1.913750 -1.618329 -2.301301
C 2.288611 -1.187845 -2.160964
C 2.781140 -0.689430 -1.976196
C 3.147162 -0.426638 -1.793333
C 3.270493 -0.333260 -1.655490
C 3.323961 -0.415672 -1.640300
C 3.306722 -0.575186 -1.521397
C 3.150261 -0.918116 -1.468179
C 2.971803 -1.407396 -1.507823
C 2.685717 -1.832894 -1.497881
C 2.440527 -2.147033 -1.441687
C 2.215431 -2.520977 -1.373253
C 2.051377 -2.779421 -1.113207
C 1.832642 -3.085935 -1.063472
C 1.638394 -3.359436 -1.024080
C 1.490318 -3.480656 -0.988822
C 1.337262 -3.671034 -0.899451
C 1.305803 -3.668283 -0.844954
C 1.437345 -3.516978 -0.736584
C 1.566540 -3.373407 -0.766705
C 1.786736 -3.236764 -0.716179
C 1.998775 -3.172842 -0.664761
C 2.309932 -2.899937 -0.573051
C 2.631449 -2.528407 -0.601386
C 2.877888 -2.406453 -0.515423
C 2.994239 -2.321784 -0.545879
C 3.065512 -2.325696 -0.553966
C 3.114726 -2.324987 -0.581191
