204
chr15 3D structure from Hi-C (resolution 500000bp)
C 0.806443 1.950030 4.084957
C 1.078338 1.555738 4.166639
C 1.187743 1.183598 4.242698
C 1.185044 0.832578 4.304370
C 1.320629 0.132708 4.454691
C 1.306485 -0.543378 4.557889
C 0.939621 -0.952072 4.573315
C 0.367242 -1.011532 4.572112
C -0.184033 -0.884280 4.554657
C -0.574326 -0.599063 4.532695
C -0.776348 -0.250655 4.528407
C -0.835507 0.072777 4.548936
C -0.834462 0.322423 4.581466
C -0.874008 0.456419 4.593411
C -0.922179 0.279598 4.572850
C -1.080657 0.030503 4.511717
C -1.409813 -0.230102 4.386545
C -1.909091 -0.431359 4.176128
C -2.520104 -0.519646 3.866396
C -3.135682 -0.483278 3.461269
C -3.647280 -0.323512 2.988650
C -4.032543 -0.051653 2.483849
C -4.316720 0.276241 1.953655
C -4.497140 0.639886 1.418106
C -4.562152 1.058141 0.904233
C -4.487314 1.550617 0.447185
C -4.290773 2.079637 0.107933
C -4.036371 2.570799 -0.041846
C -3.759794 2.958404 0.040277
C -3.484434 3.175042 0.349722
C -3.207221 3.202990 0.837155
C -2.921811 3.132424 1.406392
C -2.654664 3.058611 1.967369
C -2.447890 3.024915 2.397856
C -2.282986 3.120178 2.414604
C -2.094448 3.278690 2.203723
C -1.756565 3.540224 1.849498
C -1.387807 3.894950 1.383708
C -0.919932 4.050475 1.358395
C -0.431954 4.015277 1.430639
C 0.150390 3.826697 1.592183
C 0.811461 3.573737 1.953812
C 1.435889 3.290520 2.315596
C 1.716697 3.233398 2.468165
C 1.922572 3.107600 2.346273
C 1.953501 3.230474 1.660256
C 1.893622 3.456966 0.952304
C 1.875805 3.583397 0.295118
C 1.752745 3.652818 -0.233206
C 1.604074 3.831756 -0.715660
C 1.639039 3.782611 -0.926818
C 1.667476 3.771787 -0.835391
C 1.772738 3.752278 -0.613073
C 1.790985 3.722479 -0.121170
C 1.580163 3.851428 0.310744
C 1.270419 4.001167 0.732996
C 0.893109 4.056332 1.138432
C 0.377749 4.066273 1.440487
C -0.367307 3.933556 1.671847
C -1.222006 3.674225 1.894348
C -1.964065 3.343651 1.895219
C -2.551270 2.968368 2.017605
C -2.421529 2.631367 2.242291
C -1.963280 2.129607 2.141601
C -1.246068 1.681773 2.095631
C -0.222909 1.317881 2.181301
C 0.731901 1.114242 2.028818
C 1.843670 1.014194 1.818424
C 2.833919 1.075170 1.480894
C 3.214222 1.102720 1.055116
C 3.366733 1.159643 0.898648
C 3.397034 1.325919 0.704650
C 3.335775 1.550970 0.389954
C 3.364480 1.527256 0.288960
C 3.251778 1.438306 0.173498
C 3.266270 1.227123 0.150599
C 3.227489 0.853435 0.120065
C 3.176165 0.465053 0.310259
C 3.068318 -0.194791 0.603934
C 2.973931 -0.773972 0.929884
C 2.856945 -1.193256 1.283824
C 2.735336 -1.553918 1.646796
C 2.628340 -1.866127 1.963976
C 2.611779 -2.086764 2.140250
C 2.581383 -2.213189 2.173740
C 2.718624 -2.158011 2.072109
C 2.907637 -1.965516 2.156828
C 3.141025 -1.769173 1.898800
C 3.244759 -1.316384 1.365549
C 3.223830 -0.687680 0.723572
C 3.145898 0.009397 0.168826
C 3.221589 0.689341 -0.300371
C 3.135786 1.269301 -0.741959
C 3.181906 1.496641 -1.299927
C 3.208329 1.627218 -1.532943
C 3.347933 1.620157 -1.662424
C 3.425363 1.488400 -1.721372
C 3.599833 0.984515 -1.603048
C 3.667398 0.341633 -1.414229
C 3.670913 -0.114107 -1.360722
C 3.401380 -0.400218 -1.364383
C 3.311908 -0.708007 -1.386413
C 3.228785 -0.976396 -1.442253
C 3.134672 -1.189961 -1.612235
C 3.005935 -1.016641 -1.825991
C 2.893387 -0.666479 -2.129806
C 2.902795 -0.440923 -2.350947
C 3.000773 -0.352522 -2.607642
C 2.854771 -0.159664 -2.830158
C 2.765198 -0.291700 -2.867972
C 2.754434 -0.613439 -2.681813
C 2.612555 -0.966952 -2.510211
C 2.431238 -1.319672 -2.452870
C 2.228760 -1.682275 -2.272854
C 2.068888 -2.099810 -2.091040
C 1.981911 -2.428608 -1.868264
C 1.802729 -2.531076 -1.753052
C 1.548976 -2.561111 -1.754172
C 1.458211 -2.750950 -1.787770
C 1.326891 -2.862767 -1.804532
C 1.216955 -2.975323 -1.950762
C 1.086109 -2.907505 -2.102383
C 0.935609 -2.938343 -2.072041
C 0.843400 -3.053826 -1.882578
C 0.910324 -3.271662 -1.537822
C 0.949317 -3.305281 -1.207565
C 0.945251 -3.386675 -0.790099
C 0.925988 -3.500295 -0.219483
C 0.880349 -3.591660 0.525519
C 0.879337 -3.650848 0.933810
C 0.778775 -3.680164 1.107692
C 0.599303 -3.689196 1.198728
C 0.418502 -3.716343 1.358149
C 0.243265 -3.720085 1.270235
C 0.033196 -3.716816 0.978888
C -0.147046 -3.768451 0.564085
C -0.378075 -3.820714 0.202799
C -0.495552 -3.810096 0.036774
C -0.675583 -3.823415 -0.145658
C -0.931083 -3.793344 -0.521879
C -1.116410 -3.787057 -0.630406
C -1.293891 -3.795171 -0.465344
C -1.472256 -3.730112 -0.272863
C -1.730117 -3.566813 -0.188560
C -1.921022 -3.490064 -0.076439
C -2.040060 -3.361386 0.117308
C -2.033299 -3.303205 0.593767
C -2.043765 -3.206672 1.056853
C -2.027088 -3.072739 1.280130
C -1.986472 -2.877451 1.325846
C -2.060311 -2.771203 1.535218
C -2.214105 -2.682198 1.717131
C -2.335101 -2.586090 1.592370
C -2.506017 -2.462425 1.308522
C -2.699420 -2.357144 0.969241
C -2.859952 -2.244444 0.535293
C -2.824823 -2.144852 0.220810
C -2.733355 -2.082469 -0.123539
C -2.715327 -1.946231 -0.499691
C -2.678266 -1.756141 -0.712283
C -2.690976 -1.513342 -0.985915
C -2.755500 -1.352903 -1.211253
C -2.788078 -1.255387 -1.329064
C -2.995202 -1.178158 -1.525685
C -2.934407 -1.100703 -1.682553
C -3.099972 -0.939935 -1.808725
C -2.992138 -1.048842 -1.978312
C -2.735286 -1.137224 -2.067795
C -2.506081 -1.064220 -2.223775
C -2.430148 -0.712576 -2.293010
C -2.368894 -0.307957 -2.305139
C -2.348448 0.193685 -2.340099
C -2.089238 0.601085 -2.390264
C -2.152252 0.927286 -2.417407
C -2.233593 1.028224 -2.497182
C -2.136523 0.851754 -2.588521
C -1.896685 0.430505 -2.664990
C -1.666604 -0.122067 -2.720399
C -1.526061 -0.681759 -2.910512
C -1.408266 -1.115921 -3.127725
C -1.312278 -1.147066 -3.236814
C -1.212708 -1.062296 -3.370809
C -1.156605 -0.819278 -3.367426
C -1.206911 -0.456575 -3.390413
C -1.333970 0.044425 -3.409786
C -1.292077 0.415939 -3.319524
C -1.225329 0.775525 -3.227383
C -1.065127 1.074262 -3.239213
C -0.944900 1.301758 -3.232840
C -0.817239 1.567122 -3.269682
C -0.733167 1.833794 -3.263313
C -0.601348 2.062645 -3.253492
C -0.566419 2.315712 -3.237195
C -0.500984 2.318131 -3.219805
C -0.580458 2.137240 -3.251258
C -0.625076 1.887260 -3.291277
C -0.666286 1.578410 -3.315741
C -0.592307 1.396379 -3.450591
C -0.448741 1.008948 -3.599579
C -0.352155 0.527585 -3.718053
C -0.221723 0.335826 -3.862453
C -0.073961 0.219043 -3.882004
C 0.009092 0.264758 -3.876201
C 0.097355 0.397531 -3.967786
