102
chr22 3D structure from Hi-C (resolution 500000bp)
C -1.814878 2.137727 -3.355838
C -1.378139 2.238052 -3.399630
C -0.942621 2.306435 -3.398774
C -0.528069 2.298705 -3.389181
C 0.238415 2.258879 -3.447468
C 0.982267 2.075124 -3.461965
C 1.645481 1.744044 -3.393162
C 2.226171 1.276354 -3.240575
C 2.698169 0.654576 -3.015067
C 2.994632 -0.085942 -2.782123
C 3.096189 -0.807349 -2.622372
C 2.999291 -1.383140 -2.578693
C 2.681777 -1.828590 -2.604749
C 2.151329 -2.145999 -2.681638
C 1.433630 -2.361981 -2.786698
C 0.605559 -2.506867 -2.886509
C -0.167506 -2.624896 -2.923906
C -0.748734 -2.785953 -2.845448
C -1.041169 -3.032847 -2.610668
C -1.029770 -3.280416 -2.327403
C -0.794722 -3.466961 -2.133153
C -0.416086 -3.283378 -2.222729
C -0.019804 -2.933629 -2.441243
C 0.249046 -2.445665 -2.763551
C 0.271275 -1.885708 -3.114153
C -0.010506 -1.309502 -3.439288
C -0.550836 -0.782697 -3.664141
C -1.236890 -0.396032 -3.691074
C -1.964931 -0.459917 -3.356691
C -2.584237 -0.757345 -2.839859
C -3.006303 -1.049515 -2.150105
C -3.183488 -1.044538 -1.510701
C -3.104505 -0.983544 -0.904093
C -3.197161 -0.830623 -0.500190
C -3.227153 -0.520752 -0.269835
C -2.894710 -0.066337 0.004091
C -2.634017 0.506139 0.114413
C -2.413918 1.157387 0.067475
C -2.121203 1.494761 0.044619
C -2.097112 1.949426 -0.140211
C -1.535494 2.278280 -0.110825
C -0.977337 2.552877 -0.038081
C -0.776889 2.839498 -0.155114
C -0.562764 3.136692 -0.200859
C -0.407077 3.278700 -0.145910
C -0.481176 3.278561 -0.001689
C -0.529834 2.995599 0.314973
C -0.793547 2.718330 0.604074
C -1.128942 2.347579 0.912224
C -1.384799 1.880200 1.260822
C -1.591015 1.368366 1.557857
C -1.784765 0.766681 1.773694
C -1.959919 0.352689 1.895060
C -2.078963 0.088012 2.040413
C -2.210894 0.152141 2.078249
C -2.084393 0.407501 2.128837
C -1.808012 0.674088 2.131213
C -1.582895 0.944234 2.177182
C -1.309801 1.302480 2.222370
C -0.947004 1.664457 2.306814
C -0.486000 1.919186 2.323282
C -0.162837 1.758886 2.381770
C -0.053811 1.376665 2.503028
C -0.150005 0.952184 2.664228
C -0.173838 0.605993 2.770551
C -0.285290 0.166867 2.833813
C -0.375333 -0.301925 2.917541
C -0.405359 -0.479497 2.918821
C -0.205059 -0.525891 3.053689
C 0.068259 -0.334603 2.947836
C 0.446289 -0.136361 2.852569
C 0.793751 0.113304 2.682189
C 1.276376 0.425559 2.497416
C 1.790008 0.662811 2.180866
C 2.258742 0.754370 1.907542
C 2.505540 0.884495 1.524981
C 2.841813 0.713523 1.284106
C 3.031535 0.845444 0.978657
C 3.167629 0.954721 0.750825
C 3.179371 1.141749 0.615108
C 3.064138 1.371214 0.533479
C 2.964007 1.514532 0.386211
C 2.830231 1.507469 0.376764
C 2.559039 1.506078 0.498117
C 2.241143 1.172124 0.679751
C 2.021577 0.734191 0.946493
C 1.834195 0.254399 1.115796
C 1.738844 -0.252280 1.319598
C 1.526528 -0.845005 1.631757
C 1.438915 -1.262125 1.748295
C 1.218011 -1.472084 1.780306
C 0.961902 -1.741149 1.797318
C 0.624282 -2.049361 1.736024
C 0.361585 -2.305319 1.731234
C -0.014163 -2.566699 1.654364
C -0.276000 -2.720876 1.570005
C -0.484750 -2.717837 1.554823
C -0.331466 -2.830762 1.410225
C 0.091837 -2.812325 1.310780
C 0.258986 -2.764557 1.255696
C 0.402380 -2.743203 1.150690
C 0.697612 -2.587805 1.104607
