102
chr22 3D structure from Hi-C (resolution 500000bp)
C 2.898920 2.099617 -2.164387
C 2.649520 2.456791 -1.900636
C 2.346281 2.754800 -1.624574
C 1.985285 2.982522 -1.369423
C 1.332056 3.422554 -0.970839
C 0.639564 3.756475 -0.681801
C 0.061732 3.940858 -0.592481
C -0.331704 3.981805 -0.677727
C -0.515496 3.889226 -0.918837
C -0.492750 3.660378 -1.313932
C -0.317700 3.316206 -1.835179
C -0.077584 2.927790 -2.400375
C 0.083877 2.547725 -2.888061
C 0.054728 2.222032 -3.197098
C -0.169502 1.990401 -3.337483
C -0.574215 1.875388 -3.305215
C -1.155805 1.872284 -3.065793
C -1.814156 1.909157 -2.719370
C -2.400147 1.899643 -2.401329
C -2.786846 1.806407 -2.202710
C -2.858997 1.528222 -2.217966
C -2.763803 1.095113 -2.334388
C -2.491889 0.525340 -2.567187
C -1.996927 -0.074219 -2.947304
C -1.300510 -0.552941 -3.358429
C -0.504227 -0.802743 -3.677162
C 0.169947 -0.894962 -3.882563
C 0.060884 -1.019967 -3.793389
C -0.227105 -1.037306 -3.594623
C -0.707622 -0.930392 -3.238562
C -1.279605 -0.814415 -2.725574
C -1.717183 -0.879800 -2.175375
C -2.050644 -1.075619 -1.644417
C -2.395753 -1.497459 -1.323546
C -2.144216 -1.748943 -1.178633
C -1.608301 -1.874269 -0.875146
C -0.989162 -2.116968 -0.729932
C -0.330364 -2.393176 -0.769741
C 0.164806 -2.416223 -0.805368
C 0.476034 -2.564186 -1.021146
C 0.954122 -2.351161 -0.864678
C 1.422872 -2.190805 -0.734679
C 1.786415 -2.150138 -0.922346
C 2.160969 -2.008251 -1.042851
C 2.381111 -1.953108 -0.972866
C 2.365593 -2.061815 -0.914902
C 2.185484 -1.965605 -0.572835
C 1.752077 -2.092184 -0.425681
C 1.263592 -2.188115 -0.146519
C 0.664790 -2.253476 0.219908
C 0.097524 -2.310636 0.558436
C -0.600404 -2.199540 0.751264
C -1.126315 -2.090948 0.903269
C -1.510703 -2.119403 0.940084
C -1.568978 -2.212676 1.061363
C -1.418481 -2.263917 1.111174
C -1.124314 -2.276902 1.190400
C -0.839802 -2.346408 1.274700
C -0.355428 -2.396169 1.373607
C 0.163611 -2.416970 1.466147
C 0.569590 -2.318885 1.628961
C 0.612223 -2.072311 1.793340
C 0.454331 -1.839742 1.958172
C 0.122979 -1.670124 2.119848
C -0.310192 -1.446048 2.167252
C -0.779109 -1.249822 2.180838
C -1.281025 -1.098027 2.272070
C -1.374625 -1.000912 2.290503
C -1.140889 -1.007856 2.402188
C -0.760795 -0.920630 2.349574
C -0.277080 -0.803562 2.315738
C 0.319311 -0.755698 2.290796
C 1.007291 -0.694020 2.227520
C 1.746759 -0.580544 1.993903
C 2.251560 -0.322954 1.733552
C 2.498899 -0.029816 1.489032
C 2.633083 0.236143 1.500001
C 2.779570 0.437579 1.350885
C 2.908080 0.675438 1.229686
C 2.884537 0.962301 1.191407
C 2.729471 1.171283 1.267525
C 2.524448 1.356563 1.434012
C 2.354736 1.344840 1.442197
C 2.111019 1.246247 1.464195
C 1.775203 1.198429 1.629459
C 1.355774 1.138192 1.820209
C 0.975839 0.972179 2.036439
C 0.678536 0.949109 2.223878
C 0.342525 0.834639 2.395265
C 0.035235 0.883991 2.538034
C -0.147668 0.850692 2.488539
C -0.523040 0.860749 2.398327
C -0.900010 0.910798 2.338181
C -1.193585 0.903712 2.238133
C -1.620814 0.851337 2.089869
C -1.933530 0.797181 1.912131
C -1.958880 0.736772 1.742370
C -2.009045 1.047435 1.737075
C -1.760634 1.301920 1.753940
C -1.640082 1.336028 1.727740
C -1.506258 1.459300 1.663889
C -1.148624 1.605895 1.682423
