129
chr20 3D structure from Hi-C (resolution 500000bp)
C -2.080224 1.173629 -2.072485
C -2.104213 1.119251 -2.009568
C -2.115996 1.171140 -1.984732
C -2.150581 1.193239 -1.935866
C -2.115380 1.181408 -2.016423
C -2.095592 1.019782 -2.022159
C -2.065392 0.881680 -2.057555
C -1.941018 0.661239 -2.060603
C -1.812199 0.474703 -2.192836
C -1.588470 0.023752 -2.303160
C -1.253349 -0.513172 -2.426567
C -0.894667 -1.157547 -2.473496
C -0.827878 -1.591880 -2.503923
C -0.746423 -1.885382 -2.532206
C -0.618626 -2.244304 -2.500638
C -0.524484 -2.610345 -2.403584
C -0.570463 -2.771766 -2.293847
C -0.773703 -2.732297 -2.230365
C -0.967523 -2.592484 -2.182615
C -1.060705 -2.488933 -2.097471
C -0.979697 -2.738307 -1.853133
C -0.925715 -2.916742 -1.622789
C -0.929040 -3.038879 -1.372228
C -0.922900 -2.979485 -1.249689
C -0.978541 -2.944084 -1.116342
C -1.120369 -3.015315 -0.975101
C -1.294462 -2.995223 -0.809824
C -1.591855 -2.806531 -0.682152
C -1.885156 -2.582426 -0.578988
C -2.104772 -2.344323 -0.548168
C -2.158963 -2.346689 -0.463163
C -2.090139 -2.486737 -0.260789
C -2.117660 -2.213036 -0.108940
C -2.047684 -2.035761 0.012880
C -2.035923 -1.802633 -0.026294
C -1.962474 -1.612653 0.067910
C -1.923589 -1.410351 0.086353
C -2.035939 -1.172939 0.096351
C -2.035743 -0.899724 0.105716
C -1.854877 -0.982771 0.132295
C -1.604239 -1.266807 0.194947
C -1.200222 -1.579061 0.275043
C -0.891565 -1.755757 0.153319
C -0.625935 -1.862980 0.097285
C -0.289928 -2.021251 0.160473
C -0.058376 -2.177378 0.196656
C 0.113492 -2.191632 0.288488
C 0.131258 -1.914907 0.344217
C 0.001501 -1.749838 0.575055
C -0.097764 -2.041831 1.013780
C -0.271536 -1.796786 2.112514
C -0.680338 -1.390615 3.106543
C -1.363019 -1.024368 3.888301
C -2.025884 -0.875438 4.592452
C -1.866099 -1.106834 5.186339
C -1.554672 -1.146187 5.472524
C -1.220801 -0.918649 5.585910
C -0.615041 -1.340612 5.080156
C 0.077064 -1.922056 4.503694
C 0.931840 -2.218636 3.987210
C 1.525561 -2.054673 3.212024
C 1.216222 -1.422918 2.631227
C 0.791685 -0.827463 2.169518
C 0.371676 -0.135217 1.782589
C -0.304843 0.676895 1.252712
C -0.934790 1.550054 0.917929
C -1.417222 2.266876 0.644099
C -1.564212 2.712863 0.690529
C -1.535740 3.030553 0.623095
C -1.503400 3.231761 0.537158
C -1.568659 3.457544 0.369110
C -1.441017 3.534867 0.428608
C -1.244246 3.520638 0.442974
C -1.045310 3.396377 0.521787
C -0.883786 3.109835 0.406591
C -0.712851 2.642184 0.503408
C -0.520461 2.204700 0.752262
C -0.246380 1.742948 0.962668
C -0.043042 1.343616 1.035086
C 0.077218 1.132947 0.942589
C 0.244264 0.860341 0.857560
C 0.505279 0.619780 1.031150
C 0.722212 0.525589 1.084663
C 0.844699 0.528057 0.927594
C 0.870883 0.798074 0.841620
C 0.906943 0.999154 0.769893
C 0.962544 1.190811 0.728714
C 0.992774 1.445346 0.560994
C 0.939927 1.771032 0.319815
C 0.867623 2.123549 -0.043452
C 0.802376 2.365523 -0.348730
C 0.795305 2.427817 -0.714731
C 0.834554 2.579803 -1.067544
C 0.938689 2.619569 -1.236092
C 0.921087 2.725545 -1.383351
C 0.858287 2.861075 -1.518586
C 0.752050 2.980344 -1.602743
C 0.857626 3.013286 -1.644952
C 0.931741 2.891556 -1.633222
C 1.007290 2.513009 -1.545968
C 1.102322 2.085461 -1.539100
C 1.306856 1.608839 -1.492385
C 1.639281 1.050897 -1.407399
C 1.956425 0.514679 -1.438359
C 2.073388 0.277970 -1.513800
C 2.269042 -0.094015 -1.451514
C 2.443000 -0.387394 -1.354578
C 2.615799 -0.615219 -1.257217
C 2.771163 -0.848719 -1.096633
C 2.722655 -0.922452 -1.031231
C 2.677992 -0.905433 -0.831015
C 2.689602 -0.909923 -0.614689
C 2.706460 -0.643423 -0.475333
C 2.620423 -0.265025 -0.409913
C 2.538840 0.113791 -0.291533
C 2.382305 0.419281 -0.282920
C 2.346569 0.563076 -0.172792
C 2.449491 0.431225 -0.029022
C 2.578267 0.129890 0.242483
C 2.634088 -0.132331 0.473980
C 2.792825 -0.400988 0.708904
C 2.775244 -0.292144 0.780691
C 2.772757 0.083665 0.852235
C 2.714918 0.612951 0.944430
C 2.571103 1.398146 0.934772
C 2.414088 2.319406 1.155518
C 2.295606 2.832114 1.133078
C 2.090861 3.550638 1.062200
C 2.016050 3.974788 1.146325
