129
chr20 3D structure from Hi-C (resolution 500000bp)
C 0.396462 -2.110601 1.888268
C 0.352932 -2.135024 1.880536
C 0.325258 -2.126573 1.977374
C 0.263852 -2.120437 2.042023
C 0.067989 -2.078256 2.152397
C -0.087857 -2.092834 2.050888
C -0.174753 -2.162824 1.959707
C -0.316999 -2.203576 1.764392
C -0.405624 -2.249284 1.608319
C -0.525143 -2.327790 1.133603
C -0.604299 -2.366940 0.633505
C -0.703136 -2.465873 -0.025439
C -0.804129 -2.535493 -0.493901
C -0.863416 -2.613461 -0.740952
C -0.951175 -2.652185 -1.060271
C -1.091590 -2.605211 -1.396684
C -1.244867 -2.545737 -1.522223
C -1.375177 -2.579676 -1.518660
C -1.496831 -2.539327 -1.338999
C -1.609921 -2.572924 -1.219286
C -1.704172 -2.386939 -1.520574
C -1.842526 -2.260087 -1.720792
C -1.990375 -2.166825 -1.864803
C -2.079611 -2.075988 -1.794226
C -2.181760 -1.988865 -1.668197
C -2.349447 -1.840247 -1.694884
C -2.478094 -1.745285 -1.487876
C -2.660428 -1.728647 -1.124137
C -2.778340 -1.652913 -0.724122
C -2.816182 -1.575653 -0.410804
C -2.885664 -1.458335 -0.308081
C -2.964585 -1.223834 -0.413040
C -2.896587 -1.140446 -0.058799
C -2.789609 -0.956515 0.027918
C -2.626552 -0.837361 0.173356
C -2.572936 -0.673165 0.261083
C -2.527276 -0.504139 0.381237
C -2.441050 -0.435723 0.550944
C -2.316995 -0.413386 0.731669
C -2.283415 -0.254605 0.514453
C -2.355093 -0.084790 0.184627
C -2.384182 0.086841 -0.237748
C -2.273151 0.134130 -0.517137
C -2.170172 0.149765 -0.665058
C -2.077481 0.258839 -0.958693
C -2.025577 0.379376 -1.229161
C -1.865968 0.426288 -1.379411
C -1.623931 0.357528 -1.298868
C -1.458391 0.243451 -1.394339
C -1.170288 -0.089515 -1.838529
C -0.368517 -0.990760 -2.045537
C 0.563955 -1.826540 -2.107867
C 1.621701 -2.471299 -2.296972
C 2.616976 -2.874742 -2.753065
C 2.901512 -2.622231 -3.388622
C 2.848656 -2.149912 -3.527283
C 2.700903 -1.456737 -3.503132
C 1.971504 -0.277164 -3.833600
C 1.038649 0.745983 -4.195092
C 0.033051 1.599280 -4.112619
C -0.820734 1.998166 -3.335872
C -1.044879 1.851228 -2.247103
C -0.896983 1.555299 -1.378269
C -0.785564 1.225277 -0.389800
C -0.685353 0.972951 0.691547
C -0.564805 0.795457 1.851466
C -0.295933 0.532957 2.734021
C -0.177006 0.583130 3.137852
C -0.017506 0.652959 3.416263
C 0.060561 0.710592 3.536353
C 0.100556 0.799734 3.756094
C 0.253803 0.893045 3.808687
C 0.336131 1.074258 3.700794
C 0.197260 1.275046 3.488288
C 0.020247 1.367806 3.191431
C -0.192262 1.499762 2.699877
C -0.364183 1.641891 2.265896
C -0.553214 1.808240 1.731012
C -0.727862 1.908716 1.284851
C -0.765186 1.872600 1.052778
C -0.766604 1.913241 0.754161
C -0.757315 2.085019 0.464810
C -0.684157 2.142647 0.292470
C -0.554785 2.113154 0.261679
C -0.356209 2.122323 0.423282
C -0.207029 2.183026 0.558667
C -0.016500 2.208800 0.643896
C 0.157706 2.210194 0.826200
C 0.424614 2.113638 1.134715
C 0.687725 2.042035 1.483891
C 0.963246 1.973577 1.682884
C 1.250912 1.851597 1.759139
C 1.512599 1.840987 1.846777
C 1.668284 1.907284 1.795343
C 1.871001 1.797544 1.931242
C 1.989126 1.560851 2.035645
C 2.100487 1.361027 2.166094
C 2.142136 1.174658 2.237097
C 2.082093 0.999399 2.176925
C 1.968441 0.745679 1.925392
C 1.871381 0.530591 1.600494
C 1.720047 0.459958 1.074952
C 1.661519 0.557172 0.411707
C 1.614021 0.508462 -0.167609
C 1.677507 0.364030 -0.490418
C 1.644352 0.368819 -0.944589
C 1.662815 0.387325 -1.329231
C 1.655873 0.393382 -1.660834
C 1.651179 0.446264 -1.927988
C 1.565651 0.395396 -1.918244
C 1.432350 0.512213 -1.945053
C 1.300116 0.783004 -1.997105
C 1.366324 0.911751 -1.808318
C 1.429166 0.948740 -1.476623
C 1.527977 1.035755 -1.058493
C 1.541242 1.148494 -0.728583
C 1.509532 1.267284 -0.601447
C 1.465240 1.420665 -0.724399
C 1.356481 1.572901 -1.006395
C 1.224495 1.732000 -1.301386
C 1.215880 1.943913 -1.602422
C 1.317650 1.827359 -1.536648
C 1.574376 1.547440 -1.229452
C 1.980328 1.358521 -0.814899
C 2.444911 1.043289 -0.146871
C 3.150650 0.573092 0.504401
C 3.504919 0.281125 0.999998
C 3.813149 -0.112133 1.646461
C 4.097827 -0.275485 1.956406
