118
chr19 3D structure from Hi-C (resolution 500000bp)
C 1.612842 -2.651993 -0.536675
C 1.781222 -2.670291 -0.428552
C 1.872935 -2.608896 -0.369374
C 1.956227 -2.563182 -0.273228
C 1.994205 -2.659935 0.092959
C 1.969768 -2.643157 0.334583
C 1.951721 -2.538690 0.497476
C 1.914125 -2.389763 0.647437
C 1.805462 -2.261625 0.740353
C 1.755842 -2.208018 0.912152
C 1.736600 -2.032932 0.925527
C 1.911299 -1.782438 0.893819
C 1.969459 -1.592175 0.793888
C 1.896141 -1.303554 0.684426
C 1.813282 -0.835835 0.493931
C 1.699894 -0.362538 0.292136
C 1.542255 -0.009742 0.113021
C 1.460202 0.067919 0.096256
C 1.362455 0.018193 0.188370
C 1.404192 0.087569 0.297873
C 1.515190 0.221061 0.263367
C 1.729459 0.129228 0.250514
C 1.873424 -0.088366 0.444151
C 1.947968 -0.143123 0.683887
C 1.937374 -0.021383 0.837506
C 1.938403 0.135294 0.880209
C 1.809692 0.298358 1.008155
C 1.700453 0.264181 1.326161
C 1.531096 0.313793 1.691312
C 1.493698 0.301121 1.942201
C 1.523309 0.235701 2.054855
C 1.509138 0.082108 2.196370
C 1.456772 0.015849 2.250955
C 1.446062 -0.189814 2.256701
C 1.396454 -0.316438 2.198222
C 1.370828 -0.378898 2.029885
C 1.243545 -0.115341 1.698874
C 1.128593 0.360993 1.310496
C 1.137136 1.036370 0.852260
C 1.042822 1.495330 0.514661
C 0.974301 2.107570 0.025113
C 0.937626 2.700333 -0.432138
C 0.911254 3.054756 -0.766408
C 0.860722 3.195616 -0.936612
C 0.795161 3.174455 -1.028866
C 0.654906 3.028233 -1.182792
C 1.037571 2.878158 -1.746195
C 1.478951 2.430001 -2.211914
C 1.799610 1.753838 -2.757642
C 1.911441 1.070828 -3.366143
C 1.920005 0.504908 -4.028208
C 1.662465 0.487290 -4.366744
C 1.353377 0.470509 -4.274444
C 0.612374 0.633954 -3.794637
C -0.161118 1.025801 -3.255860
C -0.749893 1.578502 -2.567423
C -1.107984 2.099073 -1.667528
C -1.371352 2.631882 -0.749698
C -1.464598 2.593702 -0.272141
C -1.562208 2.560412 -0.174715
C -1.673936 2.520667 -0.109328
C -1.699130 2.403337 0.054822
C -1.701213 2.248712 0.251478
C -1.795681 2.177396 0.371935
C -1.864934 2.069360 0.461454
C -1.872619 1.899526 0.683422
C -1.756803 1.716355 0.825847
C -1.531293 1.432161 1.074025
C -1.355273 1.080511 1.190099
C -1.258196 0.971082 1.048004
C -1.150623 0.996769 0.665010
C -1.034860 0.975181 0.397331
C -0.943879 0.932591 0.151325
C -0.940742 0.767535 0.325802
C -0.980446 0.610077 0.433054
C -1.017360 0.591342 0.551757
C -1.056967 0.398720 0.868736
C -1.038653 0.050209 1.272178
C -1.071950 -0.310043 1.616904
C -1.058849 -0.584568 1.919946
C -1.116713 -0.785941 1.996816
C -1.195029 -0.833166 1.873452
C -1.432072 -0.743166 1.723585
C -1.667508 -0.646555 1.489479
C -1.771075 -0.544854 1.307710
C -1.851720 -0.372318 1.007624
C -1.868515 -0.320260 0.839934
C -1.748936 -0.390681 0.709517
C -1.613502 -0.541720 0.725608
C -1.500380 -0.789737 0.780409
C -1.254419 -1.175263 0.891403
C -1.184739 -1.505699 1.001486
C -1.098906 -1.865170 1.177035
C -1.041094 -2.100714 1.170439
C -0.997399 -2.203965 1.063396
C -1.033239 -2.257587 0.913609
C -0.880275 -2.325025 0.740642
C -0.888836 -2.190641 0.519594
C -0.958949 -2.036240 0.346194
C -0.947831 -1.793476 0.225670
C -0.972914 -1.492537 0.014393
C -1.036409 -1.136908 -0.280752
C -1.092927 -0.799281 -0.532075
C -1.218118 -0.441365 -0.823878
C -1.303948 -0.129853 -1.027562
C -1.527914 -0.036283 -1.637012
C -1.695282 -0.346227 -2.323875
C -1.647406 -0.571956 -2.365107
C -1.652145 -0.574515 -2.282273
C -1.711783 -0.512222 -2.230602
C -1.736851 -0.391210 -2.234316
C -1.618569 -0.433950 -2.220661
C -1.245315 -0.280162 -1.871809
C -0.963864 0.142366 -1.366575
C -1.091092 -0.017143 -1.504407
C -1.089205 -0.023254 -1.587941
C -0.990632 -0.112746 -1.674345
C -0.837954 -0.467060 -1.606796
