118
chr19 3D structure from Hi-C (resolution 500000bp)
C 0.832657 1.514749 -2.547440
C 0.669472 1.624713 -2.607148
C 0.528404 1.649463 -2.606169
C 0.490556 1.775369 -2.525988
C 0.295163 2.118342 -2.383068
C 0.136689 2.300798 -2.312722
C -0.020059 2.355021 -2.142578
C -0.095179 2.398418 -1.935330
C -0.192980 2.416430 -1.706420
C -0.325839 2.457274 -1.602584
C -0.525672 2.342943 -1.618442
C -0.700510 2.162135 -1.687766
C -0.783341 1.998782 -1.664563
C -0.798446 1.716632 -1.597687
C -0.871765 1.226431 -1.514259
C -0.904795 0.703905 -1.421533
C -0.857147 0.330314 -1.244846
C -0.810676 0.173456 -1.138487
C -0.857005 0.173197 -1.046467
C -0.986135 0.106056 -1.035142
C -1.119571 -0.028163 -1.102251
C -1.269522 0.016456 -1.241794
C -1.401771 0.324697 -1.359146
C -1.554707 0.506271 -1.324868
C -1.749335 0.539091 -1.178482
C -1.838780 0.574206 -1.057367
C -1.897142 0.530835 -0.821278
C -2.012963 0.753345 -0.551270
C -2.112252 1.023687 -0.246420
C -2.157556 1.187247 -0.033912
C -2.209128 1.289817 0.003697
C -2.175916 1.471290 0.007034
C -2.133238 1.555013 0.071061
C -2.066301 1.726360 -0.016973
C -1.961450 1.775425 -0.079589
C -1.811589 1.676119 -0.184091
C -1.689788 1.245557 -0.212402
C -1.643016 0.703011 -0.160256
C -1.704258 -0.105066 -0.139347
C -1.680665 -0.740646 -0.129933
C -1.698665 -1.475629 -0.094430
C -1.737471 -2.208160 -0.048893
C -1.690086 -2.731665 0.010353
C -1.679490 -2.952931 0.060846
C -1.539205 -3.033337 0.050693
C -1.297851 -2.989381 0.029673
C -1.220860 -3.165423 -0.601595
C -0.990965 -3.129348 -1.332183
C -0.503161 -2.963661 -2.132422
C 0.080982 -2.835078 -2.831657
C 0.757634 -2.884672 -3.396101
C 0.976602 -3.143611 -3.276184
C 1.060373 -3.134028 -2.999748
C 1.207574 -3.028174 -2.082438
C 1.254599 -3.003574 -1.062142
C 0.944721 -2.971346 -0.019804
C 0.396462 -2.753293 0.911024
C -0.115817 -2.515652 1.805265
C -0.316007 -2.107454 1.990372
C -0.320858 -2.002444 2.103147
C -0.313991 -1.945202 2.185929
C -0.398873 -1.774266 2.260523
C -0.429461 -1.557404 2.306514
C -0.433018 -1.456841 2.355406
C -0.462888 -1.331757 2.373392
C -0.413565 -1.079600 2.437786
C -0.422478 -0.846593 2.336152
C -0.544069 -0.446439 2.188338
C -0.558000 -0.121170 2.002017
C -0.472209 -0.114281 1.782405
C -0.349701 -0.339068 1.535801
C -0.220437 -0.533652 1.338464
C -0.152057 -0.635716 1.116421
C -0.137346 -0.417386 1.113826
C -0.063137 -0.191976 1.125461
C -0.044501 -0.066450 1.228632
C -0.037383 0.285297 1.347691
C -0.038026 0.793613 1.460763
C -0.094463 1.322642 1.541436
C -0.050795 1.711505 1.633139
C 0.027012 1.958508 1.680143
C 0.130434 1.867114 1.660530
C 0.293030 1.701806 1.764731
C 0.465359 1.426534 1.868518
C 0.558158 1.196585 1.814991
C 0.623869 0.887351 1.674996
C 0.686606 0.696769 1.589193
C 0.701678 0.639768 1.402469
C 0.758603 0.761284 1.280267
C 0.839543 0.955136 1.096388
C 0.833621 1.289849 0.845600
C 0.953599 1.610780 0.795429
C 1.092921 1.962821 0.805116
C 1.208093 2.121299 0.672915
C 1.333684 2.112364 0.573005
C 1.457409 2.087375 0.503801
C 1.466991 2.055300 0.289374
C 1.518146 1.865722 0.230561
C 1.509436 1.648878 0.276850
C 1.458652 1.418804 0.285092
C 1.445783 1.092122 0.361679
C 1.458095 0.659643 0.376501
C 1.447492 0.203130 0.354680
C 1.503971 -0.279975 0.458957
C 1.538060 -0.700224 0.556341
C 1.993537 -1.173735 0.387021
C 2.610096 -1.371586 -0.016769
C 2.679692 -1.228780 -0.178177
C 2.642390 -1.239250 -0.112274
C 2.625230 -1.249242 0.053557
C 2.567143 -1.332676 0.072134
C 2.485461 -1.251815 -0.024602
C 1.967962 -1.100401 -0.046875
C 1.364181 -1.091758 0.154442
C 1.611775 -1.093710 0.164879
C 1.669037 -1.094663 0.105954
C 1.720028 -1.081637 -0.056930
C 1.809136 -0.779778 -0.215440
