277
chr9 3D structure from Hi-C (resolution 500000bp)
C -2.686529 1.780682 -1.426011
C -2.715359 1.802213 -1.437473
C -2.899324 1.808893 -1.492569
C -3.000136 1.860080 -1.547537
C -3.216423 1.832006 -1.525865
C -3.303609 1.964805 -1.541807
C -3.204890 2.179796 -1.450903
C -3.295243 2.320847 -1.453804
C -3.233113 2.523115 -1.451963
C -3.072181 2.644502 -1.270760
C -2.930502 2.645857 -1.104434
C -2.909999 2.544158 -1.017378
C -3.128829 2.257494 -1.021426
C -3.360054 1.835064 -1.011845
C -3.498316 1.382225 -0.960582
C -3.783103 0.912872 -0.879035
C -4.033682 0.463268 -0.889921
C -4.218498 0.094780 -0.862220
C -4.316254 -0.268679 -0.673873
C -4.225971 -0.518145 -0.416070
C -4.167090 -0.852421 -0.153091
C -4.176774 -1.075011 0.050399
C -4.125591 -1.178027 0.173588
C -4.142864 -1.325675 0.232034
C -4.212440 -1.527429 0.276893
C -4.185517 -1.491566 0.218133
C -4.160911 -1.324651 0.170616
C -4.131962 -0.894966 0.060397
C -4.163989 -0.430356 -0.005254
C -4.154348 -0.191118 -0.019020
C -4.142406 0.081218 0.020804
C -4.126435 0.268060 0.189477
C -4.105335 0.380688 0.260255
C -4.151302 0.579464 0.356061
C -4.162776 0.639472 0.426640
C -4.001814 0.704170 0.451830
C -3.989738 0.786062 0.658402
C -3.843331 0.976456 0.750250
C -3.592328 1.344206 0.638762
C -3.571868 1.605202 0.640347
C -3.428724 1.533960 0.618200
C -3.401511 1.426256 0.712219
C -3.514246 1.091399 0.943591
C -3.447394 0.782100 0.990182
C -3.438861 0.370435 1.121287
C -3.581438 -0.128646 1.409923
C -3.549758 -0.553685 1.624948
C -3.619280 -0.861222 1.850622
C -3.545753 -1.137976 1.869677
C -3.512144 -1.212036 1.944797
C -3.456889 -0.990042 1.875267
C -3.396792 -0.700813 1.820859
C -3.322243 -0.278354 1.736472
C -3.279784 -0.016113 1.717380
C -3.185914 0.300756 1.770379
C -3.162199 0.561661 1.837267
C -3.003731 0.740134 1.802588
C -3.008520 0.757180 2.089090
C -3.012881 0.806463 2.407369
C -3.029802 0.775340 2.542701
C -3.027243 0.947460 2.593077
C -2.993562 1.199106 2.466893
C -2.868419 1.544964 2.330058
C -2.766393 2.000610 2.083940
C -2.535363 2.365940 1.684975
C -2.303366 2.768106 1.224059
C -1.996629 3.189974 0.944776
C -1.644270 3.560294 0.754909
C -1.370502 3.803087 0.540015
C -1.167813 4.094919 0.370361
C -1.050778 4.116451 0.277517
C -1.037064 4.172357 0.166474
C -1.060019 4.056081 0.070504
C -1.143145 3.834250 -0.116609
C -1.343258 3.691684 0.031259
C -1.499896 2.936771 0.648006
C -1.633635 1.989174 1.339410
C -1.662223 0.994848 2.004819
C -1.767586 -0.164443 2.407816
C -1.804453 -1.213108 2.855316
C -1.858338 -2.130569 3.441385
C -1.911126 -3.033824 3.622168
C -1.939973 -3.534914 3.208538
C -1.890827 -3.944049 2.796084
C -1.260795 -3.981930 2.621671
C -0.426250 -3.803136 2.681134
C 0.445710 -3.613230 2.609474
C 1.319189 -3.538049 2.405723
C 2.185241 -3.667236 2.230382
C 2.874517 -3.539019 2.400977
C 3.370545 -3.303259 2.679590
C 3.206973 -3.239001 2.827461
C 2.886477 -3.126938 3.092823
C 2.443160 -2.868213 3.501515
C 1.972922 -2.431822 3.973094
C 1.534158 -1.823670 4.438213
C 1.169315 -1.119798 4.803036
C 0.893264 -0.389118 5.017294
C 0.684589 0.367026 5.112356
C 0.589532 1.090651 5.093293
C 0.610853 1.629166 5.009922
C 0.737716 1.947200 4.927917
C 0.966377 2.086477 4.850578
C 1.275550 2.058185 4.775584
C 1.645266 1.860019 4.700133
C 2.057865 1.490326 4.624125
C 2.483599 0.979236 4.525001
C 2.901578 0.401735 4.343749
C 3.237102 -0.122540 4.137753
C 3.426180 -0.571220 4.003073
C 3.479412 -0.903288 3.943381
C 3.375232 -1.118007 3.966083
C 2.911041 -1.237869 4.105538
C 2.304758 -1.322937 4.309388
C 1.652220 -1.415058 4.568153
C 1.069287 -1.556417 4.780357
C 0.632531 -1.763199 4.852524
C 0.298151 -2.076001 4.795006
C 0.016002 -2.505034 4.602477
C 0.002127 -3.024968 4.283495
C 0.053074 -3.537554 3.879191
C 0.243909 -3.953123 3.516714
C 0.462643 -4.245730 3.130011
C 0.706549 -4.489978 2.773054
C 0.789198 -4.706134 2.400665
C 0.777586 -4.863984 2.076344
C 0.602617 -4.162191 2.387786
C 0.424695 -3.295205 2.766208
C 0.119593 -2.268750 3.095128
C -0.215422 -1.160209 3.442763
C -0.545431 0.069927 3.745296
C -0.690813 1.418943 4.070722
C -0.707095 2.814599 4.376293
C -0.968077 2.464915 3.080189
C -1.033503 2.328966 1.825287
C -1.066775 1.958292 0.715842
C -1.214595 1.375453 -0.394564
C -1.405941 0.686368 -1.469900
C -1.593125 -0.121570 -2.339640
C -1.838322 -1.201201 -3.149188
C -1.712540 -1.221398 -2.994512
C -1.790101 -1.516732 -2.915758
C -1.826095 -1.787314 -2.811386
C -1.846375 -2.137460 -2.582019
C -1.872940 -2.554084 -2.276582
C -1.914667 -2.825529 -2.134859
C -1.810926 -2.812018 -2.015377
C -1.624791 -2.785370 -1.933791
C -1.468552 -2.942688 -1.751612
C -1.353586 -2.874302 -1.817463
C -1.172689 -2.624807 -2.012737
C -1.136958 -2.434706 -2.291484
C -0.934203 -2.380457 -2.515518
C -0.893559 -2.290364 -2.671613
C -0.832969 -2.450602 -2.714804
C -0.666810 -2.549410 -2.797618
C -0.584075 -2.737521 -2.717562
C -0.549257 -3.108062 -2.496511
C -0.368017 -3.267266 -2.253422
C -0.412691 -3.440015 -1.975015
C -0.346018 -3.684330 -1.784790
C -0.255850 -3.881321 -1.590639
C -0.334555 -3.910794 -1.491282
C -0.371215 -3.827591 -1.594171
C -0.460546 -3.314630 -1.994307
C -0.479223 -2.929763 -2.340405
C -0.422895 -2.396896 -2.673626
C -0.368474 -1.953906 -3.035754
C -0.454168 -1.254775 -3.471899
C -0.345842 -0.676103 -3.694515
C -0.254844 -0.345924 -3.780696
C -0.146486 -0.194333 -3.664195
C -0.064674 -0.010581 -3.608566
C 0.009419 0.020865 -3.695773
C 0.108230 0.108025 -3.681119
C 0.125675 0.281007 -3.688266
C 0.267269 0.447839 -3.692258
C 0.356064 0.666288 -3.785135
C 0.449400 0.867717 -3.742831
C 0.496054 1.117270 -3.762127
C 0.575031 1.389757 -3.630299
C 0.588230 1.823087 -3.528924
C 0.811270 1.971768 -3.251016
C 0.865340 2.199488 -3.184854
C 0.922391 2.387583 -2.993790
C 0.960999 2.733057 -2.892722
C 1.047595 2.873005 -2.661321
C 1.010003 3.141133 -2.616427
C 0.915253 3.162843 -2.649823
C 0.925012 3.147493 -2.781112
C 0.701534 3.139886 -2.908372
C 0.504713 3.185040 -3.082147
C 0.581988 2.826206 -3.102534
C 0.605741 2.679440 -3.121314
C 0.717789 2.317878 -3.108039
C 0.973695 2.078378 -3.211077
C 1.040677 1.790839 -3.372799
C 1.232398 1.304497 -3.443776
C 1.382436 0.604430 -3.355900
C 1.374324 -0.069091 -3.545462
C 1.322060 -0.676380 -3.535594
C 1.264084 -1.281616 -3.449470
C 1.175681 -1.880756 -3.094811
C 1.140540 -2.501543 -2.671812
C 1.156592 -2.880929 -2.340317
C 1.287515 -3.124343 -2.117254
C 1.320093 -2.997042 -1.931049
C 1.414838 -2.857329 -1.949134
C 1.606917 -2.709295 -2.093147
C 1.768354 -2.744877 -2.223203
C 1.851968 -2.533102 -2.393297
C 1.854128 -2.247935 -2.481701
C 1.830679 -1.966937 -2.610208
C 1.907360 -1.920874 -2.566829
C 2.062674 -1.896813 -2.621231
C 2.061205 -1.667452 -2.603240
C 2.192303 -1.374912 -2.625851
C 2.300269 -1.080046 -2.645518
C 2.475874 -0.951870 -2.656930
C 2.756277 -0.793699 -2.622612
C 2.867075 -0.424433 -2.652487
C 2.925219 -0.080589 -2.615127
C 2.988681 0.064147 -2.528557
C 2.918306 0.291155 -2.442999
C 2.900538 0.370967 -2.326955
C 3.022073 0.356505 -2.206366
C 3.006094 0.251903 -2.116964
C 2.990477 0.012064 -1.970252
C 3.024871 -0.455881 -1.812125
C 3.099796 -0.816796 -1.651155
C 3.129948 -1.096922 -1.590494
C 3.118995 -1.403449 -1.508706
C 2.974925 -1.657637 -1.420427
C 2.895944 -1.806284 -1.288041
C 2.887647 -2.047607 -1.169227
C 2.834824 -2.137347 -1.083305
C 2.840501 -2.116574 -0.990703
C 2.873978 -2.040752 -0.894599
C 2.971395 -1.619516 -0.925176
C 2.949293 -1.105901 -0.938371
C 2.998396 -0.616655 -0.951887
C 3.100251 -0.090630 -1.018405
C 3.291769 0.338347 -1.031867
C 3.381414 0.903084 -1.151438
C 3.401839 1.477691 -1.257659
C 3.296844 1.737759 -1.227481
C 3.283179 2.103928 -1.128462
C 3.154218 2.511463 -1.108310
C 2.987067 2.993362 -0.997561
C 2.748533 3.441799 -0.964737
C 2.540645 3.660112 -0.783391
C 2.396021 3.839855 -0.446736
C 2.394296 3.997836 -0.142768
C 2.424491 3.981284 0.176528
C 2.438931 3.930423 0.650465
C 2.543432 3.783469 1.036499
C 2.569937 3.779990 1.304984
C 2.665920 3.719443 1.546900
C 2.812756 3.558777 1.596841
C 2.929145 3.432196 1.589960
C 3.102420 3.262197 1.458725
C 3.267345 3.117709 1.201606
C 3.379624 2.970157 1.041302
C 3.557335 2.773527 1.084839
C 3.662472 2.628395 0.986793
C 3.762160 2.481528 0.968126
C 3.909277 2.201804 0.943839
C 3.972821 2.026312 0.966618
C 4.055595 1.907529 1.048947
C 4.082263 1.881264 1.173797
C 4.075106 1.830503 1.260968
C 4.064209 1.755345 1.525588
C 4.066212 1.607298 1.602208
C 4.108884 1.472334 1.739157
C 4.105961 1.448640 1.877648
C 4.086515 1.357957 2.001381
C 4.176279 1.130913 1.986054
