277
chr9 3D structure from Hi-C (resolution 500000bp)
C -1.299359 2.450977 -1.295260
C -1.207633 2.427733 -1.369400
C -1.132173 2.604674 -1.375368
C -1.132984 2.778349 -1.357456
C -1.003753 2.947000 -1.408460
C -1.033515 3.118107 -1.423784
C -1.085073 3.132286 -1.330932
C -1.161464 3.271336 -1.357516
C -1.313045 3.431017 -1.229460
C -1.484004 3.311850 -1.250513
C -1.519762 3.087539 -1.343430
C -1.523850 2.975900 -1.489522
C -1.369081 3.126461 -1.519496
C -1.059314 3.256719 -1.571123
C -0.751262 3.179963 -1.674207
C -0.356634 3.217255 -1.788652
C 0.012063 3.374962 -1.810249
C 0.340246 3.489355 -1.812677
C 0.673146 3.486602 -1.737106
C 0.988690 3.273257 -1.762255
C 1.292623 3.197409 -1.718374
C 1.432843 3.226761 -1.669065
C 1.492530 3.164363 -1.704648
C 1.710640 3.129248 -1.723867
C 1.881525 3.186071 -1.620080
C 1.866806 3.121346 -1.679292
C 1.638525 3.149693 -1.789005
C 1.325142 3.122262 -1.946678
C 1.264333 3.097000 -2.148214
C 1.241835 2.924043 -2.188681
C 1.263894 2.748581 -2.237960
C 1.264451 2.588983 -2.429331
C 1.247285 2.554490 -2.531828
C 1.329787 2.481348 -2.594577
C 1.321139 2.335194 -2.676819
C 1.030760 2.181095 -2.673677
C 0.912778 2.257306 -2.873232
C 0.542832 2.216350 -2.997561
C 0.055616 2.132438 -2.997210
C -0.244377 2.186484 -3.009482
C -0.331797 2.114428 -2.959964
C -0.096804 2.071399 -2.978951
C 0.437222 1.965377 -2.991556
C 0.708278 1.789391 -2.946788
C 1.046121 1.649671 -2.959509
C 1.661724 1.539419 -3.014928
C 2.223988 1.340554 -2.993940
C 2.591058 1.316819 -3.010101
C 2.675983 1.239618 -2.973543
C 2.623881 1.260786 -3.059275
C 2.358735 1.294914 -3.078891
C 2.055358 1.323879 -3.115766
C 1.637426 1.380799 -3.273177
C 1.303279 1.442964 -3.413250
C 1.022973 1.332002 -3.606159
C 0.815322 1.260569 -3.704301
C 0.595646 1.156633 -3.736301
C 0.658808 1.032931 -3.924822
C 0.759515 0.942290 -4.142130
C 0.624669 0.929036 -4.159587
C 0.454410 0.871768 -4.233646
C 0.120777 0.984307 -4.203706
C -0.215470 1.036902 -4.153326
C -0.777337 1.154006 -3.998569
C -1.322044 1.303381 -3.582793
C -1.879378 1.563523 -3.023603
C -2.240778 1.771488 -2.549543
C -2.667658 2.019148 -2.043343
C -2.999848 2.100325 -1.551592
C -3.333257 2.276525 -1.219983
C -3.384264 2.253155 -1.065955
C -3.471520 2.204459 -1.021075
C -3.428053 2.067137 -1.213243
C -3.279672 1.855281 -1.456884
C -3.132823 1.612275 -1.879903
C -2.024190 1.641845 -1.862207
C -0.807924 1.526987 -1.685232
C 0.407368 1.452396 -1.389763
C 1.586995 1.273898 -1.237341
C 2.685445 1.151966 -1.048347
C 3.731826 1.080196 -0.859500
C 4.704894 0.866742 -0.631983
C 4.783185 0.393529 -0.785557
C 4.819962 0.028162 -0.926691
C 4.137411 0.461613 -0.517016
C 3.544757 1.006504 0.006245
C 3.032807 1.486946 0.600285
C 2.576311 1.926069 1.196841
C 2.258365 2.460113 1.946484
C 1.926660 3.010714 2.636699
C 1.602096 3.478256 3.258924
C 1.975336 3.136782 3.342575
C 2.280380 2.755343 3.469156
C 2.398346 2.384762 3.671098
C 2.370689 1.998229 3.934669
C 2.266279 1.585623 4.203646
C 2.120281 1.162305 4.439183
C 1.930310 0.816198 4.643850
C 1.671828 0.924718 4.730115
C 1.432947 1.165164 4.717023
C 1.208614 1.635050 4.411549
C 0.978967 2.168966 4.030451
C 0.683684 2.798130 3.596486
C 0.405091 3.533458 3.125449
C 0.400631 4.244076 2.643180
C 0.556497 4.535367 2.259415
C 0.871610 4.573260 2.016270
C 1.349867 4.215520 2.055616
C 1.934821 3.727133 2.140057
C 2.631197 3.140778 2.246084
C 3.327093 2.454086 2.373335
C 3.746323 1.689674 2.524535
C 3.992599 0.813674 2.712613
C 4.037523 0.037749 2.862373
C 3.907969 -0.573053 3.047752
C 3.663236 -1.030265 3.292130
C 3.387420 -1.331509 3.560278
C 3.165348 -1.452661 3.797674
C 3.032281 -1.430269 3.947071
C 3.011180 -1.272732 3.998495
C 3.119439 -1.273782 3.785932
C 3.364809 -1.211563 3.498088
C 3.703658 -1.076566 3.037225
C 4.094496 -1.034826 2.524050
C 4.371860 -1.190039 1.953540
C 4.533549 -1.478646 1.422451
C 4.672678 -1.715743 1.043593
C 4.763365 -1.358370 0.931779
C 4.752866 -0.844946 0.835229
C 4.690162 -0.381660 0.884969
C 4.466586 0.232185 0.968742
C 4.275684 0.983935 1.110181
C 4.191929 1.788761 1.244627
C 4.092152 1.832867 0.893923
C 3.173993 1.527147 0.279499
C 2.356343 1.081379 -0.239927
C 1.639497 0.505862 -0.879472
C 1.039080 -0.235997 -1.578417
C 0.595493 -0.987497 -2.146953
C 0.159196 -1.735165 -2.771346
C -0.461965 -1.768875 -2.982418
C -0.236656 -1.857673 -2.997626
C -0.126671 -1.984222 -3.118811
C 0.183058 -2.034651 -3.122764
C 0.633390 -2.079844 -3.024637
C 0.833648 -2.165199 -2.955698
C 0.858218 -2.187894 -2.814265
C 1.029657 -2.193703 -2.605230
C 1.146352 -2.198676 -2.453552
C 1.200345 -2.231017 -2.277305
C 1.000563 -2.391762 -2.124162
C 0.589790 -2.567798 -2.143866
C 0.397136 -2.647430 -2.212734
C 0.252693 -2.720038 -2.149182
C 0.272104 -2.844860 -2.175255
C 0.301507 -2.993610 -2.149816
C 0.259069 -3.055954 -2.230475
C 0.505320 -3.025605 -2.372453
C 0.833151 -2.953528 -2.223606
C 1.007620 -3.007520 -2.100816
C 1.245738 -3.048016 -2.162078
C 1.467946 -3.079314 -2.166181
C 1.438635 -3.085618 -2.212560
C 1.360434 -3.116375 -2.106067
C 0.872716 -3.174908 -2.010620
C 0.291660 -3.108374 -2.095020
C -0.253986 -2.951108 -2.130817
C -0.802094 -2.835515 -2.073176
C -1.523708 -2.737019 -2.093131
C -1.941439 -2.505654 -1.978810
C -2.061670 -2.394812 -1.947520
C -2.165919 -2.192618 -1.859740
C -2.187557 -2.100384 -1.674950
C -2.272051 -2.057718 -1.626058
C -2.289608 -2.064031 -1.529370
C -2.467920 -1.865297 -1.484278
C -2.632887 -1.764085 -1.365379
C -2.884977 -1.608711 -1.341062
C -2.985685 -1.622539 -1.225631
C -3.216189 -1.483591 -1.225758
C -3.315445 -1.339508 -1.040719
C -3.555257 -1.153496 -0.897395
C -3.499882 -1.119525 -0.607813
C -3.616348 -1.061503 -0.487849
C -3.633505 -1.039899 -0.229211
C -3.861360 -0.809941 -0.114056
C -3.845345 -0.775352 0.055821
C -3.952311 -0.779399 0.197577
C -3.967978 -0.855754 0.265266
C -4.020961 -0.883744 0.307519
C -4.054812 -1.036514 0.435970
C -4.097097 -1.221856 0.552973
C -3.830649 -1.357653 0.638769
C -3.661908 -1.531184 0.686195
C -3.421812 -1.664860 0.634866
C -3.309637 -1.916815 0.580372
C -3.231694 -2.202978 0.520568
C -2.937772 -2.389919 0.269940
C -2.542351 -2.568451 -0.008074
C -1.821995 -2.922001 -0.017094
C -1.379562 -3.122206 -0.155122
C -0.895473 -3.392124 -0.227063
C -0.266348 -3.460767 -0.249349
C 0.434938 -3.555368 -0.333470
C 0.983548 -3.585764 -0.307725
C 1.421436 -3.603231 -0.239058
C 1.091675 -3.578148 -0.359649
C 0.936137 -3.630831 -0.315071
C 0.779144 -3.706911 -0.243586
C 0.815145 -3.747131 -0.107090
C 0.648220 -3.757806 -0.008174
C 0.319917 -3.748653 0.068926
C 0.008189 -3.707655 0.141854
C 0.022906 -3.689929 0.238018
C -0.009418 -3.662287 0.341099
C -0.158522 -3.531336 0.400810
C -0.523313 -3.535986 0.514336
C -0.760200 -3.450283 0.648292
C -0.868061 -3.384488 0.818698
C -1.009402 -3.374905 1.029568
C -1.298180 -3.292756 1.175498
C -1.469555 -3.201927 1.374486
C -1.539500 -3.092316 1.432020
C -1.635609 -2.868263 1.442412
C -1.735420 -2.697828 1.421387
C -1.696587 -2.636394 1.480252
C -1.537843 -2.582443 1.536296
C -1.307625 -2.520870 1.468854
C -0.919714 -2.598932 1.465748
C -0.574176 -2.711156 1.555910
C -0.309304 -2.815174 1.583899
C -0.044667 -2.911982 1.668076
C 0.197971 -2.941826 1.658251
C 0.406080 -2.960722 1.554243
C 0.623395 -3.041172 1.608529
C 0.628474 -3.022546 1.681107
C 0.653236 -2.954872 1.710107
C 0.602116 -2.851930 1.757829
C 0.281998 -2.690705 1.770393
C -0.065575 -2.478565 1.804879
C -0.507601 -2.215485 1.921000
C -0.892943 -2.009281 2.101788
C -1.134397 -1.825918 2.240359
C -1.508790 -1.695263 2.462551
C -1.629795 -1.546216 2.759783
C -1.629070 -1.484354 2.940593
C -1.628051 -1.436259 3.249978
C -1.658910 -1.376527 3.525685
C -1.589501 -1.218015 3.772939
C -1.813483 -1.037598 3.709602
C -1.935013 -0.808941 3.698264
C -2.255726 -0.270099 3.419705
C -2.179224 0.226948 3.469437
C -2.103558 0.463390 3.491334
C -1.967620 0.825701 3.512993
C -2.017605 1.133636 3.505794
C -1.915437 1.387330 3.577070
C -1.822438 1.641993 3.622164
C -1.637439 1.432223 3.865380
C -1.772005 1.236484 3.867793
C -1.986545 1.261181 3.783245
C -2.196536 1.203691 3.620288
C -2.347701 1.144846 3.500023
C -2.461375 1.239391 3.470894
C -2.649817 1.184602 3.328975
C -2.777289 1.310977 3.221885
C -2.851497 1.357142 3.166812
C -2.877459 1.249163 3.113179
C -2.988000 1.286276 3.061785
C -3.104064 1.408061 2.949669
C -3.107576 1.530799 2.921389
C -3.061862 1.807602 2.892713
C -3.167139 1.759425 2.774074
C -3.041567 2.107456 2.715615
C -3.033701 2.416632 2.642399
C -2.980585 2.576655 2.607982
C -2.901562 2.692520 2.595646
