94
chr21 3D structure from Hi-C (resolution 500000bp)
C -1.205934 5.975588 1.685270
C -1.387139 5.934345 0.976352
C -1.652372 5.791381 0.409076
C -2.027518 5.572374 0.098011
C -2.664210 5.227830 -0.624355
C -3.269990 4.704758 -1.378446
C -3.720967 4.066539 -2.108553
C -3.963955 3.331905 -2.695473
C -4.076781 2.584903 -3.252203
C -3.964277 1.765505 -3.754783
C -3.815618 0.825638 -4.235753
C -3.698748 -0.071156 -4.440797
C -3.650702 -0.835348 -4.304301
C -3.839467 -1.314500 -3.898175
C -4.200230 -1.594904 -3.229460
C -4.591316 -1.798218 -2.292125
C -4.842769 -2.077677 -1.244792
C -4.821089 -1.999794 -0.190281
C -4.660916 -1.717245 0.669950
C -4.731624 -0.935342 1.257701
C -4.574017 -0.234698 1.794467
C -4.276445 0.396161 2.306446
C -3.835524 0.866811 2.904149
C -3.323004 1.234255 3.236547
C -2.813954 1.515334 3.456121
C -2.202668 1.674186 3.331108
C -1.182569 1.357396 3.258970
C -0.244365 0.868673 3.183478
C 0.539216 0.295027 2.912096
C 1.017190 -0.143405 2.517505
C 1.161725 -0.289761 2.361665
C 1.231197 -0.483827 2.181946
C 1.255969 -0.634686 2.147425
C 1.064634 -0.857247 2.133246
C 0.790389 -1.077864 2.132012
C 0.488082 -1.248952 2.042714
C 0.331954 -1.442821 2.025315
C 0.239939 -1.589953 1.956334
C 0.082691 -1.717870 1.840853
C -0.142374 -1.923281 1.779742
C -0.139366 -2.068631 1.786703
C -0.094385 -2.291720 1.707898
C -0.005287 -2.399074 1.688107
C 0.091081 -2.502747 1.534767
C 0.191101 -2.598894 1.274258
C 0.308973 -2.673838 1.027449
C 0.515653 -2.685731 0.861033
C 0.662846 -2.635384 0.561258
C 0.833778 -2.442712 0.268158
C 1.000501 -2.366615 0.131915
C 1.013348 -2.227754 0.020632
C 0.910445 -2.120372 0.003948
C 0.821910 -2.121558 0.051061
C 0.821294 -2.091617 0.194665
C 0.836342 -1.997974 0.282995
C 0.977942 -1.899249 0.342792
C 1.068770 -1.797246 0.389549
C 1.203269 -1.731932 0.474052
C 1.465061 -1.634091 0.583155
C 1.659225 -1.396525 0.477777
C 1.777048 -1.187730 0.222513
C 1.853732 -1.111999 0.061119
C 1.817200 -1.063524 -0.162021
C 1.902930 -0.994991 -0.503396
C 2.088912 -0.876765 -0.828538
C 2.283944 -0.717825 -1.150668
C 2.530427 -0.626260 -1.203331
C 2.707037 -0.532838 -1.148098
C 2.837692 -0.434657 -1.050454
C 2.974966 -0.249621 -0.933188
C 2.984977 -0.054545 -0.764857
C 3.024186 0.154831 -0.582333
C 2.885526 0.259117 -0.353503
C 2.737419 0.346139 -0.202951
C 2.581815 0.407228 -0.149113
C 2.444892 0.507306 -0.139797
C 2.162261 0.479587 0.037423
C 1.830871 0.411625 0.206848
C 1.443046 0.245088 0.232318
C 1.324911 0.237722 0.113870
C 1.246490 0.272069 -0.114936
C 1.213351 0.305156 -0.491565
C 1.229026 0.373520 -0.867743
C 1.327093 0.599196 -1.489317
C 1.579570 0.795011 -1.974148
C 1.783209 1.087348 -2.396697
C 1.849264 1.299871 -2.627984
C 1.933778 1.472497 -2.685502
C 1.972450 1.682447 -2.538123
C 1.966865 1.842763 -2.283900
C 2.034447 2.029582 -1.885703
C 2.030121 2.113971 -1.718911
C 2.097535 2.164180 -1.475931
C 2.160291 2.219107 -1.310192
