94
chr21 3D structure from Hi-C (resolution 500000bp)
C -3.172742 4.025132 -2.241053
C -2.613365 4.244064 -2.275943
C -2.103270 4.311147 -2.418515
C -1.707077 4.232304 -2.651147
C -0.934195 4.201645 -2.977818
C -0.097123 3.959635 -3.334985
C 0.775919 3.454769 -3.659300
C 1.576965 2.666341 -3.749760
C 2.362596 2.013072 -3.760128
C 2.930553 1.720310 -3.582058
C 3.375469 1.582708 -3.413248
C 3.351345 1.060156 -3.461922
C 3.161229 0.493914 -3.437921
C 3.077720 0.065814 -3.454563
C 2.968298 -0.289508 -3.476661
C 2.679843 -0.865946 -3.450963
C 2.118205 -1.715462 -3.539894
C 1.520588 -2.582084 -3.437177
C 1.230253 -2.820125 -3.125020
C 0.899649 -2.456176 -3.220184
C 0.185124 -1.999375 -3.287801
C -0.751544 -1.468566 -3.520613
C -1.715032 -1.097140 -3.713427
C -1.925406 -1.087223 -3.434225
C -1.740580 -1.091148 -3.062197
C -1.556356 -0.996122 -2.424192
C -1.320941 -1.278581 -1.353048
C -1.005230 -1.693385 -0.388395
C -0.539544 -2.027768 0.502719
C -0.024192 -2.194337 1.172524
C 0.076740 -2.055873 1.322868
C -0.120613 -1.908588 1.449353
C -0.268411 -1.821221 1.491993
C -0.436141 -1.866753 1.342442
C -0.585279 -1.947133 1.148808
C -0.747072 -2.016080 0.956995
C -0.970370 -2.013405 0.887322
C -1.162480 -1.971704 0.926557
C -1.316303 -1.903375 0.792804
C -1.434461 -1.950916 0.543263
C -1.519860 -1.886761 0.412489
C -1.723320 -1.772130 0.415806
C -1.844584 -1.663889 0.437883
C -1.942343 -1.526418 0.467781
C -1.949282 -1.355307 0.461029
C -2.016342 -1.188312 0.500973
C -2.031666 -1.027568 0.634841
C -2.011439 -0.850754 0.812358
C -1.821233 -0.663062 0.968148
C -1.677240 -0.534270 1.008717
C -1.458593 -0.532002 0.947226
C -1.281125 -0.618124 0.843143
C -1.066043 -0.714493 0.712841
C -0.873579 -0.786179 0.555358
C -0.743148 -0.841491 0.517888
C -0.687286 -0.795918 0.594965
C -0.637048 -0.778729 0.707770
C -0.585665 -0.774029 0.776932
C -0.588485 -0.614176 0.895568
C -0.571329 -0.477986 1.182590
C -0.559523 -0.337746 1.476663
C -0.494270 -0.215183 1.558708
C -0.462930 -0.085286 1.587812
C -0.484363 0.159659 1.672845
C -0.473115 0.525966 1.878937
C -0.484379 0.812424 2.060309
C -0.470433 1.089201 2.088791
C -0.483539 1.267034 2.016234
C -0.478443 1.385226 1.961536
C -0.348146 1.445665 1.990727
C -0.186606 1.378945 2.028658
C -0.092231 1.293619 2.080907
C 0.030333 1.061162 2.100989
C 0.150918 0.826914 2.114677
C 0.323325 0.640585 2.124803
C 0.471930 0.470728 2.189115
C 0.549895 0.144120 1.986220
C 0.649472 -0.126129 1.695446
C 0.743381 -0.391931 1.439042
C 0.830908 -0.379445 1.342962
C 0.912340 -0.218378 1.320569
C 0.985872 0.059280 1.339438
C 1.064376 0.370136 1.286161
C 1.263622 0.967542 1.333872
C 1.439072 1.430659 1.495094
C 1.637040 1.826983 1.583357
C 1.804420 2.016181 1.587600
C 1.975701 2.068546 1.585482
C 2.089036 1.887643 1.610269
C 2.222099 1.668823 1.684898
C 2.356835 1.296916 1.743354
C 2.388388 1.130805 1.775095
C 2.387519 0.985730 1.842629
C 2.454901 0.860947 1.904290
