363
chr5 3D structure from Hi-C (resolution 500000bp)
C -0.212227 2.623848 -4.335345
C -0.021439 2.863674 -4.030779
C 0.098953 3.123958 -3.685173
C 0.161166 3.295005 -3.464859
C 0.266399 3.667401 -3.147827
C 0.516033 3.937691 -2.757317
C 0.744341 4.125002 -2.354078
C 0.832132 4.235821 -2.198617
C 0.817146 4.134485 -2.217427
C 0.831753 3.883426 -2.408809
C 0.861662 3.666981 -2.540975
C 0.862190 3.590780 -2.590834
C 0.848754 3.427092 -2.642841
C 0.862469 3.337786 -2.676242
C 0.945749 3.363905 -2.639991
C 1.048870 3.339804 -2.573792
C 1.078644 3.432570 -2.413388
C 1.081908 3.409611 -2.384429
C 1.064266 3.200204 -2.446161
C 1.048683 3.215540 -2.396005
C 1.030491 3.263537 -2.260905
C 0.943148 3.382804 -2.043959
C 0.896536 3.646280 -1.781877
C 0.986265 3.758095 -1.563688
C 1.128324 3.900497 -1.395452
C 1.202610 3.802519 -1.447705
C 1.229707 3.623105 -1.515063
C 1.254848 3.564425 -1.517551
C 1.281490 3.493881 -1.516192
C 1.393982 3.317332 -1.634340
C 1.437439 3.180781 -1.787450
C 1.424405 3.057015 -1.851401
C 1.504274 3.424042 -1.516849
C 1.594134 3.726864 -1.217556
C 1.717752 3.667338 -1.141083
C 1.806661 3.653918 -1.019762
C 1.831185 3.714053 -0.785270
C 1.876218 3.828350 -0.533153
C 1.916996 4.023848 -0.161722
C 2.025833 3.963081 -0.035545
C 2.069620 3.874023 0.087573
C 2.121099 3.904438 0.290711
C 2.246299 3.790851 0.324639
C 2.338935 3.680818 0.250980
C 2.401061 3.571123 0.336414
C 2.523922 3.458642 0.304578
C 2.604653 3.353973 0.180713
C 2.748788 3.286371 0.037659
C 2.823750 3.237712 -0.056162
C 2.932096 3.301192 -0.085206
C 3.031382 3.284358 0.054577
C 3.114781 3.250115 0.042018
C 3.224877 3.198612 0.054308
C 3.299703 3.091354 0.211762
C 3.343088 3.034448 0.341333
C 3.454895 3.038216 0.490057
C 3.461905 2.959122 0.374000
C 3.485946 2.900695 0.248305
C 3.487807 2.876534 0.029829
C 3.327638 2.758670 -0.243657
C 3.075093 2.618327 -0.645695
C 2.765087 2.369556 -1.131065
C 2.544846 2.174167 -1.678180
C 2.445427 2.066693 -1.913182
C 2.239321 1.823916 -2.423709
C 2.094047 1.649491 -2.865124
C 2.005247 1.527010 -3.081389
C 2.140108 1.466521 -3.161991
C 2.242355 1.526999 -3.155016
C 2.209423 1.436291 -3.136975
C 2.076368 1.239329 -3.247487
C 2.004181 1.172083 -3.209908
C 1.991548 1.096725 -3.013651
C 2.073917 1.142830 -2.917088
C 2.081101 1.188134 -2.824372
C 2.196475 1.181124 -2.680045
C 2.423972 1.255941 -2.563481
C 2.679205 1.304524 -2.366958
C 2.888823 1.335826 -2.158257
C 3.047424 1.441401 -1.977250
C 3.151827 1.362564 -1.891551
C 3.315887 1.363262 -1.714256
C 3.302081 1.305684 -1.780612
C 3.019635 1.124294 -1.901686
C 2.930953 1.126827 -1.830898
C 3.018006 1.267413 -1.582413
C 3.027476 1.259197 -1.471409
C 3.158900 1.415087 -1.256370
C 3.232552 1.496859 -1.170100
C 3.300797 1.872859 -0.434788
C 3.106784 2.488250 0.575077
C 2.779776 2.976249 1.418534
C 2.483237 3.225796 2.244162
C 2.206423 3.461308 3.126517
C 1.729728 3.678528 3.947285
C 1.115055 3.969835 4.739344
C 0.347026 4.289784 4.543012
C 0.969847 3.685776 3.974425
C 1.251886 3.027100 3.241746
C 1.514689 2.612550 2.585252
C 1.836498 2.172235 1.936808
C 2.253796 1.696311 1.279743
C 2.668933 1.080617 0.553505
C 3.381321 0.187765 0.332564
C 3.084463 0.043430 0.144386
C 3.084673 -0.075379 0.029211
C 2.858626 -0.208162 -0.263833
C 2.606350 -0.403053 -0.770231
C 2.313212 -0.645593 -1.246392
C 2.118125 -0.839584 -1.662363
C 1.982363 -1.028987 -2.041259
C 1.972205 -1.145876 -2.162952
C 2.090497 -1.123969 -1.979961
C 2.343205 -1.191561 -1.843370
C 2.512994 -1.147416 -1.544027
C 2.732868 -1.106833 -1.306663
C 2.938341 -1.071601 -0.990952
C 3.037438 -1.024558 -0.749502
C 3.027480 -1.049216 -0.681296
C 2.899921 -1.163125 -0.854581
C 2.779619 -1.137647 -0.914269
C 2.588548 -1.147713 -0.981607
C 2.562790 -1.153170 -0.880284
C 2.623061 -0.985114 -0.636077
C 2.692203 -0.808749 -0.281857
C 2.791138 -0.695594 -0.049105
C 2.802942 -0.745509 0.021476
C 2.751810 -0.950404 -0.078952
C 2.706962 -1.134563 -0.227281
C 2.521468 -1.241881 -0.487101
C 2.266228 -1.404800 -0.878142
C 2.094212 -1.658359 -1.318518
C 1.983335 -1.913778 -1.677124
C 1.876305 -2.016153 -1.867736
C 1.735578 -2.024693 -2.016763
C 1.677493 -2.092768 -2.345967
C 1.216557 -1.021879 -1.665400
C 0.698733 -0.029246 -1.052213
C 0.125934 1.043906 -0.427367
C -0.373778 2.121619 0.429997
C -0.525997 2.248904 0.298661
C -0.676627 2.301370 0.247766
C -0.726238 2.416846 0.472988
C -0.447168 1.396378 -0.323043
C -0.104983 0.300094 -1.130641
C 0.237761 -0.790895 -1.904116
C 0.468217 -1.859749 -2.871127
C 0.418970 -1.967998 -2.852567
C 0.402878 -2.044812 -2.882416
C 0.309997 -2.104594 -2.937783
C 0.262127 -2.256194 -2.955816
C 0.202430 -2.361304 -2.869608
C 0.244694 -2.544230 -2.846880
C 0.209007 -2.674011 -2.827507
C 0.172762 -2.775917 -2.775922
C 0.213459 -2.851010 -2.684580
C 0.238081 -2.917043 -2.595242
C 0.283194 -2.952917 -2.470936
C 0.374757 -2.983087 -2.338582
C 0.417600 -2.901841 -2.149159
C 0.564101 -2.884628 -1.947366
C 0.794389 -2.823605 -1.635226
C 1.033949 -2.778437 -1.279989
C 1.271258 -2.797500 -0.975865
C 1.609983 -2.708596 -0.529586
C 1.884086 -2.608841 -0.147903
C 2.189780 -2.547077 0.236396
C 2.449255 -2.337146 0.717947
C 2.609510 -2.132888 1.126877
C 2.725040 -1.948057 1.453236
C 2.828992 -1.849331 1.739063
C 2.674250 -1.957698 1.622183
C 2.686624 -1.942834 1.740029
C 2.566508 -1.940478 1.690144
C 2.368238 -2.182137 1.439510
C 2.113013 -2.498586 1.001361
C 1.918419 -2.815093 0.648929
C 1.769421 -3.031100 0.454646
C 1.806499 -2.952735 0.576805
C 1.643525 -2.962180 0.425094
C 1.646851 -2.807072 0.633570
C 1.752128 -2.534145 1.003248
C 1.932410 -2.301483 1.473736
C 1.998110 -2.098314 1.758952
C 1.998176 -1.925031 1.890714
C 1.958404 -1.880056 1.944793
C 1.893794 -1.986511 1.890866
C 1.685167 -2.271340 1.577565
C 1.370026 -2.516376 1.097824
C 1.099389 -2.700135 0.680665
C 0.787743 -2.894199 0.343613
C 0.672766 -3.038982 0.258683
C 0.633029 -3.110531 0.327125
C 0.742594 -2.940006 0.645231
C 0.794382 -2.896349 0.861155
C 0.984428 -2.755581 1.304614
C 1.159825 -2.458134 1.859191
C 1.387202 -2.355210 2.357624
C 1.352161 -2.310105 2.426804
C 1.367811 -2.231506 2.602475
C 1.289714 -2.117263 2.676325
C 1.326039 -1.841837 2.890663
C 1.192822 -1.847973 2.802791
C 1.014372 -2.080401 2.526446
C 0.920842 -1.994482 2.523940
C 0.995627 -1.790206 2.897094
C 0.942774 -1.656435 2.982799
C 0.881218 -1.698622 3.077478
C 0.832298 -1.752780 3.148724
C 0.861002 -1.673091 3.347688
C 0.908237 -1.666256 3.573250
C 0.770919 -1.765519 3.332011
C 0.611901 -1.830506 2.957678
C 0.426038 -2.073934 2.636932
C 0.246866 -2.398001 2.168199
C 0.038742 -2.717307 1.748607
C -0.072592 -2.865822 1.576614
C -0.101461 -2.621656 1.586097
C -0.086321 -2.593907 1.734057
C -0.177124 -2.768912 1.695616
C -0.230897 -2.825648 1.546625
C -0.273888 -2.747341 1.547214
C -0.346525 -2.665602 1.443621
C -0.434193 -2.543845 1.348650
C -0.546847 -2.631696 1.238529
C -0.546233 -2.345018 1.292428
C -0.408452 -1.912284 1.651142
C -0.461449 -1.843283 1.807443
C -0.474905 -1.733833 1.899605
C -0.504177 -1.736027 2.065818
C -0.538483 -1.863470 2.033345
C -0.554069 -1.764663 2.171140
C -0.598249 -1.798743 2.328238
C -0.691130 -1.842999 2.381200
C -0.679183 -1.754506 2.460063
C -0.771808 -1.854200 2.409616
C -0.704816 -1.648332 2.683823
C -0.698435 -1.441802 3.032681
C -0.720676 -1.380427 3.084381
C -0.822925 -1.420066 3.076962
C -0.905302 -1.550875 3.048327
C -0.978340 -1.494890 3.128111
C -0.984330 -1.366715 3.305034
C -1.118219 -1.413396 3.200250
C -1.283700 -1.538969 3.017391
C -1.465371 -1.775798 2.852335
C -1.630292 -1.988557 2.502984
C -1.794533 -2.139168 2.411118
C -1.872423 -2.107989 2.519090
C -1.872647 -2.006348 2.629122
C -1.923650 -2.080239 2.392513
C -1.911498 -2.043085 2.321512
C -1.914862 -2.082731 2.190566
C -1.866599 -1.957009 2.305518
C -1.755266 -1.671158 2.362221
C -1.664587 -1.493078 2.324456
C -1.666542 -1.371804 2.381066
C -1.569215 -1.079998 2.694114
C -1.531878 -0.924276 2.826951
C -1.570121 -0.956001 2.639820
C -1.613047 -1.100068 2.279783
C -1.763825 -1.389984 1.703322
C -1.941326 -1.781577 0.987813
C -2.102519 -2.082502 0.287136
C -2.272793 -2.257435 -0.420194
C -2.407038 -2.480545 -1.130872
C -2.488413 -2.445129 -1.472792
C -2.556667 -2.252409 -1.586629
C -2.552830 -2.011236 -1.571477
C -2.531959 -1.765243 -1.379753
C -2.474486 -1.407152 -1.149599
C -2.473601 -1.283184 -0.922523
C -2.446881 -1.197502 -0.813920
C -2.463639 -1.161764 -0.825515
C -2.459095 -1.255718 -0.978228
C -2.534783 -1.370054 -1.217668
C -2.589410 -1.488504 -1.418923
C -2.620042 -1.719651 -1.657438
C -2.648111 -1.673104 -1.683399
C -2.638220 -1.297758 -1.389700
C -2.662702 -1.218744 -1.165331
C -2.727245 -1.178154 -0.844053
C -2.762514 -1.138666 -0.507351
C -2.794830 -1.197795 -0.288342
C -2.913548 -1.253510 -0.025557
C -2.931616 -1.268318 0.306926
C -2.952978 -1.330496 0.625412
C -2.907897 -1.070502 1.068666
C -2.872145 -0.842885 1.316635
C -2.840562 -0.770966 1.462460
C -2.786909 -0.415218 1.750280
C -2.663005 -0.059952 2.018007
C -2.630609 0.034446 2.105734
C -2.640545 0.002034 1.996494
C -2.642298 -0.018512 1.770662
C -2.655163 -0.098884 1.607817
C -2.685498 -0.179413 1.348653
C -2.808893 -0.317379 0.940445
C -2.968136 -0.518562 0.432641
C -3.084594 -0.718645 0.014871
C -3.181138 -0.792492 -0.282784
C -3.222277 -0.689944 -0.279982
C -3.234212 -0.442679 -0.024228
C -3.200016 -0.021036 0.360572
C -3.173354 0.250807 0.685022
C -3.190373 0.237232 0.988354
C -3.202576 0.294608 1.128031
C -3.225761 0.430171 1.293080
C -3.312105 0.418674 1.344485
C -3.398838 0.278194 1.191099
C -3.543041 0.054976 1.074535
C -3.591446 -0.281240 0.916494
C -3.565423 -0.332564 0.716092
C -3.627161 -0.267718 0.658483
C -3.653176 -0.497234 0.454358
C -3.693623 -0.718629 0.182497
C -3.714565 -0.766339 0.031068
C -3.661244 -0.872276 -0.112616
C -3.661314 -0.644271 0.103276
C -3.701234 -0.565471 0.394015
C -3.644694 -0.435970 0.737709
C -3.665823 -0.048296 1.104423
C -3.653077 0.321679 1.490083
C -3.644099 0.385039 1.736611
C -3.633216 0.543217 2.065974
C -3.559248 0.709900 2.216186
C -3.487052 0.975075 2.398146
C -3.411897 1.088863 2.452493
C -3.319422 1.064093 2.509465
C -3.188512 1.065191 2.580138
C -3.110570 1.329065 2.596235
C -3.065882 1.544129 2.522922
C -3.081750 1.518300 2.366514
C -3.125981 1.406439 2.060723
C -3.200681 1.249455 1.647164
C -3.283826 1.140576 1.286475
C -3.353198 0.853084 0.808380
C -3.432979 0.598722 0.450590
C -3.498667 0.500683 0.163764
C -3.569915 0.468938 -0.115496
C -3.622672 0.482343 -0.359339
C -3.676594 0.421857 -0.624000
C -3.705637 0.320964 -0.930965
C -3.768232 0.363004 -1.138470
C -3.767352 0.293485 -1.388869
C -3.821906 0.274635 -1.557324
C -3.824156 0.339292 -1.605382
C -3.814437 0.461801 -1.591674
C -3.831668 0.670504 -1.531529
C -3.868331 0.741590 -1.654920
C -3.891337 0.707217 -1.739610
C -3.891516 0.708293 -1.886756
C -3.906909 0.747677 -2.210799
C -3.933744 0.757791 -2.388718
C -3.893859 0.921153 -2.428908
C -3.867625 1.112668 -2.374831
C -3.799188 1.135683 -2.353865
C -3.755754 1.329636 -2.299321
C -3.733761 1.531388 -2.152780
C -3.713991 1.537744 -2.073206
C -3.678517 1.549292 -2.076804
C -3.702732 1.397061 -2.203356
C -3.671440 1.090306 -2.485086
