363
chr5 3D structure from Hi-C (resolution 500000bp)
C -0.652516 2.272834 -4.376455
C -0.475854 2.519058 -4.069254
C -0.346101 2.782230 -3.797424
C -0.202429 2.982093 -3.569548
C -0.050605 3.376214 -3.295578
C 0.157975 3.690681 -2.886557
C 0.454159 3.873468 -2.552836
C 0.559372 3.956093 -2.453784
C 0.630063 3.843811 -2.527309
C 0.688018 3.565999 -2.674288
C 0.685866 3.318486 -2.834791
C 0.700867 3.191710 -2.953178
C 0.762882 3.012362 -3.077137
C 0.872014 2.952153 -3.100036
C 0.955368 3.000050 -3.034023
C 0.969418 3.025561 -2.970309
C 1.054283 3.111595 -2.879666
C 1.103013 3.081031 -2.861527
C 1.049851 2.862609 -2.887444
C 1.066269 2.839723 -2.827984
C 1.028344 2.916205 -2.679515
C 0.977750 3.085576 -2.495348
C 1.023981 3.333921 -2.210723
C 1.094706 3.503205 -2.039558
C 1.224329 3.649935 -1.894480
C 1.270955 3.600962 -1.906283
C 1.234133 3.447835 -1.953513
C 1.292841 3.373008 -1.977722
C 1.368599 3.274873 -2.068666
C 1.428318 3.084617 -2.223486
C 1.400338 2.914861 -2.309084
C 1.346275 2.807398 -2.367893
C 1.462969 3.223533 -2.077662
C 1.584168 3.527925 -1.838860
C 1.633408 3.439683 -1.751347
C 1.694256 3.475355 -1.522376
C 1.753763 3.553499 -1.294719
C 1.793819 3.743408 -1.053934
C 1.834251 3.989462 -0.661480
C 1.840758 3.938965 -0.496083
C 1.920731 3.883190 -0.363707
C 2.012232 3.960563 -0.177460
C 2.058567 3.828533 -0.221083
C 2.148681 3.718693 -0.242722
C 2.252345 3.606332 -0.215094
C 2.398657 3.492701 -0.351113
C 2.575298 3.349558 -0.337804
C 2.661788 3.299824 -0.306702
C 2.777879 3.220012 -0.509723
C 2.881012 3.243368 -0.524698
C 2.962262 3.250159 -0.577563
C 3.069653 3.198701 -0.597638
C 3.147224 3.128722 -0.478403
C 3.195169 3.101582 -0.515576
C 3.276523 3.049407 -0.532828
C 3.365110 3.102489 -0.328439
C 3.436253 3.018707 -0.201858
C 3.479083 2.947934 -0.138705
C 3.480592 2.897819 -0.229800
C 3.377289 2.760034 -0.505927
C 3.124860 2.524974 -0.849126
C 2.780765 2.200754 -1.334597
C 2.547728 1.951299 -1.742340
C 2.404224 1.810424 -2.112678
C 2.204804 1.533486 -2.582962
C 2.026941 1.264941 -3.005024
C 1.918119 1.126367 -3.184720
C 1.987498 1.109601 -3.237855
C 2.115684 1.191843 -3.204989
C 2.053864 1.058358 -3.283328
C 1.914905 0.889605 -3.393442
C 1.827256 0.783727 -3.377249
C 1.827765 0.796080 -3.218031
C 1.904756 0.841625 -3.144719
C 2.028508 0.811156 -3.075174
C 2.131129 0.772714 -2.987694
C 2.383408 0.858591 -2.802922
C 2.560995 0.957390 -2.611729
C 2.741965 1.044097 -2.469322
C 2.919332 1.149995 -2.308202
C 2.967211 1.059259 -2.240147
C 3.069074 1.108537 -2.057298
C 3.137142 1.100208 -1.981142
C 2.916294 0.912654 -2.100975
C 2.909060 0.865200 -2.106186
C 3.047780 0.996734 -1.876930
C 3.037906 0.968251 -1.795540
C 3.227533 1.169502 -1.608763
C 3.322422 1.255642 -1.560781
C 3.366196 1.658481 -0.971011
C 3.069867 2.436784 -0.081257
C 2.667611 3.075647 0.728029
C 2.324707 3.490126 1.553147
C 2.027005 3.915584 2.422607
C 1.521263 4.274136 3.206611
C 0.906380 4.699167 3.956365
C -0.002856 4.953534 3.533487
C 0.673878 4.207249 2.951697
C 1.089816 3.436759 2.374000
C 1.382500 2.936773 1.839263
C 1.739981 2.416616 1.293737
C 2.126785 1.880124 0.797389
C 2.526295 1.156635 0.189186
C 3.376290 0.339082 0.332620
C 3.051569 0.247926 0.323946
C 2.983328 0.158143 0.199508
C 2.774550 -0.048792 -0.163041
C 2.469223 -0.345101 -0.632700
C 2.224278 -0.731161 -1.154535
C 2.025146 -0.968554 -1.526297
C 1.842843 -1.208973 -1.904623
C 1.794054 -1.351722 -2.100267
C 1.869903 -1.319177 -1.979022
C 2.082716 -1.363781 -1.845724
C 2.303358 -1.279411 -1.632139
C 2.516588 -1.160337 -1.380935
C 2.704740 -1.047687 -1.146601
C 2.757429 -0.958556 -0.934103
C 2.813486 -1.010130 -0.816893
C 2.783548 -1.191739 -0.902861
C 2.693661 -1.250096 -0.942822
C 2.551828 -1.313687 -0.943943
C 2.538095 -1.303378 -0.858655
C 2.653705 -1.207714 -0.590817
C 2.829164 -1.023378 -0.284739
C 2.969926 -0.880104 -0.066755
C 2.950334 -0.890162 0.020689
C 2.861608 -1.031474 0.046354
C 2.790119 -1.168632 -0.055810
C 2.638351 -1.383765 -0.240403
C 2.390071 -1.566838 -0.564353
C 2.222960 -1.923111 -0.916787
C 2.064325 -2.149640 -1.223192
C 1.918526 -2.254952 -1.424888
C 1.881115 -2.263774 -1.587949
C 1.830656 -2.442960 -1.866581
C 1.275812 -1.249047 -1.407687
C 0.693726 -0.167745 -1.025426
C 0.048924 1.018845 -0.623667
C -0.510643 2.172286 0.012568
C -0.643991 2.190462 -0.168929
C -0.874292 2.256105 -0.220364
C -0.951575 2.433486 -0.088368
C -0.578501 1.295722 -0.679646
C -0.149311 0.090813 -1.232802
C 0.240195 -1.082236 -1.807777
C 0.563986 -2.306185 -2.526824
C 0.553817 -2.330634 -2.494763
C 0.541447 -2.414221 -2.615962
C 0.471188 -2.525373 -2.586560
C 0.420042 -2.652149 -2.587746
C 0.366726 -2.708800 -2.577235
C 0.338776 -2.882605 -2.517979
C 0.258745 -2.996525 -2.505014
C 0.171771 -3.106248 -2.410498
C 0.216335 -3.218357 -2.227777
C 0.178770 -3.170468 -2.235573
C 0.205871 -3.184696 -2.107143
C 0.250054 -3.195626 -1.935479
C 0.369745 -3.149156 -1.756260
C 0.506662 -3.103706 -1.547562
C 0.750547 -3.037223 -1.241582
C 1.049836 -2.887211 -0.880985
C 1.330117 -2.863722 -0.512637
C 1.670879 -2.715133 -0.086232
C 2.016517 -2.577720 0.313227
C 2.308675 -2.345812 0.716316
C 2.610530 -2.073103 1.158359
C 2.796120 -1.806239 1.521631
C 2.840626 -1.626558 1.779439
C 2.933685 -1.588668 2.006247
C 2.780498 -1.692563 1.898240
C 2.741434 -1.649060 1.935527
C 2.628999 -1.730348 1.864042
C 2.359964 -1.980573 1.630936
C 2.056203 -2.322594 1.260111
C 1.846327 -2.699010 0.946641
C 1.693557 -2.852429 0.801407
C 1.691388 -2.833135 0.883042
C 1.528590 -2.867096 0.805311
C 1.510082 -2.665662 1.002708
C 1.657107 -2.334737 1.332199
C 1.882188 -1.999597 1.716873
C 2.001813 -1.663694 2.041447
C 2.024926 -1.503799 2.171445
C 2.026880 -1.403713 2.245002
C 1.948502 -1.555536 2.209204
C 1.743433 -1.901121 1.933434
C 1.454506 -2.269544 1.540215
C 1.199965 -2.560625 1.238237
C 0.894612 -2.825784 0.879834
C 0.781487 -2.930072 0.834305
C 0.794198 -2.972136 0.925115
C 0.909061 -2.774809 1.225564
C 0.967666 -2.650940 1.386119
C 1.112792 -2.485781 1.781172
C 1.302861 -2.208123 2.232538
C 1.522012 -1.976858 2.750929
C 1.493848 -1.995891 2.816763
C 1.433766 -1.943339 2.949158
C 1.396132 -1.846095 3.036867
C 1.414567 -1.676462 3.228481
C 1.332672 -1.664313 3.128734
C 1.104078 -1.847195 2.852087
C 1.003833 -1.788951 2.771605
C 1.056736 -1.410593 3.054155
C 0.991575 -1.187979 3.105534
C 0.959762 -1.083584 3.160511
C 0.942400 -0.968457 3.257437
C 0.968289 -0.791523 3.445514
C 1.040609 -0.637377 3.715420
C 0.935251 -0.834374 3.605101
C 0.775860 -1.113326 3.346138
C 0.616426 -1.451655 3.054918
C 0.387648 -1.861182 2.666476
C 0.177946 -2.320576 2.291622
C 0.060404 -2.476090 2.151937
C 0.027321 -2.302671 2.087051
C 0.029390 -2.210941 2.157212
C -0.049405 -2.299432 2.050453
C -0.115226 -2.385740 1.943018
C -0.178117 -2.355074 1.867660
C -0.259462 -2.259040 1.772183
C -0.330174 -2.212790 1.656114
C -0.479593 -2.392925 1.645933
C -0.530290 -2.213445 1.647881
C -0.440395 -1.753466 1.947570
C -0.447531 -1.592712 2.124091
C -0.474697 -1.479437 2.228803
C -0.490500 -1.427439 2.368208
C -0.561428 -1.519302 2.428073
C -0.535714 -1.407611 2.530506
C -0.532618 -1.317406 2.692480
C -0.580208 -1.312315 2.737577
C -0.613069 -1.239094 2.840781
C -0.663170 -1.325712 2.796384
C -0.616046 -1.082805 3.053167
C -0.574804 -0.827126 3.304900
C -0.651150 -0.765238 3.315008
C -0.756756 -0.774870 3.321011
C -0.852872 -0.869525 3.362830
C -0.880748 -0.817191 3.377680
C -0.912610 -0.682462 3.559639
C -1.062788 -0.820079 3.441799
C -1.258183 -0.990846 3.266550
C -1.369832 -1.172580 3.116493
C -1.493495 -1.553705 2.743354
C -1.639525 -1.819638 2.653356
C -1.692537 -1.789752 2.742010
C -1.727943 -1.691227 2.805906
C -1.762594 -1.794564 2.635096
C -1.733424 -1.803798 2.536683
C -1.772225 -1.850135 2.465328
C -1.780542 -1.683639 2.591694
C -1.716373 -1.420022 2.593097
C -1.703821 -1.295771 2.523313
C -1.649466 -1.140283 2.578080
C -1.560570 -0.747407 2.809505
C -1.511024 -0.464749 2.942992
C -1.571896 -0.563340 2.797585
C -1.621378 -0.723845 2.519084
C -1.715799 -1.056206 2.032523
C -1.873899 -1.511018 1.428559
C -2.049571 -1.908377 0.762948
C -2.223442 -2.275153 0.124009
C -2.384470 -2.670933 -0.538423
C -2.446241 -2.687642 -0.945268
C -2.496548 -2.531666 -1.129384
C -2.539435 -2.336169 -1.206922
C -2.509920 -2.098233 -1.089096
C -2.515907 -1.675635 -0.871262
C -2.444202 -1.429008 -0.701400
C -2.427612 -1.366332 -0.615599
C -2.429944 -1.333318 -0.664924
C -2.416667 -1.419906 -0.870639
C -2.407891 -1.573941 -1.055947
C -2.437392 -1.727712 -1.231139
C -2.414629 -2.101873 -1.409333
C -2.490547 -2.121514 -1.459917
C -2.473876 -1.654294 -1.184092
C -2.461446 -1.448293 -1.030657
C -2.504226 -1.274780 -0.720368
C -2.537607 -1.120738 -0.417510
C -2.574738 -1.094866 -0.214245
C -2.652062 -1.067577 0.012371
C -2.691439 -1.019108 0.371702
C -2.674521 -1.021747 0.629225
C -2.624781 -0.774421 1.127959
C -2.569296 -0.610655 1.473481
C -2.591738 -0.573927 1.609284
C -2.560961 -0.162709 1.883113
C -2.501050 0.174662 2.053400
C -2.480522 0.275670 2.115335
C -2.585699 0.125774 2.021807
C -2.655727 0.025168 1.803342
C -2.755762 -0.106105 1.572188
C -2.783981 -0.206810 1.317013
C -2.893049 -0.482032 0.888466
C -3.067913 -0.638510 0.506464
C -3.152176 -0.835287 0.071508
C -3.165153 -0.927963 -0.168295
C -3.225330 -0.854274 -0.168878
C -3.238310 -0.548938 -0.004266
C -3.215132 -0.085629 0.373007
C -3.170890 0.223889 0.734923
C -3.142713 0.237383 0.967119
C -3.168577 0.259227 1.102337
C -3.218576 0.428515 1.238999
C -3.221302 0.487536 1.289255
C -3.267696 0.408371 1.185424
C -3.364681 0.156760 1.020437
C -3.427061 -0.136831 0.854821
C -3.440132 -0.253198 0.714262
C -3.500021 -0.253479 0.687039
C -3.509389 -0.538462 0.477359
C -3.576455 -0.873879 0.229345
C -3.575941 -0.990210 0.072022
C -3.574104 -1.113350 -0.014230
C -3.611610 -0.926389 0.188411
C -3.574290 -0.824368 0.478835
C -3.501351 -0.610011 0.813148
C -3.577848 -0.134139 1.151661
C -3.492999 0.336485 1.547672
C -3.553370 0.335563 1.780749
C -3.531672 0.626305 2.053071
C -3.460656 0.828278 2.190254
C -3.444316 1.125558 2.286777
C -3.383122 1.254834 2.321647
C -3.298159 1.221437 2.369190
C -3.326785 1.205031 2.266847
C -3.262216 1.472184 2.322432
C -3.208660 1.614620 2.264888
C -3.229937 1.650404 2.048895
C -3.239018 1.495882 1.743704
C -3.362019 1.305882 1.335153
C -3.408501 1.123867 0.984066
C -3.393157 0.826133 0.638294
C -3.440392 0.521697 0.296330
C -3.551349 0.388471 0.021242
C -3.621453 0.277574 -0.233575
C -3.656815 0.281428 -0.486273
C -3.636568 0.132310 -0.735953
C -3.644663 0.010897 -1.014914
C -3.745625 -0.009509 -1.206834
C -3.727516 -0.093533 -1.438319
C -3.727023 -0.094719 -1.609772
C -3.753951 -0.038940 -1.632880
C -3.787813 0.092160 -1.588109
C -3.851917 0.304168 -1.555073
C -3.896674 0.372062 -1.648760
C -3.901881 0.365426 -1.725771
C -3.919445 0.364617 -1.876295
C -4.009434 0.316135 -2.150198
C -3.997722 0.323860 -2.324531
C -4.005261 0.456515 -2.386538
C -3.977265 0.710132 -2.361384
C -3.944558 0.787084 -2.387255
C -3.926891 1.016606 -2.308912
C -3.920021 1.198606 -2.202236
C -3.812526 1.166085 -2.193469
C -3.791804 1.169670 -2.218284
C -3.766555 1.018940 -2.355175
C -3.725500 0.661344 -2.570616
