485
chr2 3D structure from Hi-C (resolution 500000bp)
C 2.686185 -2.009223 -2.175431
C 2.668524 -2.061600 -2.139069
C 2.479174 -2.076811 -2.243933
C 2.352082 -2.028346 -2.419639
C 2.218478 -2.030317 -2.517455
C 2.255422 -2.012537 -2.563938
C 2.108094 -2.027200 -2.624905
C 2.050503 -2.027971 -2.713340
C 1.973220 -2.010463 -2.839855
C 1.852452 -1.975772 -2.873825
C 1.761783 -2.009670 -2.792684
C 1.598765 -1.971536 -2.807297
C 1.163338 -1.915796 -2.859527
C 0.698078 -1.857581 -2.896235
C 0.222847 -1.824114 -2.967884
C -0.285593 -1.732614 -2.921913
C -0.656713 -1.662286 -2.839567
C -1.046116 -1.602850 -2.856426
C -1.319528 -1.600101 -2.839090
C -1.441538 -1.643990 -2.822248
C -1.400248 -1.732313 -2.836115
C -1.320219 -1.777167 -2.793034
C -1.084219 -1.888319 -2.768722
C -0.749393 -1.986162 -2.915905
C -0.478934 -2.022555 -2.916481
C -0.113086 -2.030442 -2.979120
C 0.123160 -2.064896 -2.972746
C 0.247226 -2.108022 -2.915206
C 0.335716 -2.144389 -2.846630
C 0.466452 -2.187775 -2.859502
C 0.516153 -2.257607 -2.725481
C 0.694615 -2.384215 -2.574191
C 0.669055 -2.519955 -2.485936
C 0.812991 -2.589935 -2.433530
C 0.901008 -2.607416 -2.342205
C 1.034719 -2.717890 -2.252644
C 0.988594 -2.716980 -2.156556
C 0.789063 -2.695540 -2.129166
C 0.596487 -2.652391 -2.131538
C 0.757064 -2.670825 -2.004140
C 0.930245 -2.688467 -1.918428
C 1.160214 -2.692192 -1.879495
C 1.276129 -2.624580 -1.841529
C 1.135628 -2.655031 -1.881269
C 0.991758 -2.651947 -1.932853
C 0.621408 -2.561340 -1.949205
C -0.148338 -2.335488 -1.876430
C -0.976137 -2.124951 -1.880956
C -1.815267 -1.921484 -1.903973
C -2.557868 -1.766305 -1.922843
C -2.951762 -1.560323 -1.926502
C -3.216820 -1.471664 -1.784464
C -3.309581 -1.448125 -1.686523
C -3.181889 -1.449047 -1.662109
C -3.103256 -1.492804 -1.605196
C -2.888641 -1.633059 -1.619325
C -2.645610 -1.766391 -1.671195
C -2.485505 -1.902114 -1.644142
C -2.177829 -2.029518 -1.690166
C -1.823144 -2.142889 -1.682810
C -1.646085 -2.402666 -1.811930
C -1.616351 -2.475853 -1.957538
C -1.519453 -2.591690 -1.969598
C -1.352935 -2.669720 -1.904038
C -1.023117 -2.782603 -1.840026
C -0.702525 -2.779626 -1.678448
C -0.313353 -2.920815 -1.677732
C 0.120823 -2.933880 -1.526299
C 0.690222 -3.045745 -1.330641
C 0.959030 -3.160226 -1.269378
C 1.002659 -3.206602 -1.216123
C 0.595666 -3.135112 -1.242556
C 0.161562 -3.069743 -1.312310
C -0.449040 -3.005413 -1.354022
C -0.973716 -2.874437 -1.396582
C -1.306421 -2.984854 -1.408506
C -1.351374 -2.883711 -1.329287
C -1.171993 -2.919366 -1.269474
C -0.510402 -3.019590 -1.145483
C -0.006936 -3.116456 -1.063371
C 0.369352 -3.055237 -0.900418
C 0.491295 -3.056891 -0.825002
C 0.326386 -2.814958 -0.808561
C -0.131471 -2.681045 -0.808522
C -0.630253 -2.467211 -0.827076
C -1.366656 -2.266916 -0.791281
C -1.952481 -2.226924 -0.806796
C -2.216567 -2.237164 -0.888817
C -2.387191 -2.221960 -0.864957
C -2.458179 -2.260695 -0.795602
C -2.363359 -2.252303 -0.747208
C -2.326427 -2.335920 -0.690000
C -2.141544 -2.510184 -0.765977
C -1.891312 -2.587380 -0.728079
C -1.594122 -2.617293 -0.637796
C -1.080898 -2.678067 -0.565454
C -0.463483 -2.832902 -0.539489
C 0.063412 -2.940615 -0.468990
C 0.668965 -2.987885 -0.393779
C 1.216400 -2.962045 -0.234954
C 1.679543 -2.975257 -0.090399
C 1.966610 -3.009738 -0.002190
C 2.236679 -3.061393 0.033877
C 2.280300 -2.997799 0.119205
C 2.075180 -3.028543 0.139040
C 1.784968 -3.077461 0.126714
C 1.396487 -3.119909 0.116953
C 0.886520 -3.040008 0.051790
C 0.516846 -3.064585 0.081074
C 0.242225 -3.137675 0.148355
C 0.225699 -3.253580 0.199775
C 0.362660 -3.287082 0.274391
C 0.391863 -3.342213 0.337715
C 0.427085 -3.427056 0.387210
C 0.685248 -3.570094 0.484974
C 0.770571 -3.666086 0.518593
C 0.696128 -3.706729 0.534834
C 0.310965 -3.710342 0.479849
C -0.050938 -3.695444 0.433766
C -0.521874 -3.462822 0.409224
C -0.893546 -3.258995 0.433699
C -1.304653 -3.085537 0.436003
C -1.659418 -2.974847 0.417343
C -2.038328 -2.965712 0.421317
C -2.267765 -2.897457 0.570871
C -2.391023 -2.855356 0.666611
C -2.300947 -2.948570 0.759425
C -2.166997 -2.980213 0.793865
C -1.905553 -3.063601 0.864384
C -1.636228 -3.153995 1.049334
C -1.314226 -3.105044 1.163040
C -1.007296 -3.120271 1.178565
C -0.707512 -3.182860 1.224396
C -0.608412 -3.128058 1.213083
C -0.523258 -3.183799 1.263147
C -0.632559 -3.137316 1.247274
C -1.020534 -2.921657 1.065621
C -1.457897 -2.786935 1.004955
C -1.663543 -2.666734 0.995291
C -1.908488 -2.584987 1.093239
C -1.812615 -2.670559 1.292676
C -1.720576 -2.690926 1.430185
C -1.746243 -2.737792 1.584191
C -1.582696 -2.835583 1.742426
C -1.585343 -2.781428 1.767358
C -1.832475 -2.696869 1.718543
C -1.874508 -2.615874 1.682620
C -1.876202 -2.534685 1.607836
C -1.808413 -2.461271 1.593165
C -1.478012 -2.451031 1.698958
C -1.085364 -2.483020 1.739128
C -0.470099 -2.579357 1.887556
C 0.304751 -2.737272 2.035407
C 0.799781 -2.805252 2.074168
C 1.144813 -2.910549 2.155966
C 1.367899 -2.961826 2.128841
C 1.459383 -2.956446 1.989327
C 1.423116 -3.010729 1.991056
C 1.307571 -3.037674 1.943369
C 1.385399 -2.943580 1.966368
C 1.485918 -2.930155 1.946321
C 1.686215 -2.862159 1.916948
C 1.902279 -2.827916 1.921690
C 1.986537 -2.768345 1.954754
C 2.068681 -2.623262 1.981521
C 2.050351 -2.566193 2.001692
C 1.592156 -2.604453 2.079629
C 1.125942 -2.558084 2.100636
C 0.308797 -2.397534 1.990490
C -0.557257 -2.215740 1.942631
C -1.266161 -2.144080 1.950033
C -2.146177 -1.793589 1.763937
C -1.600725 -1.678428 1.498390
C -1.645898 -1.558181 1.409346
C -1.748496 -1.533071 1.504048
C -1.996146 -1.408522 1.439425
C -1.002033 -1.487436 1.388733
C 0.020888 -1.429006 1.191623
C 1.337167 -1.599240 0.925214
C 0.028977 -1.293704 0.880465
C -0.522924 -1.021884 0.587523
C -0.861881 -0.432371 0.286971
C -0.794328 0.007236 0.284057
C -1.905961 0.675998 0.240344
C -1.856037 0.723662 0.055746
C -1.852365 0.696567 0.181206
C -1.235533 0.351047 0.733089
C -0.993529 0.238282 1.098146
C -0.843553 -0.157711 1.425496
C -0.798879 -0.550431 1.551541
C -0.790675 -0.900952 1.624055
C -2.085937 -0.576761 1.861603
C -3.316847 -0.243917 2.061694
C -3.769551 0.137467 1.717395
C -3.793772 0.211649 1.606236
C -3.804932 0.319579 1.536934
C -3.610068 0.353447 1.676850
C -3.396037 0.289358 1.868143
C -2.989368 0.071234 2.042803
C -2.737467 -0.119387 2.274345
C -2.448726 -0.332608 2.524185
C -2.206135 -0.326749 2.675451
C -1.760029 -0.443256 2.800005
C -1.173907 -0.631326 2.931722
C -0.455948 -0.787976 2.997464
C -0.055996 -0.897901 3.140992
C 0.321575 -1.004551 3.228415
C 0.496894 -0.945685 3.171918
C 0.537823 -0.982361 3.092271
C 0.484102 -0.957088 3.122468
C 0.329195 -0.843405 3.090428
C 0.047481 -0.801281 3.180219
C -0.017758 -0.788455 3.258737
C -0.164543 -0.673759 3.238389
C -0.419574 -0.580507 3.161476
C -0.489974 -0.609516 3.247509
C -0.797688 -0.462448 3.129167
C -0.360502 -0.604766 2.990246
C -0.835650 -0.366587 2.805318
C -1.435960 -0.049660 2.591805
C -1.837298 0.166735 2.424402
C -1.959749 0.256379 2.348887
C -2.103077 0.476826 2.165967
C -1.968823 0.521413 2.116636
C -2.732687 0.810898 2.181352
C -2.306675 0.644262 2.387958
C -1.613794 0.424347 2.569774
C -0.888217 0.168431 2.790464
C -0.146358 -0.035783 3.047121
C 0.519824 -0.250744 3.286743
C 1.134416 -0.445233 3.449981
C 1.594397 -0.562093 3.536548
C 1.648436 -0.475777 3.365155
C 1.379575 -0.349108 3.246867
C 1.164520 -0.244880 3.161794
C 0.671695 -0.118055 3.075526
C 0.129643 0.054085 3.079935
C -0.435596 0.271030 3.039960
C -0.799745 0.381757 3.080667
C -1.067727 0.459455 3.152208
C -1.189289 0.476284 3.294392
C -1.251975 0.536715 3.390102
C -1.037927 0.595845 3.405689
C -0.742360 0.596372 3.484324
C -0.354726 0.513403 3.578679
C -0.015631 0.499733 3.615350
C 0.246858 0.488643 3.773912
C 0.518519 0.468770 3.834901
C 0.662971 0.420791 3.871638
C 0.806584 0.353265 3.897363
C 0.747475 0.396888 3.758719
C 0.441477 0.503603 3.540697
C 0.002596 0.654509 3.262988
C -0.345613 0.785161 3.055973
C -0.557070 0.898346 2.859887
C -0.799003 1.061715 2.738940
C -1.122558 1.237952 2.701788
C -1.496839 1.460740 2.629252
C -1.601920 1.585284 2.751198
C -1.634458 1.697327 2.898157
C -1.546512 1.788270 2.984825
C -1.619179 1.961886 3.073792
C -1.434395 1.972664 3.109860
C -1.267141 2.008795 3.205080
C -0.916785 1.865979 3.261521
C -0.784938 1.826822 3.157234
C -0.673246 1.838978 3.104568
C -0.748527 1.938551 2.973746
C -0.877843 1.967914 2.767445
C -1.023525 2.134329 2.666539
C -0.924628 2.158690 2.635602
C -0.708743 2.202709 2.691726
C -0.442157 2.176642 2.746865
C -0.227851 2.180402 2.772477
C 0.198026 2.000439 2.787654
C 0.785175 1.833966 2.886673
C 1.173241 1.584899 2.880984
C 1.347761 1.485609 2.810280
C 1.544798 1.376053 2.757750
C 1.708004 1.367888 2.734546
C 1.981897 1.219154 2.679142
C 2.186184 1.167896 2.681249
C 2.249682 1.255107 2.716656
C 2.099285 1.381592 2.601791
C 1.899138 1.511661 2.520439
C 1.604313 1.738657 2.450956
C 1.767193 1.597444 2.431635
C 1.912217 1.504863 2.400609
C 1.944338 1.458393 2.322019
C 2.070315 1.284503 2.220503
C 2.353001 1.162954 2.300552
C 2.445444 1.218981 2.337165
C 2.528860 1.128038 2.270054
C 2.123589 1.431918 2.220530
C 1.712623 1.825119 2.271511
C 1.474702 2.077182 2.235106
C 1.282581 2.290221 2.202511
C 1.189370 2.460752 2.174101
C 1.235566 2.499746 2.128249
C 1.258855 2.540358 2.077195
C 1.209353 2.690385 2.068362
C 1.235709 2.638168 1.961156
C 1.259441 2.570725 1.922302
C 1.373027 2.495382 1.882857
C 1.427379 2.460351 1.813759
C 1.678011 2.235529 1.750435
C 1.927113 2.232059 1.706343
C 2.381998 1.963836 1.600367
C 2.740023 1.807062 1.536751
C 2.835850 1.908582 1.527997
C 2.939694 1.934189 1.468820
C 2.913481 2.053060 1.426270
C 2.754030 2.250288 1.402522
C 2.721517 2.218682 1.381169
C 2.512690 2.350547 1.389908
C 2.234326 2.378930 1.290796
C 1.942222 2.289653 1.201360
C 1.754444 2.289763 1.174995
C 1.719225 2.181988 1.091902
C 1.556694 2.295582 1.030219
C 1.722247 2.032435 1.005803
C 1.947932 1.770596 0.869215
C 2.325318 1.624393 0.855788
C 2.879403 1.461718 0.830391
C 3.184929 1.267395 0.758101
C 3.387334 1.108643 0.767084
C 3.656064 0.817624 0.671904
C 3.620762 1.052563 0.582872
C 3.625533 1.118096 0.519174
C 3.680972 1.029622 0.395113
C 3.720699 0.902531 0.280151
C 3.711457 0.880554 0.211078
C 3.652442 0.998861 0.110162
C 3.361713 1.176538 0.106784
C 2.867261 1.370029 0.188043
C 2.413248 1.608083 0.284572
C 1.709670 1.904371 0.398894
C 0.947256 2.335561 0.505892
C 0.163645 2.684729 0.568164
C 0.154973 2.537531 0.411388
C -0.256372 2.570528 0.409179
C -0.485055 2.483633 0.348135
C -0.726018 2.408139 0.334027
C -0.821991 2.465185 0.320047
C -0.837306 2.450486 0.283974
C -0.875329 2.478809 0.257970
C -1.509634 2.889441 0.439183
C -1.415749 3.053375 0.421885
C -1.278994 3.178300 0.445379
C -1.178138 3.311716 0.408922
C -1.101258 3.392603 0.376220
C -1.119608 3.491811 0.357797
C -0.878304 3.530496 0.308518
C -0.674324 3.513093 0.262891
C -0.472052 3.474698 0.211175
C -0.287792 3.404904 0.096126
C 0.084562 3.311810 0.018001
C 0.511897 3.244672 -0.031470
C 1.085955 3.188339 -0.111079
C 1.213677 3.310152 -0.163023
C 1.396792 3.382402 -0.239695
C 1.663858 3.366299 -0.350199
C 1.812925 3.431817 -0.384431
C 1.767316 3.452947 -0.401821
C 1.843601 3.355967 -0.496553
C 1.902670 3.254844 -0.612498
C 2.258702 2.996288 -0.751520
C 2.485623 2.810047 -0.804473
C 2.628482 2.601204 -0.835320
C 2.625113 2.525164 -0.934760
C 2.683008 2.440355 -1.015483
C 2.782628 2.389380 -1.079358
C 2.840555 2.257358 -1.107682
C 2.890645 2.107112 -1.156303
C 3.005735 1.888100 -1.246442
C 2.900659 1.894991 -1.284892
C 2.845058 1.845745 -1.277866
C 2.678417 1.991260 -1.279237
C 2.134640 2.239959 -1.194018
C 1.903814 2.359179 -1.218295
C 1.682331 2.539187 -1.256838
C 1.605151 2.606580 -1.301269
C 1.771279 2.438857 -1.435983
C 2.062758 2.156834 -1.628208
C 2.444724 1.800597 -1.802032
C 2.981328 1.442236 -2.050311
C 3.156137 1.246259 -2.140185
C 3.227489 1.123163 -2.187756
C 3.084561 1.216973 -2.223656
C 2.669670 1.579768 -2.146204
C 2.132797 1.960323 -2.021811
C 1.570673 2.262148 -1.875451
C 1.186604 2.470504 -1.728966
C 0.872020 2.763807 -1.674731
C 0.668962 2.963337 -1.675799
C 0.394720 3.214155 -1.572476
C 0.363052 3.177310 -1.547094
C 0.321009 3.145325 -1.514909
C 0.209612 3.156644 -1.550026
C -0.061157 3.182066 -1.510876
C -0.394859 3.094808 -1.407662
C -0.868068 3.041498 -1.257650
C -1.157516 2.949771 -1.266991
C -1.410479 2.919643 -1.262976
C -1.377808 2.829140 -1.340637
C -1.127792 2.791873 -1.434976
C -0.689958 2.720048 -1.680364
C -0.320551 2.653247 -1.823690
C -0.029341 2.685190 -1.941420
C 0.086433 2.624456 -2.004335
C 0.203809 2.599489 -2.065604
C 0.144955 2.640728 -2.055885
C 0.025305 2.657490 -2.055777
C -0.170794 2.724159 -1.999085
C -0.005945 2.660654 -2.073740
C 0.312768 2.454513 -2.201961
C 0.782636 2.199176 -2.406852
C 1.075046 2.082738 -2.536569
C 1.436766 1.921868 -2.680783
C 1.750087 1.741281 -2.828519
C 1.995011 1.527730 -2.957147
C 1.951443 1.436454 -3.024837
C 1.782201 1.489546 -3.010884
C 1.523759 1.685298 -2.945398
C 1.510325 1.592155 -2.976425
C 1.479285 1.502531 -3.100486
C 1.374891 1.436723 -3.193009
C 1.270287 1.416489 -3.243205
C 1.002844 1.606571 -3.222565
C 0.651824 1.636884 -3.146997
C 0.355789 1.579791 -3.097883
C -0.081091 1.683230 -3.004651
C -0.619895 1.873862 -2.860878
C -1.081255 2.000930 -2.551738
C -1.695531 2.194337 -2.240683
C -2.049202 2.118910 -2.232340
C -1.977777 2.078186 -2.361146
C -1.733600 2.006437 -2.424632
C -1.532930 1.935357 -2.616399
C -1.228204 1.858647 -2.649350
C -0.895538 1.778422 -2.964812
C -0.462289 1.662114 -3.222330
C -0.196782 1.696777 -3.320325
C -0.083651 1.645417 -3.366873
C -0.147195 1.663170 -3.408162
C -0.174539 1.664785 -3.325138
C -0.285240 1.606977 -3.380843
C -0.260804 1.597401 -3.271467
C -0.153027 1.528591 -3.271643
C -0.023210 1.368097 -3.314888
C -0.078794 1.323689 -3.386782
C -0.111662 1.348275 -3.353093
C -0.066964 1.340348 -3.323656
C 0.026628 1.319247 -3.392115
C -0.043714 1.278637 -3.502468
C -0.208949 1.287230 -3.464837
C -0.413690 1.380113 -3.349426
C -0.574509 1.425445 -3.057319
C -0.856586 1.460266 -2.885456
C -1.216834 1.468188 -2.710965
C -1.639980 1.536048 -2.403496
C -2.019008 1.572702 -2.144050
C -2.384185 1.628013 -1.985215
C -2.618948 1.585976 -1.790729
C -2.713383 1.552830 -1.938971
C -2.671384 1.388826 -2.123778
C -2.556165 1.300916 -2.282804
C -2.375709 1.263369 -2.395899
C -2.268818 1.225630 -2.548163
C -2.191863 1.127797 -2.724382
C -2.134039 1.080183 -2.859417
C -2.206395 1.082257 -2.813118
C -2.362952 1.115481 -2.692005
C -2.532672 1.133948 -2.574185
C -2.672110 1.069004 -2.575734
C -2.851497 1.031154 -2.473193
C -2.913670 1.024405 -2.376093
C -3.087776 1.059752 -2.260506
C -3.204937 1.104916 -2.152481
C -3.265682 1.080197 -2.045244
C -3.415628 1.101348 -1.911787
C -3.676481 1.179659 -1.600818
C -3.757088 1.246524 -1.476100
C -3.934871 1.315070 -1.264551
C -4.025027 1.320022 -1.144668
