485
chr2 3D structure from Hi-C (resolution 500000bp)
C -0.697410 1.489766 3.852864
C -0.827242 1.447284 3.856243
C -0.933063 1.384249 3.811282
C -1.055104 1.137235 3.838889
C -1.112089 1.055031 3.824234
C -1.168704 1.043005 3.865886
C -1.267086 0.973287 3.801279
C -1.241252 1.051236 3.761038
C -1.242381 0.936419 3.790914
C -1.276442 0.761958 3.733936
C -1.268026 0.786635 3.648755
C -1.385460 0.631766 3.534878
C -1.561707 0.273040 3.342217
C -1.794216 -0.117601 3.117961
C -2.097242 -0.612439 2.901721
C -2.313402 -0.878033 2.576420
C -2.468570 -1.073951 2.338047
C -2.647173 -1.319904 2.134218
C -2.744718 -1.422954 2.047486
C -2.846561 -1.471266 2.026013
C -2.894538 -1.419427 2.084787
C -2.812591 -1.246372 2.138942
C -2.699675 -1.055962 2.240727
C -2.640215 -0.907849 2.493609
C -2.545686 -0.664572 2.635542
C -2.434495 -0.444227 2.806281
C -2.327756 -0.137107 2.909346
C -2.278802 -0.027098 2.947892
C -2.288065 0.105727 2.977290
C -2.299452 0.264030 3.080679
C -2.271208 0.439814 3.088064
C -2.231998 0.631351 3.086817
C -2.269557 0.731107 3.033097
C -2.291708 0.807442 3.001589
C -2.266385 0.943979 2.960451
C -2.265954 1.047423 2.938658
C -2.314845 1.028893 2.798915
C -2.459160 0.920443 2.583742
C -2.574677 0.820355 2.456413
C -2.458890 1.007652 2.482771
C -2.301033 1.176520 2.553400
C -2.184444 1.345508 2.680672
C -2.056685 1.412516 2.746667
C -2.102632 1.346514 2.751713
C -2.144783 1.211839 2.773299
C -2.200124 0.845504 2.521744
C -2.453859 0.186030 2.094569
C -2.755924 -0.512018 1.587342
C -3.047868 -1.135624 1.057920
C -3.322873 -1.694367 0.529290
C -3.409530 -2.063161 0.124950
C -3.394239 -2.307832 -0.253454
C -3.430651 -2.307891 -0.262940
C -3.380511 -2.160576 -0.274415
C -3.378188 -2.081249 -0.192886
C -3.339167 -2.004446 -0.072312
C -3.330076 -1.801348 0.168331
C -3.304530 -1.703550 0.370253
C -3.297790 -1.476498 0.620633
C -3.187225 -1.235276 0.683469
C -3.291935 -1.116557 0.888291
C -3.382956 -1.096219 0.952665
C -3.456445 -0.873944 1.119297
C -3.427138 -0.649983 1.198110
C -3.355936 -0.240136 1.369883
C -3.140745 0.194176 1.485628
C -2.959766 0.637670 1.799686
C -2.693382 1.071773 1.908260
C -2.381425 1.630770 2.101642
C -2.144676 1.993831 2.238773
C -2.107441 2.035610 2.197073
C -2.302161 1.728376 1.994681
C -2.547845 1.339176 1.793201
C -2.912238 0.760253 1.432250
C -3.164218 0.400640 1.137740
C -3.484155 0.129586 1.019119
C -3.597863 -0.001324 0.877454
C -3.584377 0.168979 0.973635
C -3.402668 0.628645 1.135586
C -3.119058 1.018142 1.314836
C -2.878525 1.411343 1.438894
C -2.804986 1.469135 1.502019
C -2.634375 1.352572 1.304539
C -2.707412 0.958668 0.974594
C -2.776977 0.556134 0.630276
C -2.904530 0.038046 0.299157
C -3.243968 -0.365862 -0.006327
C -3.415930 -0.654013 -0.177097
C -3.411927 -0.769759 -0.321743
C -3.516911 -0.788608 -0.342977
C -3.527411 -0.642611 -0.282549
C -3.576454 -0.546096 -0.234486
C -3.614627 -0.372049 -0.145139
C -3.556506 -0.166824 -0.075406
C -3.352943 0.191493 0.088967
C -3.112770 0.570959 0.318846
C -2.832993 1.081145 0.599258
C -2.643775 1.461232 0.856019
C -2.314052 1.894805 1.138034
C -1.927315 2.355786 1.388150
C -1.557453 2.756833 1.672018
C -1.423554 3.000669 1.749328
C -1.325453 3.214541 1.917399
C -1.351234 3.240469 1.877215
C -1.436867 3.137101 1.749183
C -1.696678 2.953857 1.531696
C -1.967148 2.706075 1.297832
C -2.207408 2.333748 0.991492
C -2.407933 2.124698 0.830465
C -2.603537 2.024839 0.616699
C -2.599715 2.109577 0.590978
C -2.506985 2.303865 0.607045
C -2.451852 2.425390 0.593782
C -2.440117 2.541006 0.567217
C -2.449023 2.863826 0.642327
C -2.473064 3.003240 0.598157
C -2.537823 3.030425 0.549867
C -2.764616 2.815648 0.338300
C -2.953514 2.553640 0.184477
C -3.072430 2.142954 -0.063999
C -3.136804 1.721226 -0.306220
C -3.255463 1.338942 -0.561369
C -3.358758 1.085034 -0.728375
C -3.557833 0.873888 -1.016487
C -3.666854 0.729328 -1.149532
C -3.701883 0.548006 -1.337580
C -3.655674 0.557071 -1.365730
C -3.591422 0.732695 -1.282694
C -3.497086 0.957236 -1.218749
C -3.412973 1.204726 -1.236544
C -3.179847 1.399385 -1.129687
C -2.943501 1.614686 -1.083573
C -2.792861 1.962134 -0.957482
C -2.686830 2.121828 -0.873834
C -2.702253 2.246815 -0.906082
C -2.709924 2.107026 -1.002263
C -2.773014 1.736988 -1.118506
C -2.876753 1.381194 -1.381716
C -2.955536 1.175636 -1.472768
C -3.059907 1.037277 -1.661915
C -3.057064 1.246104 -1.727276
C -2.916773 1.428326 -1.723596
C -2.900659 1.651361 -1.770728
C -2.865121 1.768838 -1.808913
C -2.859456 1.718686 -1.755871
C -2.887800 1.392753 -1.883257
C -2.819397 1.379599 -1.905687
C -2.785364 1.316849 -1.893422
C -2.791023 1.263599 -1.918594
C -2.677501 1.464104 -1.814016
C -2.459865 1.777612 -1.643008
C -2.189794 2.329813 -1.394873
C -1.862071 3.093178 -1.104114
C -1.596920 3.410422 -0.784155
C -1.441317 3.694854 -0.612619
C -1.270188 3.858575 -0.445604
C -1.147623 3.831214 -0.279407
C -1.055357 3.938346 -0.107878
C -1.030620 3.903657 -0.160061
C -0.956734 3.905298 -0.071857
C -0.893877 3.933850 -0.074460
C -0.720057 4.023752 0.063410
C -0.569095 4.162319 0.200032
C -0.443817 4.194602 0.279437
C -0.423719 4.135467 0.148611
C -0.463425 4.039131 0.088147
C -0.716704 3.812097 -0.274078
C -0.974749 3.439732 -0.563236
C -1.356471 2.752268 -1.041224
C -1.759164 2.091850 -1.540672
C -2.146812 1.469518 -2.065382
C -2.464351 0.563100 -2.405580
C -2.676466 -0.298566 -2.665942
C -2.621450 -0.443045 -2.628870
C -2.652136 -0.418111 -2.790977
C -2.685698 -0.658004 -2.940581
C -2.199868 -0.035866 -2.300966
C -1.630029 0.620630 -1.517213
C -1.525536 0.467318 -1.489550
C -0.940639 1.386120 -0.584632
C -0.530711 1.652873 0.104318
C -0.289213 0.943176 0.062559
C 0.053675 0.679974 0.096019
C -0.036406 -0.477086 -0.635085
C -0.139016 -1.590277 -1.500611
C 0.232516 -1.526844 -1.673234
C -0.109530 -1.752592 -2.747728
C -0.521151 -2.177935 -3.719747
C -0.672523 -1.836472 -3.797052
C -0.895913 -1.556401 -3.785090
C -1.146876 -1.290395 -3.775170
C -1.435501 -1.161881 -3.779276
C -1.715579 -0.938639 -3.764962
C -1.778631 -1.334388 -3.744078
C -1.740498 -1.493996 -3.721572
C -1.728955 -1.304151 -3.703088
C -1.589568 -0.936917 -3.734239
C -1.498219 -0.616981 -3.790711
C -1.342968 -0.146937 -3.696903
C -1.215464 0.112811 -3.649797
C -1.101102 0.328434 -3.624203
C -0.996677 0.555438 -3.569081
C -0.751606 0.753260 -3.461071
C -0.539056 1.196022 -3.210176
C -0.265621 1.778116 -2.823619
C -0.114894 2.190612 -2.698571
C -0.011828 2.575766 -2.566662
C 0.076696 2.686647 -2.464779
C 0.142349 2.677117 -2.350181
C 0.132786 2.745112 -2.337052
C 0.122902 2.551782 -2.406673
C -0.000036 2.394884 -2.601286
C -0.086186 2.329516 -2.740929
C -0.104231 2.144402 -2.841872
C -0.143041 1.919505 -2.868788
C -0.193517 1.723632 -2.978981
C -0.189211 1.330739 -3.117353
C -0.213278 0.669223 -3.407257
C -0.258351 0.056576 -3.578336
C -0.331439 -0.636499 -3.711160
C -0.372035 -1.073138 -3.828516
C -0.429264 -1.265163 -3.844920
C -0.427121 -1.390925 -3.825290
C -0.429344 -1.350179 -3.690566
C -0.430584 -1.083043 -3.552738
C -0.307444 -0.602014 -3.520975
C -0.096493 0.068065 -3.354318
C 0.141249 0.797990 -2.987713
C 0.392131 1.538602 -2.814189
C 0.651148 2.174712 -2.631936
C 0.826669 2.793207 -2.464180
C 1.019700 3.257996 -2.261826
C 1.104788 3.212585 -2.046435
C 1.088151 3.031350 -2.017534
C 1.038302 2.704996 -2.168698
C 0.963905 2.315487 -2.336875
C 0.838165 1.883133 -2.641191
C 0.773124 1.361684 -2.911486
C 0.619302 1.017999 -3.166503
C 0.557940 0.845861 -3.375755
C 0.608709 0.765721 -3.557333
C 0.655057 0.845648 -3.658237
C 0.802902 0.986887 -3.555064
C 0.955926 1.284320 -3.453254
C 1.065434 1.652599 -3.299025
C 1.239564 1.976433 -3.174354
C 1.400222 2.336034 -3.058005
C 1.497624 2.549047 -2.966862
C 1.614630 2.667444 -2.867253
C 1.613364 2.660985 -2.816973
C 1.634390 2.533868 -2.685317
C 1.560253 2.197588 -2.674295
C 1.413430 1.698498 -2.677129
C 1.308133 1.133283 -2.821194
C 1.250255 0.861547 -2.784163
C 1.150077 0.508143 -2.892281
C 1.148275 0.283978 -3.044342
C 1.124761 -0.121866 -3.313300
C 1.226413 -0.255072 -3.491146
C 1.401317 -0.169931 -3.653314
C 1.562951 -0.133398 -3.677249
C 1.755619 -0.010343 -3.725018
C 1.881660 0.105813 -3.639727
C 1.995239 0.176373 -3.650567
C 2.036632 0.475113 -3.435179
C 2.051041 0.536963 -3.242155
C 2.108372 0.560657 -3.094211
C 2.147037 0.430005 -3.055146
C 2.073310 0.043869 -3.051540
C 2.107564 -0.139674 -3.092993
C 2.182796 0.097131 -2.851575
C 2.362199 0.263444 -2.763328
C 2.482523 0.554103 -2.644378
C 2.573881 0.710063 -2.520933
C 2.619930 1.123145 -2.283217
C 2.728606 1.574130 -1.979933
C 2.719843 1.958454 -1.642769
C 2.744947 1.969391 -1.507643
C 2.812904 2.008349 -1.373210
C 2.885288 2.075669 -1.266330
C 2.844846 2.235910 -1.072646
C 2.856552 2.400354 -0.827897
C 2.864896 2.564056 -0.742239
C 2.907023 2.295478 -0.840649
C 2.890448 2.020722 -0.998129
C 2.748662 2.108765 -0.875093
C 2.664212 2.281552 -0.656060
C 2.669886 2.419822 -0.522948
C 2.649309 2.417757 -0.480995
C 2.639493 2.411429 -0.340890
C 2.662833 2.678743 -0.054857
C 2.746154 2.748340 -0.045062
C 2.823280 2.420845 -0.161245
C 2.827933 2.090544 -0.273577
C 2.820332 2.038456 -0.204851
C 2.872440 1.782443 -0.377836
C 2.864022 1.616726 -0.450548
C 2.918802 1.570057 -0.569310
C 2.889124 1.727155 -0.306036
C 2.865952 1.753527 -0.249099
C 3.009164 1.487652 -0.533429
C 3.105216 0.998377 -0.934194
C 3.042655 0.938492 -0.841086
C 3.101345 0.955052 -0.761295
C 3.125329 0.906643 -0.682641
C 3.102714 0.953821 -0.517177
C 3.268581 1.027134 -0.421013
C 3.344998 1.332139 -0.149746
C 3.417872 1.630582 0.182637
C 3.605527 1.634810 0.165567
C 3.753610 1.434993 0.030635
C 3.833806 1.189996 -0.142388
C 3.948967 0.970596 -0.377853
C 3.942425 0.837323 -0.555448
C 3.861172 0.615432 -0.664636
C 3.674945 0.285177 -0.867778
C 3.427997 0.104751 -0.997333
C 3.273863 0.006861 -1.026651
C 3.159191 0.058565 -0.902087
C 3.148417 -0.197595 -1.018395
C 3.006143 0.082831 -0.527842
C 2.926395 0.344289 -0.154081
C 3.031717 0.719642 0.268425
C 3.225588 1.091477 0.692405
C 3.110877 1.484267 1.158861
C 3.150672 1.707475 1.349180
C 3.121331 1.894372 1.628769
C 3.325935 1.516813 1.288978
C 3.488843 1.261947 1.154214
C 3.659633 1.109096 1.042371
C 3.535688 1.212128 1.119260
C 3.575493 1.213545 1.058407
C 3.621911 0.966514 0.918475
C 3.509159 0.843445 0.811702
C 3.317567 0.711630 0.679867
C 3.131997 0.535764 0.482527
C 2.779633 0.119929 0.123649
C 2.653475 -0.631261 -0.458376
C 2.510873 -1.356473 -1.053832
C 2.166340 -1.876470 -1.389740
C 1.983552 -2.216418 -1.673422
C 1.763848 -2.340392 -1.764081
C 1.610228 -2.447722 -1.837052
C 1.648883 -2.502565 -1.862783
C 1.625226 -2.471990 -1.779795
C 1.703164 -2.445933 -1.750939
C 1.848860 -2.286807 -1.660548
C 2.020302 -2.312800 -1.638264
C 2.173336 -2.283850 -1.544032
C 2.296376 -2.283093 -1.513753
C 2.380637 -2.295312 -1.441232
C 2.598331 -2.289212 -1.474786
C 2.709745 -2.232004 -1.281670
C 2.777611 -2.160717 -1.168617
C 2.898147 -2.009638 -0.942557
C 2.985294 -1.914031 -0.752392
C 3.098592 -1.724165 -0.451208
C 3.226630 -1.406109 -0.101639
C 3.307950 -1.041743 0.489560
C 3.457712 -0.993324 0.678838
C 3.584516 -0.802557 1.037914
C 3.647937 -0.606869 1.359562
C 3.726228 -0.441662 1.608106
C 3.693146 -0.454197 1.632191
C 3.642609 -0.389339 1.746519
C 3.578254 -0.280165 1.763156
C 3.435794 0.093945 2.071985
C 3.342720 0.254165 2.171466
C 3.189953 0.399096 2.277054
C 3.084814 0.359245 2.329583
C 3.062428 0.396225 2.428681
C 2.966753 0.417245 2.562005
C 2.874379 0.373035 2.647856
C 2.773843 0.346570 2.716674
C 2.650590 0.419194 2.848581
C 2.621071 0.320590 2.812218
C 2.592144 0.192141 2.651430
C 2.653619 -0.050044 2.467514
C 2.673203 -0.540586 1.971531
C 2.748677 -0.869395 1.682613
C 2.908015 -1.204656 1.414748
C 2.954393 -1.421267 1.399131
C 2.888694 -1.344381 1.594541
C 2.766754 -1.092879 2.017004
C 2.545238 -0.720905 2.531762
C 2.468349 -0.260545 3.145155
C 2.433268 -0.125298 3.386889
C 2.321581 -0.035295 3.569907
C 2.393185 -0.191528 3.389121
C 2.470358 -0.625169 2.998821
C 2.573738 -1.075606 2.440729
C 2.609636 -1.487246 1.880079
C 2.637080 -1.852379 1.471592
C 2.638670 -2.050762 1.289663
C 2.647763 -2.278335 1.176087
C 2.619138 -2.469904 1.113820
C 2.594407 -2.443479 1.160385
C 2.550258 -2.477539 1.223511
C 2.511812 -2.577359 1.204857
C 2.390956 -2.693019 1.056010
C 2.197817 -2.862900 0.773460
C 1.988489 -3.027086 0.452308
C 1.779947 -3.173714 0.111404
C 1.635915 -3.328997 -0.106955
C 1.558728 -3.313080 -0.084611
C 1.578333 -3.250197 0.155051
C 1.597905 -3.120443 0.632457
C 1.692251 -2.914950 1.006823
C 1.772559 -2.733322 1.294102
C 1.827505 -2.630982 1.552436
C 1.854689 -2.527475 1.789444
C 1.801545 -2.495657 1.857959
C 1.799286 -2.575380 1.709043
C 1.845708 -2.544569 1.568385
C 1.816572 -2.488164 1.731535
C 1.829767 -2.370109 1.951603
C 1.718100 -2.102471 2.397484
C 1.752665 -1.978412 2.592784
C 1.810413 -1.821057 2.850362
C 1.795399 -1.489430 3.257587
C 1.731692 -1.305625 3.493078
C 1.654548 -1.251610 3.515672
C 1.565058 -1.272448 3.477163
C 1.622387 -1.391567 3.282496
C 1.493040 -1.391968 3.354749
C 1.367467 -1.395244 3.482275
C 1.225270 -1.558990 3.484665
C 1.096978 -1.700924 3.459147
C 0.988939 -1.887585 3.365767
C 0.893150 -2.169856 2.971568
C 0.763045 -2.401077 2.647183
C 0.640965 -2.670098 2.266152
C 0.497809 -3.059998 1.790794
C 0.391150 -3.313701 1.300551
C 0.332133 -3.675111 0.707675
C 0.269319 -3.964244 0.200291
C 0.222281 -3.978305 0.358922
C 0.241347 -3.897473 0.508438
C 0.200389 -3.814299 0.770628
C 0.312075 -3.623284 0.900588
C 0.279577 -3.587759 1.215017
C 0.293334 -3.448577 1.557717
C 0.359493 -3.358565 1.951872
C 0.405212 -3.275524 2.100689
C 0.414838 -3.269773 2.144319
C 0.477705 -3.277637 2.006492
C 0.490545 -3.354570 2.045897
C 0.670019 -3.220384 2.038971
C 0.717771 -3.119472 2.167798
C 0.606737 -2.955225 2.338416
C 0.525090 -2.944772 2.413420
C 0.461914 -2.907892 2.493979
C 0.466203 -2.841791 2.533339
C 0.308950 -2.771690 2.726581
C 0.104319 -2.813485 2.837136
C 0.053884 -2.830636 2.780919
C 0.039566 -2.966713 2.536772
C 0.068691 -2.970099 2.142670
C 0.006599 -3.130452 1.824629
C -0.053462 -3.250529 1.478814
C -0.120323 -3.411273 0.930375
C -0.140510 -3.539050 0.422648
C -0.259769 -3.708796 -0.014737
C -0.292134 -3.665532 -0.302694
C -0.494079 -3.784783 -0.244158
C -0.590006 -3.782595 -0.114200
C -0.728059 -3.761584 0.130080
C -0.720964 -3.643554 0.379964
C -0.786587 -3.636013 0.604216
C -0.906197 -3.627831 0.865286
C -1.003098 -3.664035 0.979776
C -1.001197 -3.670378 0.960210
C -1.054020 -3.705654 0.778962
C -1.066976 -3.754833 0.605045
C -1.088339 -3.825995 0.415879
C -1.122456 -3.874981 0.139843
C -1.084205 -3.840715 -0.179211
C -1.134659 -3.931458 -0.314417
C -1.224631 -3.952351 -0.518608
C -1.261291 -3.910654 -0.617378
C -1.350577 -3.927229 -0.860846
C -1.458937 -3.945951 -1.242516
C -1.501537 -3.928425 -1.324005
C -1.586231 -3.967715 -1.383662
C -1.625679 -3.918720 -1.595930
