268
chr10 3D structure from Hi-C (resolution 500000bp)
C -1.964222 2.462094 2.021148
C -1.713474 2.354895 2.232296
C -1.612579 2.314403 2.377333
C -1.620102 2.437208 2.315033
C -1.448879 2.416663 2.374800
C -1.252341 2.414614 2.379453
C -1.137391 2.421944 2.465152
C -1.207676 2.544415 2.502926
C -1.339573 2.692295 2.174493
C -1.395553 2.822263 1.876843
C -1.334411 2.855648 1.817755
C -1.269702 2.920995 1.625898
C -1.215128 3.073906 1.551766
C -1.120104 3.171564 1.483120
C -0.955503 3.138291 1.580206
C -0.816110 3.082780 1.966934
C -0.625385 2.998627 2.307310
C -0.425088 2.836217 2.583777
C -0.340897 2.782605 2.855656
C -0.309121 2.792988 2.717628
C -0.480483 2.850375 2.441171
C -0.744280 2.933557 1.984667
C -0.878077 3.070095 1.432863
C -1.051053 3.196289 0.950928
C -1.235432 3.387367 0.437095
C -1.272254 3.453654 0.096418
C -1.370410 3.408016 -0.010249
C -1.185659 3.406031 0.070318
C -0.811451 3.324114 0.492450
C -0.434129 3.085391 1.060920
C -0.127026 3.035019 1.366004
C 0.174035 2.912129 1.673206
C 0.393110 2.885581 1.892400
C 0.717216 2.783679 2.240440
C 1.014745 2.537165 2.560078
C 1.207213 2.385907 2.560409
C 1.315762 2.403619 2.448705
C 1.494540 2.285331 2.496835
C 1.638446 2.215153 2.602551
C 1.734557 2.213937 2.497234
C 1.709868 2.454821 2.172533
C 1.634603 2.783588 1.802974
C 1.435442 3.037544 1.469737
C 1.404365 3.258556 1.206840
C 1.485384 3.337395 1.179147
C 1.479735 3.477598 0.988981
C 1.502801 3.481913 0.932957
C 1.722217 3.297643 1.165643
C 1.824208 3.083563 1.272201
C 1.910954 3.044474 1.164934
C 1.875228 3.041695 0.955305
C 1.662961 3.147773 0.521471
C 1.720604 3.124411 0.277496
C 1.801144 3.109946 0.186666
C 1.798488 3.058460 -0.029132
C 1.889816 3.079534 -0.199082
C 1.882946 2.946936 -0.131286
C 1.740214 2.953091 -0.146329
C 1.639661 2.894567 -0.185138
C 1.442233 2.965649 -0.366497
C 1.242513 3.068834 -0.564660
C 1.101296 3.105283 -0.708869
C 1.176600 3.042127 -0.632250
C 1.433695 3.040677 -0.551071
C 1.864306 2.785472 -0.262614
C 2.250667 2.599997 0.020389
C 2.486032 2.364917 0.357729
C 2.880249 2.143761 0.540589
C 3.192516 1.862020 0.912795
C 3.237250 1.630207 1.160569
C 3.267809 1.426621 1.398815
C 3.294792 1.191609 1.615144
C 3.287300 1.013254 1.857797
C 3.307087 0.737313 2.229971
C 3.150432 0.372757 2.813455
C 2.987852 0.235950 3.144598
C 2.724304 0.027736 3.478386
C 2.512879 -0.306913 3.752048
C 2.369541 -0.630298 3.876070
C 2.372956 -1.025804 3.963904
C 2.482004 -1.269719 3.894979
C 2.684727 -1.356427 3.617611
C 2.757256 -1.369341 3.233621
C 2.768909 -0.969804 2.345245
C 2.875753 -0.454457 1.463761
C 2.801897 0.019877 0.763991
C 2.662391 0.575754 0.021716
C 2.440210 1.171033 -0.870707
C 2.104383 1.703420 -1.657937
C 1.769946 2.071624 -2.295485
C 1.607822 2.192061 -2.627344
C 1.387414 2.128440 -2.737888
C 1.018595 2.503082 -3.052847
C 0.748949 2.530573 -3.234983
C 0.467712 2.361468 -3.122010
C 0.282138 2.203243 -3.068154
C 0.351754 2.045891 -3.066382
C 0.547701 1.806741 -2.979927
C 0.782336 1.732529 -3.047111
C 1.410967 1.293559 -2.775423
C 1.792412 1.099252 -2.541655
C 2.235480 1.000639 -2.372627
C 2.689592 0.759828 -2.168706
C 3.065996 0.462089 -1.732477
C 3.402990 0.160932 -1.220993
C 3.628074 -0.024134 -0.868634
C 3.586936 -0.199313 -0.783694
C 3.740770 -0.375228 -0.625709
C 3.841831 -0.573465 -0.595475
C 3.804974 -0.643135 -0.580109
C 3.715709 -0.655492 -0.752507
C 3.595034 -0.649285 -0.857338
C 3.431405 -0.687751 -0.916965
C 3.372752 -0.831646 -1.062303
C 3.193965 -0.874217 -1.324840
C 3.023887 -0.892063 -1.445391
C 2.956034 -0.827011 -1.637586
C 2.946594 -0.759606 -1.884899
C 2.866979 -0.733999 -2.240827
C 2.820530 -0.814515 -2.569980
C 2.629786 -0.683237 -2.734072
C 2.464296 -0.594106 -2.756644
C 2.243434 -0.506849 -2.981112
C 2.056311 -0.490815 -3.092724
C 1.885905 -0.571353 -2.963795
C 1.965092 -0.772428 -2.540498
C 2.053487 -0.932511 -2.007478
C 2.319207 -1.200267 -1.623273
C 2.546814 -1.463006 -1.314369
C 2.808701 -1.716208 -0.896536
C 2.992785 -1.976435 -0.538115
C 3.187370 -2.227812 -0.415533
C 2.964821 -2.142892 -0.903073
C 2.505518 -1.879213 -1.485301
C 1.764307 -1.335058 -1.869720
C 1.042346 -0.816377 -2.244947
C 0.347716 -0.392850 -2.483283
C -0.401638 0.112540 -2.655915
C -1.144420 0.665154 -2.791194
C -1.763511 1.092611 -2.606131
C -2.158377 1.320130 -2.439337
C -2.310010 1.399739 -2.425882
C -2.434945 1.578378 -2.354516
C -2.506801 1.836665 -2.411894
C -2.433200 1.851090 -2.571828
C -2.348861 1.911859 -2.796185
C -2.090158 1.836578 -3.104728
C -1.922282 1.702622 -3.136618
C -1.337519 1.033775 -3.100531
C -0.711394 0.188033 -2.721440
C -0.174243 -0.597004 -2.393858
C 0.092566 -1.090966 -2.268498
C 0.356537 -1.659980 -2.204488
C 0.350760 -2.161838 -1.923272
C 0.471610 -2.476626 -1.790923
C 0.140898 -2.328551 -1.683352
C -0.037371 -2.238383 -2.117263
C -0.211155 -2.145144 -2.364702
C -0.017387 -2.304407 -2.251394
C 0.145709 -2.393107 -1.983665
C 0.536790 -2.512848 -1.730643
C 0.891243 -2.682233 -1.491485
C 1.192707 -2.982622 -1.372636
C 1.371049 -3.010361 -1.137448
C 1.526151 -3.133369 -1.021724
C 1.398944 -3.154693 -0.949643
C 1.254647 -3.276122 -0.953486
C 1.034930 -3.198207 -1.038916
C 0.717672 -3.216753 -1.295696
C 0.397801 -3.099401 -1.429181
C -0.031321 -2.769073 -1.688666
C -0.254682 -2.465714 -2.155149
C -0.587922 -2.117492 -2.421614
C -0.844253 -1.674667 -2.785642
C -1.110922 -1.389956 -3.130438
C -1.321579 -1.037946 -3.390346
C -1.386268 -0.815114 -3.520722
C -1.349368 -1.013592 -3.540940
C -1.526219 -1.210874 -3.309066
C -1.524499 -1.390562 -3.341058
C -1.655508 -1.474397 -3.155466
C -1.830379 -1.531822 -3.051163
C -1.911124 -1.574216 -2.953709
C -2.023840 -1.592949 -2.804224
C -2.187905 -1.551312 -2.598450
C -2.355956 -1.510458 -2.450650
C -2.368718 -1.548207 -2.167065
C -2.332988 -1.531887 -2.043147
C -2.316175 -1.475889 -1.878962
C -2.442165 -1.401521 -1.735936
C -2.677346 -1.197458 -1.754032
C -2.837789 -0.950742 -1.774451
C -2.874678 -0.680905 -1.621510
C -2.975380 -0.613476 -1.614910
C -3.176414 -0.697030 -1.463472
C -3.223879 -0.725568 -1.320503
C -3.296400 -0.708366 -1.159181
C -3.326733 -0.603424 -1.055457
C -3.405029 -0.565775 -0.918842
C -3.473054 -0.539208 -0.940009
C -3.655313 -0.148940 -0.804876
C -3.779463 0.298449 -0.793245
C -3.922478 0.631020 -0.812981
C -3.938861 0.801479 -0.800240
C -3.898791 0.745562 -0.668186
C -3.848246 0.723057 -0.456689
C -3.332069 0.338578 -0.043024
C -2.665990 -0.270327 0.343873
C -1.943351 -0.842524 0.735053
C -1.210605 -1.464729 1.152992
C -0.579410 -2.004122 1.464524
C -0.001000 -2.469952 1.628314
C 0.525397 -3.046924 1.562482
C 0.624334 -3.195141 1.513624
C 0.583005 -3.229369 1.267433
C 0.582660 -3.342502 1.254946
C 0.332148 -3.321159 1.026866
C -0.039047 -3.332303 0.752583
C -0.390825 -3.396709 0.558083
C -0.512145 -3.353059 0.648680
C -0.770476 -3.408774 0.542575
C -0.982334 -3.359714 0.591810
C -1.282300 -3.386073 0.330723
C -1.418933 -3.429560 0.455802
C -1.393217 -3.401848 0.621855
C -1.345916 -3.381506 0.825207
C -1.442226 -3.293914 0.754362
C -1.326870 -3.247687 0.776413
C -1.202246 -3.309749 0.820291
C -1.042927 -3.257277 1.057946
C -1.000226 -3.249267 1.143832
C -1.012137 -3.227569 1.097466
C -1.128872 -3.094740 1.095669
C -1.286617 -3.054644 1.248266
C -1.703855 -2.801274 1.281646
C -2.147438 -2.601506 1.184398
C -2.589988 -2.328034 1.025131
C -2.819927 -2.160176 0.922705
C -2.898873 -2.081974 1.049613
C -2.891047 -1.964550 1.188497
C -2.896036 -1.882188 1.258129
C -2.836333 -1.832271 1.297521
C -2.825753 -1.663729 1.432629
C -2.791190 -1.565679 1.464137
C -2.896494 -1.418073 1.462756
C -3.083106 -1.162734 1.533241
C -3.118996 -1.030159 1.376360
C -3.180454 -0.850196 1.464439
C -3.117490 -0.766649 1.564593
C -2.817483 -0.939604 1.709852
C -2.472064 -1.067822 2.126627
C -2.030803 -1.166077 2.467340
C -1.634618 -1.376099 2.667513
C -1.497098 -1.498500 2.936266
C -1.174181 -1.675960 3.078233
C -0.973035 -1.816853 3.262880
C -0.999336 -1.797499 3.366534
C -1.058519 -1.825216 3.212673
C -1.145857 -1.774312 3.224380
C -1.201961 -1.698057 3.317435
C -1.149588 -1.663298 3.451032
C -1.343079 -1.486780 3.387988
C -1.528326 -1.284242 3.402151
C -1.680720 -1.016202 3.424501
C -1.880268 -0.814598 3.558964
C -2.028418 -0.720381 3.522896
C -2.158100 -0.605900 3.472084
C -2.317723 -0.426144 3.446259
