268
chr10 3D structure from Hi-C (resolution 500000bp)
C -3.411820 0.376845 0.746270
C -3.409781 0.423896 0.570684
C -3.446976 0.428016 0.504699
C -3.445131 0.279170 0.599151
C -3.390546 0.050432 0.645636
C -3.372829 0.008854 0.584971
C -3.401848 -0.035702 0.469110
C -3.486551 -0.185061 0.576886
C -3.390726 -0.483393 0.691125
C -3.288703 -0.760156 0.778240
C -3.276926 -0.846810 0.713190
C -3.197034 -0.919418 0.556640
C -3.192588 -1.112328 0.500411
C -3.140109 -1.193093 0.363098
C -3.201510 -1.134551 0.231671
C -3.386190 -1.014540 0.087402
C -3.481075 -0.801269 -0.207988
C -3.524106 -0.636735 -0.455991
C -3.607256 -0.519691 -0.565471
C -3.541419 -0.533515 -0.608403
C -3.446953 -0.773456 -0.451028
C -3.171535 -1.118781 -0.226139
C -2.953329 -1.360648 -0.024630
C -2.810405 -1.675150 0.264244
C -2.610563 -2.017014 0.495644
C -2.422587 -2.250998 0.634892
C -2.270708 -2.383281 0.642863
C -2.309472 -2.311798 0.495226
C -2.462412 -2.249275 0.218617
C -2.587168 -2.173740 -0.099099
C -2.613425 -2.120065 -0.391185
C -2.673960 -2.037889 -0.690142
C -2.733932 -2.034259 -0.926709
C -2.816344 -1.878603 -1.249284
C -2.793480 -1.762811 -1.563247
C -2.757810 -1.554288 -1.815285
C -2.587541 -1.465784 -2.046356
C -2.520339 -1.391577 -2.231565
C -2.460490 -1.361900 -2.409359
C -2.339706 -1.330137 -2.511290
C -2.152029 -1.639426 -2.410775
C -2.015360 -1.868629 -2.386893
C -1.742617 -2.098497 -2.315314
C -1.663481 -2.223263 -2.300261
C -1.500567 -2.289247 -2.438845
C -1.358428 -2.352852 -2.474450
C -1.305396 -2.429619 -2.443295
C -1.299716 -2.087281 -2.736706
C -1.248437 -1.882627 -2.776833
C -1.282173 -1.788293 -2.761720
C -1.243555 -1.865158 -2.595054
C -1.263285 -1.976076 -2.276293
C -1.194152 -1.968957 -2.270342
C -1.211501 -1.760029 -2.400319
C -1.319006 -1.683379 -2.156171
C -1.499563 -1.516673 -2.064066
C -1.564816 -1.307894 -2.050403
C -1.554902 -1.378424 -1.942871
C -1.589141 -1.394372 -1.820803
C -1.657586 -1.622707 -1.448601
C -1.616549 -1.938703 -1.204591
C -1.448220 -2.212138 -1.174944
C -1.283030 -2.232540 -1.331745
C -1.352660 -2.153618 -1.453351
C -1.472067 -1.582347 -1.739692
C -1.496330 -1.199318 -2.101199
C -1.599399 -0.632528 -2.342007
C -1.691173 -0.098102 -2.628172
C -1.881257 0.437627 -2.801642
C -2.044817 0.676419 -2.728809
C -2.115712 0.827065 -2.689701
C -2.220215 0.983418 -2.663119
C -2.343641 1.217231 -2.527650
C -2.475443 1.483107 -2.500159
C -2.677331 1.797224 -2.230560
C -2.732700 2.060815 -2.131190
C -2.695074 2.381658 -2.027299
C -2.521394 2.757979 -1.973811
C -2.253592 3.035922 -1.940704
C -1.756719 2.145245 -1.789262
C -1.214319 1.234651 -1.763775
C -0.879746 1.154582 -2.072339
C -0.552206 0.899376 -2.229797
C -0.278457 0.538435 -2.316548
C -0.151880 0.159238 -2.397936
C -0.022027 -0.260959 -2.351913
C -0.130094 0.536974 -2.560825
C -0.215970 1.416534 -2.837523
C -0.007065 1.465299 -2.788526
C 0.061870 1.650073 -2.691761
C 0.262817 1.984600 -2.723865
C 0.397879 2.084857 -2.626099
C 0.449760 2.492777 -2.710841
C 0.534514 2.587664 -2.741642
C 0.529582 2.108606 -2.235172
C 0.635008 1.947424 -2.086421
C 0.794159 1.753075 -2.066692
C 0.958798 1.373142 -2.041746
C 1.161582 1.197010 -2.193142
C 1.358102 0.813286 -2.272245
C 1.428282 0.637659 -2.273201
C 1.566903 0.889594 -2.672170
C 1.542678 0.618622 -2.838114
C 1.565667 0.482377 -2.993946
C 1.440413 0.326726 -3.194318
C 1.414648 0.133200 -3.292670
C 1.425542 -0.039890 -3.245643
C 1.486261 -0.211479 -3.306797
C 1.618812 -0.319112 -3.330330
C 1.689338 -0.450205 -3.225762
C 1.675867 -0.636327 -3.096537
C 1.717552 -0.771345 -2.914451
C 1.740512 -0.821677 -2.711647
C 1.810733 -1.008667 -2.681880
C 1.869064 -1.131849 -2.510970
C 1.890513 -1.342170 -2.307746
C 2.008916 -1.476161 -2.133859
C 2.095390 -1.607230 -2.127213
C 2.193439 -1.764742 -2.005474
C 2.209830 -2.020505 -1.986577
C 2.183417 -2.162024 -1.806261
C 2.159632 -2.182379 -1.676958
C 2.066685 -2.309721 -1.569178
C 1.974849 -2.300449 -1.426596
C 1.943406 -2.231395 -1.186924
C 2.056143 -2.032502 -1.222343
C 2.241605 -1.665435 -1.235823
C 2.450596 -1.521106 -1.252505
C 2.611122 -1.492555 -1.272743
C 2.811374 -1.186710 -1.352078
C 2.923694 -0.943157 -1.522888
C 3.143684 -0.808671 -1.637244
C 3.109260 -1.039032 -1.381437
C 2.896203 -1.406597 -1.025985
C 2.538347 -1.646938 -0.720761
C 2.120169 -1.869989 -0.383574
C 1.694107 -1.998101 0.047744
C 1.359489 -2.356897 0.484062
C 0.852024 -2.643522 0.965282
C 0.425581 -2.608602 1.320549
C 0.097766 -2.589194 1.628809
C -0.120692 -2.602546 1.885172
C -0.217743 -2.626455 2.095883
C -0.244932 -2.903411 2.212913
C -0.238685 -3.013724 2.252198
C -0.088065 -3.186148 2.201678
C 0.070753 -3.398370 2.007691
C 0.277760 -3.392974 1.886235
C 0.829906 -2.749348 1.601533
C 1.276091 -1.977299 1.066851
C 1.682390 -1.319678 0.614911
C 2.014698 -0.881123 0.438699
C 2.296047 -0.320792 0.539018
C 2.503256 0.270295 0.649456
C 2.620020 0.717588 0.559200
C 2.450958 0.482759 0.706327
C 2.574579 0.159205 1.053932
C 2.520845 -0.006063 1.310660
C 2.598102 0.167275 1.236293
C 2.649223 0.272940 0.834218
C 2.712989 0.481894 0.409421
C 2.911173 0.577230 0.135970
C 3.137981 0.729133 -0.161536
C 3.151733 0.842673 -0.409078
C 3.306236 0.873743 -0.532963
C 3.274834 0.855825 -0.471524
C 3.351173 0.844898 -0.276247
C 3.324524 0.688220 -0.097846
C 3.350010 0.467640 0.134055
C 3.306283 0.228274 0.335595
C 3.129129 -0.104785 0.625091
C 3.002859 -0.586880 0.814791
C 2.814619 -0.933852 1.016995
C 2.600206 -1.419916 1.195382
C 2.430911 -1.825426 1.531284
C 2.229494 -2.093207 1.770071
C 2.099368 -2.189815 1.873398
C 2.179561 -2.132669 1.870798
C 2.218979 -1.892723 1.913657
C 2.389314 -1.841679 1.935629
C 2.333932 -1.657790 2.016237
C 2.289962 -1.628064 2.062259
C 2.208030 -1.564070 2.169106
C 2.041365 -1.463565 2.317832
C 1.832292 -1.420484 2.488068
C 1.680600 -1.269324 2.651889
C 1.512048 -1.042517 2.724904
C 1.451831 -0.935531 2.691813
C 1.438048 -0.751505 2.711818
C 1.345932 -0.665096 2.746326
C 1.149252 -0.753344 2.874892
C 1.036794 -0.726025 2.976623
C 0.884899 -0.715211 3.002082
C 0.769521 -0.671259 3.084944
C 0.676733 -0.114571 2.672205
C 0.653646 0.039606 2.686022
C 0.553368 0.125865 2.697936
C 0.464033 0.149705 2.739945
C 0.252913 0.186150 2.751242
C 0.063977 0.096779 2.770322
C -0.260047 -0.055897 2.831494
C -0.642936 -0.695299 3.448528
C -0.932028 -0.864799 3.561151
C -1.011242 -0.872348 3.579868
C -0.985641 -0.646697 3.558421
C -0.761456 -0.393223 3.530809
C -0.359101 0.059824 3.233577
C 0.114507 0.640659 2.695999
C 0.591667 1.194729 2.153176
C 1.056598 1.766503 1.590416
C 1.431236 2.180037 1.214165
C 1.766449 2.459892 0.775812
C 2.013770 2.657511 0.271104
C 2.061102 2.754741 0.157263
C 2.055758 2.697877 0.262484
C 2.129635 2.760008 0.357104
C 2.080177 2.591924 0.591167
C 2.061805 2.435640 0.822747
C 2.066487 2.299023 1.158725
C 1.981467 2.267136 1.450420
C 1.808927 2.377334 1.551155
C 1.731399 2.330457 1.744682
C 1.649425 2.225692 1.958721
C 1.579863 2.271399 2.107258
C 1.548507 2.349194 2.043434
C 1.496546 2.440297 2.006476
C 1.423969 2.450495 1.962943
C 1.404118 2.421868 1.873691
C 1.338008 2.561175 1.653816
C 1.212872 2.717363 1.462483
C 1.095719 2.863106 1.342423
C 0.936522 2.911303 1.334741
C 0.792074 2.976881 1.291583
C 0.622665 2.974816 1.408211
C 0.429379 2.769079 1.779140
C 0.097993 2.383997 2.213282
C -0.116308 1.995027 2.540535
C -0.279806 1.831015 2.731288
C -0.386019 1.818305 2.772949
C -0.566449 1.817578 2.754782
C -0.682545 1.758364 2.800735
C -0.761484 1.729788 2.694864
C -0.736376 1.891102 2.607413
C -0.706737 1.934651 2.553936
C -0.739346 1.813044 2.573320
C -0.952153 1.723758 2.677008
C -0.916553 1.553360 2.726452
C -0.941179 1.664602 2.633461
C -0.893076 1.794018 2.516557
C -0.771406 1.958173 2.208550
C -0.769694 2.328122 1.848260
C -0.850240 2.623140 1.448616
C -0.699725 2.895734 1.156830
C -0.719168 3.139642 0.962223
C -0.726682 3.257573 0.731426
C -0.835238 3.378872 0.610966
C -1.015075 3.382996 0.623474
C -1.064725 3.241032 0.747929
C -1.128558 3.216448 0.796904
C -1.283357 3.225974 0.771491
C -1.451209 3.262474 0.769584
C -1.547976 3.101531 0.941881
C -1.699007 2.930075 1.120695
C -1.814883 2.838329 1.295105
C -2.041216 2.833943 1.381728
C -2.077108 2.758651 1.526122
C -2.156985 2.629766 1.681467
C -2.252491 2.493730 1.803310
