129
chr20 3D structure from Hi-C (resolution 500000bp)
C 2.660434 -1.148827 1.197764
C 2.682713 -1.064334 1.210914
C 2.735276 -0.994149 1.212674
C 2.787834 -0.932965 1.179445
C 2.865893 -0.810817 1.081663
C 2.846758 -0.839971 0.911697
C 2.853688 -0.868574 0.750674
C 2.650104 -1.067622 0.671824
C 2.582083 -1.237608 0.504283
C 2.278518 -1.548860 0.219174
C 1.920802 -1.892617 -0.059781
C 1.505440 -2.224088 -0.415356
C 1.226897 -2.501616 -0.643634
C 1.106299 -2.696786 -0.841161
C 0.915554 -2.859578 -1.063940
C 0.692689 -2.978476 -1.368880
C 0.697636 -2.970103 -1.529901
C 0.758386 -2.918527 -1.643150
C 0.895138 -2.805248 -1.657610
C 0.942323 -2.684371 -1.762523
C 0.650579 -2.631652 -1.948629
C 0.483646 -2.571653 -2.164627
C 0.302337 -2.512514 -2.321339
C 0.247536 -2.376923 -2.353325
C 0.292482 -2.211570 -2.391401
C 0.254997 -2.062614 -2.569405
C 0.452496 -1.844494 -2.584326
C 0.756229 -1.652361 -2.658608
C 1.061466 -1.392271 -2.644947
C 1.318577 -1.173669 -2.565447
C 1.403029 -1.011541 -2.638033
C 1.284058 -0.862959 -2.718231
C 1.516571 -0.648784 -2.530333
C 1.491887 -0.484563 -2.403111
C 1.523888 -0.303472 -2.154778
C 1.490931 -0.172358 -2.060805
C 1.511652 -0.015486 -1.919352
C 1.563380 0.063155 -1.711289
C 1.628828 0.085819 -1.505894
C 1.426056 -0.029401 -1.394757
C 1.063018 -0.196626 -1.509337
C 0.646795 -0.334492 -1.628990
C 0.378932 -0.448645 -1.616904
C 0.182516 -0.499203 -1.569835
C -0.106080 -0.492798 -1.651900
C -0.368311 -0.579484 -1.693246
C -0.612932 -0.561941 -1.713586
C -0.516250 -0.513216 -1.495013
C -0.483690 -0.373045 -1.569851
C -0.660963 -0.328037 -1.968722
C -0.355114 0.508432 -2.579212
C -0.011544 1.509181 -2.946710
C 0.021972 2.734535 -3.199085
C -0.312067 3.852909 -3.458180
C -0.894091 4.255063 -3.828191
C -1.307551 4.362330 -3.826920
C -1.633848 4.449038 -3.492434
C -2.501232 3.729162 -3.207643
C -3.287506 2.789278 -3.010582
C -3.524015 1.772435 -2.787505
C -3.033607 0.828788 -2.326603
C -2.203234 0.796066 -1.780086
C -1.512856 0.934813 -1.326817
C -0.747447 1.126998 -0.862738
C 0.103082 1.309752 -0.170340
C 0.922847 1.522803 0.462117
C 1.520539 1.833976 0.941995
C 1.730601 2.141661 1.165958
C 1.793123 2.212876 1.415400
C 1.858290 2.198337 1.599797
C 1.995879 2.244242 1.834733
C 1.946436 2.227517 2.007177
C 1.791890 2.300352 2.022585
C 1.650965 2.195213 1.980511
C 1.464165 1.950755 1.875127
C 1.084531 1.825016 1.557037
C 0.704211 1.801217 1.277928
C 0.229732 1.725308 0.912219
C -0.123644 1.631836 0.584098
C -0.264662 1.470037 0.464960
C -0.513439 1.317452 0.322857
C -0.853434 1.306817 0.181740
C -1.028625 1.236906 0.174887
C -1.079386 1.129365 0.274565
C -0.972994 1.199283 0.511954
C -0.948107 1.251357 0.724447
C -0.940713 1.283043 0.911185
C -0.849783 1.359205 1.172671
C -0.656763 1.454041 1.492614
C -0.438161 1.481379 1.898433
C -0.373953 1.511342 2.152272
C -0.436936 1.475676 2.332581
C -0.461637 1.555673 2.532214
C -0.605010 1.556602 2.644043
C -0.499765 1.538808 2.786268
C -0.376832 1.442736 2.907837
C -0.197644 1.336527 2.972016
C -0.066006 1.254239 3.089864
C 0.060132 0.985723 3.048640
C 0.033816 0.641476 2.839528
C -0.049240 0.389679 2.581774
C -0.395962 0.092729 2.218966
C -0.816533 -0.179758 1.820168
C -1.234206 -0.536460 1.500678
C -1.351078 -0.907258 1.343863
C -1.681823 -1.149592 1.111365
C -1.943868 -1.360348 0.907619
C -2.170570 -1.510821 0.729256
C -2.357578 -1.634464 0.564982
C -2.300908 -1.674312 0.566041
C -2.285086 -1.518713 0.543952
C -2.395855 -1.336551 0.497012
C -2.312015 -1.163020 0.680541
C -2.063103 -1.053903 0.938103
C -1.793064 -1.002183 1.278285
C -1.548622 -0.920151 1.583298
C -1.470476 -0.922967 1.684811
C -1.616836 -0.846020 1.555835
C -1.879027 -0.812070 1.279680
C -2.128828 -0.838368 0.943745
C -2.515699 -0.791294 0.731347
C -2.385146 -0.820803 0.807274
C -2.105871 -0.819866 1.063725
C -1.794164 -0.734072 1.515235
C -1.245776 -0.751565 2.186985
C -0.704389 -0.677825 3.110284
C -0.247066 -0.651759 3.666927
C 0.452187 -0.661450 4.295613
C 0.637306 -0.521449 4.692889
