129
chr20 3D structure from Hi-C (resolution 500000bp)
C -2.403047 1.115133 -1.674498
C -2.374119 1.084347 -1.727434
C -2.442355 1.134848 -1.663698
C -2.492909 1.133221 -1.665147
C -2.467526 1.115169 -1.826314
C -2.449067 0.952942 -1.825401
C -2.430138 0.758735 -1.898715
C -2.281675 0.503510 -1.920034
C -2.192018 0.300308 -2.012954
C -1.943057 -0.155493 -2.169559
C -1.638929 -0.635496 -2.251418
C -1.298818 -1.185200 -2.296623
C -1.156479 -1.566372 -2.319093
C -1.056922 -1.857825 -2.329504
C -0.906591 -2.232482 -2.265088
C -0.749118 -2.622972 -2.074515
C -0.728469 -2.807795 -1.917967
C -0.804012 -2.864754 -1.845736
C -0.890987 -2.829820 -1.736432
C -0.982155 -2.861208 -1.624367
C -0.845067 -3.062098 -1.410676
C -0.766834 -3.194694 -1.220072
C -0.742012 -3.295765 -1.058577
C -0.733815 -3.215938 -0.959213
C -0.851471 -3.173231 -0.814386
C -0.940599 -3.217722 -0.649721
C -1.095476 -3.107594 -0.524932
C -1.399240 -2.909399 -0.380909
C -1.762534 -2.656614 -0.309672
C -2.028532 -2.422756 -0.294211
C -2.145172 -2.411401 -0.179675
C -2.056685 -2.472252 -0.002920
C -2.208140 -2.154944 0.085401
C -2.155852 -1.942109 0.196046
C -2.116613 -1.695207 0.190190
C -2.014798 -1.555960 0.262659
C -1.945940 -1.338210 0.273590
C -1.912197 -1.102621 0.305589
C -1.894414 -0.838667 0.231610
C -1.709506 -0.911093 0.322939
C -1.367702 -1.184919 0.363895
C -0.994531 -1.504764 0.417234
C -0.747515 -1.627724 0.480995
C -0.553039 -1.701365 0.575045
C -0.333168 -1.828062 0.650733
C -0.082011 -1.956839 0.756285
C 0.165511 -1.989806 0.682226
C 0.057321 -1.716188 0.754987
C -0.022425 -1.577972 0.928933
C 0.028812 -1.899808 1.154027
C 0.139716 -1.693048 2.253364
C -0.083136 -1.309903 3.314329
C -0.704348 -0.941573 4.287571
C -1.413633 -0.720522 5.242481
C -1.122820 -0.921610 5.790590
C -0.753570 -0.978125 5.974113
C -0.424165 -0.754566 6.040949
C -0.111817 -1.310503 5.228906
C 0.447398 -1.895691 4.396123
C 1.197826 -2.182133 3.650057
C 1.809485 -2.093403 2.713037
C 1.402232 -1.514737 2.150021
C 0.938778 -0.932225 1.860665
C 0.458993 -0.224179 1.596934
C -0.153766 0.658101 1.292235
C -0.712445 1.471860 1.070089
C -1.074113 2.104689 0.892620
C -1.261280 2.543564 0.889247
C -1.274497 2.819647 0.785531
C -1.267079 2.996913 0.714050
C -1.322292 3.238256 0.574968
C -1.222237 3.375583 0.484946
C -1.200770 3.438145 0.327013
C -1.110240 3.307145 0.221419
C -0.914528 2.984688 0.202038
C -0.649052 2.560453 0.355808
C -0.437776 2.205183 0.504378
C -0.177013 1.727826 0.634512
C 0.095423 1.362512 0.751450
C 0.312620 1.106671 0.788591
C 0.491677 0.885432 0.762412
C 0.745164 0.684037 0.850715
C 0.919540 0.609408 0.808328
C 0.989807 0.609574 0.587632
C 1.008503 0.885810 0.414142
C 0.961488 1.091218 0.250368
C 0.961612 1.281627 0.123687
C 0.906895 1.501570 -0.058958
C 0.808185 1.876582 -0.358739
C 0.730264 2.233314 -0.638342
C 0.742387 2.441370 -0.856886
C 0.746196 2.436047 -1.148097
C 0.764926 2.530453 -1.448541
C 0.919688 2.594062 -1.584746
C 0.936911 2.735515 -1.702492
C 0.830491 2.779179 -1.823273
C 0.689803 2.838364 -1.951100
C 0.572268 2.877291 -2.060055
C 0.557527 2.764426 -2.058776
C 0.634822 2.416936 -1.961067
C 0.665014 2.003007 -1.947061
C 0.843436 1.489918 -1.873987
C 1.162561 0.935767 -1.803546
C 1.466667 0.414067 -1.769222
C 1.663584 0.139088 -1.796005
C 1.888405 -0.155030 -1.762548
C 2.130734 -0.426644 -1.615503
C 2.334417 -0.683763 -1.486616
C 2.550816 -0.903222 -1.330497
C 2.576931 -0.899523 -1.211446
C 2.583618 -0.873555 -1.040493
C 2.648073 -0.891188 -0.786585
C 2.693508 -0.678346 -0.579081
C 2.605358 -0.330352 -0.557767
C 2.502674 0.104533 -0.554545
C 2.396845 0.481892 -0.530672
C 2.346690 0.576797 -0.420718
C 2.417617 0.492884 -0.238802
C 2.544755 0.286237 -0.003228
C 2.603876 0.022380 0.196604
C 2.779751 -0.187229 0.395079
C 2.764068 -0.075352 0.610427
C 2.669580 0.252706 0.784481
C 2.623529 0.881669 0.800928
C 2.395263 1.678692 0.760362
C 2.231464 2.639664 1.003452
C 2.089230 3.224582 1.008509
C 1.794888 3.946879 1.052847
C 1.711822 4.398424 1.117950
