397
chr3 3D structure from Hi-C (resolution 500000bp)
C -4.214098 -2.162858 -1.661893
C -4.188482 -2.264735 -1.581745
C -4.069704 -2.365588 -1.437420
C -4.016358 -2.430120 -1.318714
C -4.111727 -2.531412 -1.272471
C -3.986475 -2.633154 -0.920036
C -3.702637 -2.830902 -0.400892
C -3.417682 -2.968117 0.014374
C -3.462264 -3.047923 0.176011
C -3.562065 -3.156273 0.393692
C -3.640535 -3.251269 0.488880
C -3.693609 -3.294108 0.573079
C -3.890678 -3.250358 0.440074
C -4.155854 -3.134677 0.296588
C -4.107513 -3.031598 0.373834
C -3.783109 -2.965984 0.789496
C -3.390602 -2.869619 1.213562
C -2.971621 -2.766397 1.825005
C -2.696455 -2.689753 2.302094
C -2.304394 -2.679842 2.833432
C -2.022597 -2.739937 3.315588
C -1.954418 -2.684632 3.520406
C -1.822414 -2.621269 3.704191
C -1.824167 -2.548010 3.748269
C -2.014554 -2.437426 3.688036
C -1.971353 -2.358938 3.768773
C -1.917538 -2.338572 3.883577
C -1.763912 -2.283708 3.875632
C -1.672736 -2.292614 3.858298
C -1.798676 -2.285369 3.651260
C -1.940634 -2.245775 3.384897
C -1.952151 -2.297892 3.048999
C -2.086101 -2.331755 2.587982
C -2.437372 -2.204322 1.920864
C -2.919363 -2.064545 1.314046
C -3.349010 -1.952063 0.700613
C -3.654123 -1.910939 0.337459
C -3.950841 -1.882741 0.093257
C -4.300411 -1.748711 -0.282332
C -4.653620 -1.573078 -0.508069
C -4.774676 -1.551304 -0.592717
C -4.876206 -1.481823 -0.586309
C -4.918072 -1.458601 -0.511141
C -4.795795 -1.478307 -0.387138
C -4.569705 -1.524641 -0.277098
C -4.498758 -1.467325 -0.129614
C -4.457153 -1.383813 -0.066415
C -4.433394 -1.283310 0.043384
C -4.270630 -1.285036 0.179363
C -4.271454 -1.181786 0.137521
C -4.523725 -0.894410 -0.141207
C -4.743088 -0.631805 -0.206454
C -4.659351 -0.603082 -0.122007
C -4.471308 -0.706695 -0.014510
C -4.420703 -0.673633 -0.019270
C -4.415058 -0.660947 0.000418
C -4.355221 -0.656361 0.192802
C -4.308015 -0.647020 0.392076
C -4.195721 -0.640196 0.356603
C -4.001665 -0.707983 0.476442
C -3.926745 -0.656101 0.674037
C -3.677231 -0.771596 1.052276
C -3.486277 -0.794827 1.337197
C -3.241261 -0.877294 1.651040
C -3.022939 -1.008101 1.886158
C -3.037718 -0.964207 1.946072
C -3.330182 -0.725973 1.739283
C -3.579914 -0.479591 1.454158
C -3.894389 -0.244136 1.233209
C -4.185289 0.006829 0.979871
C -4.231236 0.137426 0.799912
C -4.040581 0.182268 0.874778
C -3.875210 0.188395 1.152960
C -3.423426 0.062820 1.608157
C -3.066520 -0.110054 2.109783
C -2.582639 -0.287873 2.495328
C -2.300780 -0.358088 2.783128
C -2.183330 -0.338174 3.065991
C -2.269510 -0.233668 3.171873
C -2.250494 -0.177561 3.235087
C -2.337858 -0.091769 3.339305
C -2.208689 -0.064761 3.417545
C -2.162691 0.006486 3.551933
C -1.897449 -0.035976 3.659916
C -1.702399 -0.062773 3.784345
C -1.459294 -0.088888 3.930951
C -1.151863 -0.174701 4.070497
C -0.921841 -0.242525 4.185220
C -0.689657 -0.372788 4.398381
C -0.508056 -0.450152 4.545547
C -0.342881 -0.461106 4.828011
C -0.109306 -0.540272 5.057938
C 0.086386 -0.615315 5.335419
C 0.216473 -0.702112 5.557730
C 0.336414 -0.681302 5.766637
C 0.437804 -0.571423 5.864079
C 0.514549 -0.447645 5.971591
C 0.467306 -0.406697 5.972138
C 0.244393 -0.165283 5.774546
C 0.021639 -0.006277 5.492241
C -0.136212 0.211057 5.324206
C -0.146374 0.240975 5.215665
C -0.223846 0.312278 5.074121
C -0.356154 0.411519 4.861030
C -0.530383 0.546123 4.616443
C -0.713506 0.666416 4.509413
C -0.938463 0.834953 4.368835
C -1.176650 0.995180 4.172250
C -1.431914 1.219192 3.894604
C -1.682411 1.469121 3.678343
C -1.753041 1.546883 3.574565
C -1.679831 1.688868 3.613126
C -1.435959 1.618724 3.703061
C -1.201327 1.629458 3.834558
C -1.101093 1.676394 3.819219
C -1.109824 1.775474 3.752398
C -1.163281 1.847975 3.649092
C -1.419230 1.998064 3.430600
C -1.631906 2.082814 3.166003
C -1.931803 2.219537 2.945446
C -2.183939 2.306530 2.692797
C -2.405595 2.357276 2.530981
C -2.620039 2.348947 2.300735
C -2.805613 2.343398 2.075109
C -2.813600 2.288302 2.001758
C -2.910438 2.240139 1.900332
C -3.118553 2.282047 1.650638
C -3.318403 2.304063 1.359985
C -3.348845 2.272988 1.203984
C -3.231315 2.292340 1.233726
C -3.123742 2.368260 1.321437
C -3.117195 2.476539 1.306116
C -3.056589 2.537862 1.268336
C -3.008938 2.586720 1.266420
C -2.879986 2.674859 1.371198
C -2.670390 2.660604 1.435666
C -2.831592 2.690214 1.288886
C -2.909930 2.700681 1.092330
C -2.962070 2.804673 0.962877
C -2.867050 2.917042 0.960833
C -2.601057 2.963453 1.111763
C -2.274401 2.921854 1.344849
C -2.185457 3.005268 1.471797
C -1.982927 3.107212 1.577144
C -2.028366 3.140243 1.525053
C -2.115824 3.191466 1.370885
C -2.385516 3.193054 1.071080
C -2.581269 3.208885 0.772560
C -2.952343 3.444925 0.380174
C -3.329522 3.548894 -0.094226
C -3.517604 3.557865 -0.404211
C -3.569344 3.523547 -0.611240
C -3.568307 3.439987 -0.771002
C -3.458771 3.340625 -0.800691
C -3.352665 3.205250 -0.902980
C -3.256784 2.964405 -1.088081
C -3.183254 2.840980 -1.227901
C -3.196462 2.708361 -1.369856
C -3.175754 2.659861 -1.497626
C -3.034745 2.637787 -1.459869
C -2.780562 2.673472 -1.242382
C -2.746963 2.916041 -1.225641
C -2.717431 3.110956 -1.214781
C -2.729364 3.090976 -1.318363
C -2.691922 3.153843 -1.380369
C -2.619135 3.168874 -1.456136
C -2.675767 3.146908 -1.587715
C -2.889386 3.124497 -2.057199
C -2.992184 3.003299 -2.230891
C -3.009515 2.770707 -2.419662
C -2.860969 2.774694 -2.358994
C -2.669795 2.753644 -2.251398
C -2.443150 2.941813 -1.967873
C -2.205410 3.067344 -1.706141
C -2.127320 3.168435 -1.633770
C -1.980246 3.275565 -1.596559
C -1.859931 3.473063 -1.535421
C -1.871511 3.723309 -1.652445
C -2.099185 3.950209 -2.313379
C -2.373831 3.930832 -2.997408
C -2.822750 3.463663 -4.039240
C -3.154544 2.281181 -4.638655
C -3.542845 1.077219 -5.333611
C -3.925240 0.232796 -6.090860
C -3.567308 0.439578 -6.037217
C -3.017516 0.332598 -5.401784
C -2.474842 0.354425 -5.023184
C -1.697291 0.898402 -4.189388
C -0.962721 2.196432 -3.664553
C -0.238763 3.442632 -3.141159
C 0.465169 4.286929 -2.560025
C 0.490569 3.988150 -2.611494
C 0.581530 4.004995 -2.613919
C 0.707434 3.972067 -2.286629
C 0.820283 3.910338 -2.035261
C 0.917573 3.894713 -1.840831
C 1.060577 3.831349 -1.492024
C 1.257268 3.698496 -0.979181
C 1.544564 3.742944 -0.583015
C 1.637412 3.766042 -0.472127
C 1.759268 3.679758 -0.352604
C 1.738584 3.587989 -0.579763
C 1.814587 3.582236 -0.752362
C 1.792259 3.547742 -1.166962
C 1.719979 3.663222 -1.679730
C 1.661467 3.730122 -1.973250
C 1.643343 3.761251 -2.147420
C 1.595664 3.819701 -2.515190
C 1.765797 3.838188 -2.453989
C 1.889781 3.743436 -2.130869
C 2.032034 3.813546 -1.932733
C 2.116256 3.717383 -1.781944
C 2.119301 3.463849 -1.552224
C 2.283118 3.297533 -1.282296
C 2.245210 3.140230 -1.243289
C 1.944447 3.066333 -1.520254
C 1.645275 2.961832 -2.020362
C 1.442567 2.791209 -2.267231
C 1.337687 2.729055 -2.432435
C 1.242205 2.741678 -2.749420
C 1.111915 2.636474 -2.920808
C 1.261490 2.634223 -2.533506
C 1.557807 2.584385 -1.914167
C 1.874325 2.562235 -1.216927
C 2.105682 2.429833 -0.569844
C 2.290113 2.314643 -0.045001
C 2.428220 2.166130 0.249808
C 2.492631 2.165172 0.251128
C 2.437008 2.091600 -0.004847
C 2.300420 2.019959 -0.499523
C 2.241195 2.013840 -0.998101
C 2.210996 2.079202 -1.447861
C 2.287977 2.204567 -1.795252
C 2.366015 2.349997 -1.940509
C 2.447152 2.369854 -1.875557
C 2.577406 2.355353 -1.710611
C 2.727973 2.302952 -1.274055
C 2.813364 2.205312 -0.938847
C 2.907217 2.147406 -0.673054
C 2.864655 2.055870 -0.451972
C 2.976338 1.997515 0.067962
C 3.134589 1.939992 0.556848
C 3.186712 1.725355 0.963502
C 3.235636 1.615995 1.216242
C 3.219192 1.512047 1.556492
C 3.186612 1.378291 1.974120
C 3.321320 1.192893 2.485647
C 3.300612 0.868799 2.720357
C 3.383566 0.750036 2.988252
C 3.371737 0.874587 3.044569
C 3.403194 0.892640 3.170550
C 3.486412 0.801346 3.328374
C 3.548127 0.676434 3.425278
C 3.546016 0.568728 3.468320
C 3.579079 0.552257 3.481702
C 3.438898 0.334815 3.377721
C 3.419027 0.149361 3.261923
C 3.475512 0.240523 3.033271
C 3.406079 0.304354 2.776824
C 3.433782 0.466723 2.527902
C 3.457814 0.669329 2.237861
C 3.369808 0.807915 1.938113
C 3.399254 0.956201 1.673091
C 3.503609 1.029641 1.541754
C 3.470406 0.821339 1.539955
C 3.541156 0.708236 1.521974
C 3.486817 0.568560 1.481562
C 3.469804 0.459352 1.386346
C 3.606035 0.447564 1.243709
C 3.709562 0.433883 1.175316
C 3.777121 0.345057 1.206145
C 3.888184 0.505515 0.965883
C 3.984808 0.623909 0.736382
C 4.052584 0.548191 0.710851
C 4.083180 0.448322 0.772963
C 4.071769 0.351983 0.810739
C 3.951886 0.324006 0.637933
C 3.850265 0.400093 0.394523
C 3.625875 0.155928 0.481614
C 3.472153 -0.064537 0.619544
C 3.455185 -0.177025 0.652388
C 3.477708 -0.290015 0.656657
C 3.374321 -0.357976 0.519904
C 3.364367 -0.432605 0.455894
C 3.310072 -0.496949 0.241367
C 3.349945 -0.342552 -0.306450
C 3.308898 -0.117540 -1.031885
C 3.109654 0.129158 -1.860285
C 2.837572 0.329661 -2.618695
C 2.822968 0.488566 -3.096538
C 2.733145 0.577782 -3.575034
C 2.646092 0.665436 -4.001683
C 2.499997 0.613536 -4.144404
C 2.478593 0.484295 -4.064394
C 2.539910 0.418330 -3.976518
C 2.794853 0.230589 -3.566546
C 2.862539 -0.038169 -3.116897
C 3.003903 -0.240147 -2.652642
C 3.052816 -0.468300 -2.116967
C 3.245807 -0.561873 -1.817770
C 3.477990 -0.554843 -1.758501
C 3.681200 -0.789685 -1.305602
C 3.653923 -0.772742 -1.421095
C 3.614507 -0.640657 -1.789853
C 3.512856 -0.533854 -2.200245
C 3.639495 -0.504753 -2.598796
C 3.424010 -0.489578 -2.913123
C 3.086278 -0.573737 -2.971988
C 2.885677 -0.568805 -3.138425
C 2.786356 -0.632776 -3.128937
C 2.729993 -0.828243 -2.846778
C 2.615114 -0.921313 -2.648508
C 2.278138 -0.881659 -2.677660
C 2.318517 -0.999211 -2.468440
C 2.448061 -1.108168 -2.355622
C 2.412406 -1.058724 -2.617558
C 2.346845 -1.101735 -2.690686
C 2.412956 -1.115067 -2.769539
C 2.499687 -1.218797 -2.802554
C 2.661554 -1.349213 -2.715849
C 2.711780 -1.404361 -2.887128
C 2.572682 -1.407823 -3.216882
C 2.659660 -1.489745 -3.359385
C 2.563908 -1.492115 -3.756090
C 2.254560 -1.495130 -4.204845
C 2.106341 -1.417613 -4.581744
C 2.062567 -1.416030 -4.835236
C 1.954247 -1.446871 -4.936929
C 1.938760 -1.517615 -4.873165
C 1.824955 -1.612256 -4.994941
C 1.702209 -1.700567 -4.929841
C 1.852395 -1.754538 -4.867937
C 1.899778 -1.905548 -4.655331
C 1.914211 -1.992684 -4.354220
C 1.957105 -2.078885 -4.178259
C 1.934345 -2.145086 -4.029242
C 2.056350 -2.193022 -3.419003
C 2.381004 -2.305022 -2.768110
C 2.533857 -2.380884 -2.259525
C 2.621883 -2.438367 -1.792429
C 2.746992 -2.571819 -1.457059
C 2.889604 -2.643249 -0.999072
C 3.051941 -2.728250 -0.768706
C 2.780805 -2.699529 -1.132960
C 2.461429 -2.685118 -1.684567
C 2.107731 -2.733307 -2.134991
C 1.786624 -2.771661 -2.748971
C 1.574812 -2.838190 -3.151426
C 1.270625 -2.898379 -3.709737
C 1.019992 -2.920218 -4.063114
C 1.101571 -3.068955 -4.016380
C 1.300434 -3.205200 -3.660322
C 1.384176 -3.237380 -3.533361
C 1.462440 -3.313756 -3.369635
C 1.536599 -3.347316 -3.161493
C 1.766246 -3.398080 -2.723968
C 1.952503 -3.471417 -2.241072
C 1.974623 -3.534928 -1.993659
C 1.883398 -3.530243 -2.070378
C 1.798353 -3.588448 -2.062961
C 1.786887 -3.641951 -1.917380
C 1.638703 -3.619754 -2.001831
C 1.588565 -3.636821 -1.952365
C 1.603283 -3.675077 -1.686315
C 1.765780 -3.647723 -1.185674
C 1.998238 -3.683626 -0.552913
C 2.351390 -3.640802 0.150602
C 2.611221 -3.561840 0.725437
C 2.747389 -3.528414 1.287086
C 2.808185 -3.502302 1.564911
C 2.853333 -3.501345 1.615417
C 2.740170 -3.518707 1.419864
C 2.522462 -3.543407 1.082589
C 2.300727 -3.662627 0.713727
C 2.064962 -3.802112 0.319545
C 1.956319 -3.890569 0.050123
C 1.855989 -4.020985 -0.189245
C 1.723751 -4.055843 -0.524664
C 1.571718 -4.099395 -0.902384
C 1.529850 -4.137682 -1.002307
C 1.378777 -4.207551 -1.279429
C 1.303450 -4.217437 -1.437867
C 1.192927 -4.243585 -1.599583
C 1.038260 -4.229950 -1.774027
C 1.052564 -4.279615 -1.519237
C 1.274714 -4.273567 -0.999554
C 1.363165 -4.237853 -0.580561
C 1.620234 -4.125926 0.151685
C 1.934060 -4.190811 1.014066
C 2.256665 -4.148319 1.712178
C 2.533713 -4.094795 2.431326
C 2.721758 -4.072546 2.851915
C 2.711261 -4.076977 3.062848
C 2.521359 -4.680636 2.978862
C 2.537101 -4.819579 3.054685
C 2.460068 -4.833005 2.889292
C 2.302930 -5.088172 2.765431
