397
chr3 3D structure from Hi-C (resolution 500000bp)
C 3.690778 3.068102 -0.966854
C 3.749080 3.040830 -1.012948
C 3.730166 2.915238 -1.053309
C 3.746795 2.789086 -1.109964
C 3.795610 2.907127 -1.072083
C 3.769790 2.609071 -1.309698
C 3.617438 2.180321 -1.624088
C 3.536115 1.762641 -1.856339
C 3.521137 1.578536 -2.017133
C 3.582709 1.438595 -2.199166
C 3.640227 1.373233 -2.365753
C 3.690696 1.327151 -2.512703
C 3.747234 1.523129 -2.497431
C 3.780129 1.803644 -2.440719
C 3.612835 1.770575 -2.481323
C 3.367802 1.454583 -2.732585
C 3.053832 1.054112 -2.975643
C 2.672619 0.641367 -3.255256
C 2.325073 0.291466 -3.543715
C 2.025365 -0.139177 -3.835933
C 1.812649 -0.518961 -4.148002
C 1.716241 -0.634059 -4.325949
C 1.576745 -0.696468 -4.356490
C 1.449356 -0.674411 -4.389808
C 1.400336 -0.485553 -4.437227
C 1.323657 -0.571352 -4.496171
C 1.284138 -0.681061 -4.618970
C 1.238434 -0.829786 -4.535742
C 1.218054 -0.871338 -4.447089
C 1.312009 -0.749179 -4.323754
C 1.464137 -0.516569 -4.132770
C 1.591871 -0.381145 -3.946967
C 1.843043 -0.045450 -3.662947
C 2.056164 0.511201 -3.244319
C 2.200987 1.243347 -2.824686
C 2.420476 1.832396 -2.456871
C 2.563700 2.272911 -2.340492
C 2.691676 2.586412 -2.320973
C 2.837997 3.029090 -2.072208
C 2.894108 3.367851 -1.879920
C 2.885350 3.586077 -1.775897
C 2.920996 3.657727 -1.835833
C 2.875471 3.716094 -1.915320
C 2.825241 3.502154 -1.892932
C 2.716162 3.350210 -1.930402
C 2.600428 3.273186 -2.004388
C 2.476431 3.264575 -2.113265
C 2.376361 3.215357 -2.262065
C 2.256557 2.987617 -2.426146
C 2.161221 3.060850 -2.377014
C 2.060530 3.476664 -2.270615
C 2.022529 3.733230 -2.099067
C 1.944116 3.610224 -2.138896
C 1.842302 3.509386 -2.221136
C 1.779947 3.461238 -2.183589
C 1.770956 3.472115 -2.055458
C 1.710982 3.253832 -2.133935
C 1.690679 3.133552 -2.113988
C 1.581153 3.045289 -2.211765
C 1.488302 2.860934 -2.211933
C 1.463647 2.601698 -2.270317
C 1.404387 2.309040 -2.495888
C 1.281468 2.049842 -2.735243
C 1.159244 1.794219 -2.965449
C 1.046795 1.547372 -3.206220
C 1.011699 1.575551 -3.223128
C 0.985374 2.013344 -3.173309
C 0.924872 2.465533 -3.030049
C 0.894868 2.764912 -2.839414
C 0.867090 3.158271 -2.601049
C 0.849037 3.298196 -2.536814
C 0.773258 3.118046 -2.510236
C 0.619886 2.889512 -2.627028
C 0.471483 2.255739 -2.851099
C 0.289482 1.756928 -3.065755
C 0.103939 1.229851 -3.249205
C -0.068464 0.908140 -3.513273
C -0.226161 0.771471 -3.697786
C -0.354022 0.810188 -3.851701
C -0.443649 0.786879 -3.950234
C -0.459033 0.883627 -3.993459
C -0.493931 0.724536 -4.103902
C -0.553283 0.634836 -4.191508
C -0.598822 0.354518 -4.194495
C -0.681241 0.136151 -4.187732
C -0.766339 -0.067052 -4.133014
C -0.800236 -0.380939 -4.111454
C -0.933630 -0.671647 -4.118456
C -1.020620 -0.977048 -4.166686
C -1.074334 -1.207271 -4.238299
C -1.149059 -1.450907 -4.385100
C -1.287535 -1.793267 -4.503322
C -1.290105 -2.122310 -4.717366
C -1.315971 -2.324008 -4.852093
C -1.381135 -2.534396 -4.969336
C -1.499673 -2.540961 -5.046474
C -1.611020 -2.566701 -5.091591
C -1.670395 -2.493023 -5.108109
C -1.686847 -2.113416 -5.025130
C -1.815719 -1.725207 -4.883993
C -1.929602 -1.502081 -4.765480
C -2.033793 -1.371955 -4.693196
C -2.052045 -1.297382 -4.560544
C -2.058998 -1.080470 -4.420247
C -2.111972 -0.882476 -4.255822
C -2.096175 -0.695095 -4.199371
C -2.099547 -0.429188 -4.065860
C -2.108449 -0.060949 -3.959556
C -2.125563 0.345186 -3.762394
C -2.093667 0.772504 -3.610057
C -2.134956 0.902716 -3.518501
C -2.217037 0.943056 -3.482413
C -2.296694 0.709874 -3.422651
C -2.412959 0.427966 -3.422242
C -2.417311 0.360110 -3.333433
C -2.424832 0.431889 -3.310394
C -2.526415 0.512195 -3.273003
C -2.465978 0.891290 -3.202196
C -2.378367 1.262124 -3.063635
C -2.352027 1.555609 -2.924234
C -2.226571 1.895958 -2.779059
C -2.185712 2.133363 -2.703374
C -2.044000 2.347054 -2.555973
C -1.888084 2.560829 -2.426283
C -1.877682 2.471738 -2.334948
C -1.768430 2.501894 -2.270987
C -1.588277 2.851347 -2.180498
C -1.482118 3.134421 -2.123781
C -1.470212 3.235556 -2.091968
C -1.479526 3.125591 -2.077187
C -1.500983 3.039965 -2.050643
C -1.575573 3.158969 -2.017626
C -1.704151 3.164458 -1.970571
C -1.887226 3.089461 -1.916230
C -1.944675 3.042056 -1.869501
C -2.013443 2.788819 -1.822125
C -2.057620 2.976779 -1.737130
C -2.000426 3.118584 -1.630275
C -1.984497 3.229982 -1.535595
C -2.055167 3.192522 -1.479300
C -2.117536 2.979456 -1.501477
C -2.348869 2.605355 -1.597980
C -2.440137 2.542972 -1.620908
C -2.590977 2.437247 -1.638088
C -2.649114 2.459575 -1.608937
C -2.434480 2.620503 -1.457547
C -2.169636 2.932634 -1.276798
C -1.976365 3.229759 -1.138672
C -1.740441 3.757190 -0.927732
C -1.518332 4.289165 -0.695318
C -1.293854 4.562514 -0.498722
C -1.240006 4.705904 -0.354974
C -1.304052 4.708773 -0.243489
C -1.499786 4.629459 -0.259214
C -1.602830 4.498182 -0.219636
C -1.617965 4.454514 -0.095053
C -1.491275 4.358901 0.060996
C -1.299258 4.353304 0.210515
C -1.278288 4.275861 0.283746
C -1.342311 4.119417 0.289793
C -1.423420 3.836664 0.300603
C -1.502413 3.859721 0.430824
C -1.609881 3.857604 0.543084
C -1.878334 3.863946 0.541324
C -2.179899 3.851850 0.515557
C -2.166538 3.942125 0.603795
C -2.012355 4.059350 0.717629
C -1.745784 4.373435 0.936903
C -1.471307 4.491977 1.040011
C -1.210873 4.404093 1.114604
C -0.977929 4.330732 1.190201
C -0.955472 4.172838 1.200373
C -0.883597 3.950967 1.220037
C -1.151673 3.731781 1.153943
C -1.169087 3.697280 1.237201
C -1.265180 3.682796 1.307290
C -1.390711 3.712172 1.378201
C -1.565513 3.859575 1.503823
C -1.120160 4.422283 1.899265
C -1.077563 4.869831 2.237420
C -0.127741 5.323898 2.729475
C 1.024918 5.404389 2.922115
C 2.456059 5.247203 2.934883
C 3.883684 5.067078 2.895600
C 3.565497 4.790145 3.045058
C 3.042741 3.990625 2.846872
C 2.767770 3.430965 2.795957
C 1.693669 2.789972 2.577759
C 0.246740 2.455271 2.631201
C -1.318814 2.396333 2.907158
C -2.883248 2.363156 3.230829
C -2.590717 2.271717 3.275657
C -2.705736 2.230029 3.299656
C -2.827709 1.950651 3.162072
C -2.942843 1.712717 3.010118
C -2.997663 1.534040 2.853516
C -3.124417 1.220366 2.608216
C -3.261925 0.842166 2.224101
C -3.471253 0.582674 1.957287
C -3.487939 0.464364 1.886775
C -3.502566 0.347296 1.775856
C -3.368765 0.417779 1.912025
C -3.272285 0.452888 2.101452
C -3.116632 0.617615 2.416901
C -2.939798 0.876562 2.864663
C -2.816250 0.986344 3.223735
C -2.707822 1.049857 3.560036
C -2.751145 1.159749 3.865168
C -2.825577 1.020253 3.849652
C -2.966654 0.755666 3.589084
C -3.030500 0.638617 3.536129
C -3.056396 0.492674 3.361101
C -3.020174 0.297653 3.039021
C -3.085198 0.052186 2.699065
C -2.942206 -0.018804 2.610236
C -2.607978 0.235549 2.751873
C -2.245718 0.620150 3.064012
C -2.037897 0.773951 3.121475
C -1.928884 0.840710 3.232990
C -1.811094 1.019774 3.490512
C -1.700357 1.065092 3.572013
C -1.847686 0.867959 3.279926
C -2.161042 0.450714 2.843120
C -2.482841 -0.070928 2.349858
C -2.666152 -0.555740 1.823370
C -2.725669 -0.891842 1.452902
C -2.849934 -1.194490 1.235177
C -2.876049 -1.264792 1.258993
C -2.612250 -1.104071 1.464107
C -2.335633 -0.898736 1.816222
C -2.168061 -0.762006 2.234114
C -2.026822 -0.523152 2.632378
C -2.019052 -0.366262 2.949855
C -1.928399 -0.247953 3.075917
C -1.837861 -0.270026 3.037105
C -1.965504 -0.461559 2.870590
C -2.184801 -0.719200 2.548896
C -2.238636 -0.859544 2.248772
C -2.442290 -1.075155 2.061185
C -2.550797 -1.247067 1.862491
C -2.760991 -1.589515 1.462169
C -3.018154 -1.840596 1.085471
C -3.079041 -2.094802 0.794257
C -3.030522 -2.269632 0.589571
C -3.018317 -2.434471 0.283377
C -2.955241 -2.609652 -0.084694
C -2.905915 -2.945870 -0.557972
C -2.700385 -3.127682 -0.775177
C -2.695940 -3.363153 -0.946300
C -2.674799 -3.410792 -1.025029
C -2.663877 -3.565285 -1.066702
C -2.673648 -3.756261 -1.173899
C -2.603347 -3.895926 -1.263332
C -2.566800 -3.968512 -1.296381
C -2.595511 -4.009361 -1.337393
C -2.335559 -3.998560 -1.347541
C -2.214259 -3.972560 -1.291080
C -2.314425 -3.859370 -1.109557
C -2.212876 -3.704653 -0.921756
C -2.324122 -3.601672 -0.590763
C -2.375979 -3.464200 -0.243114
C -2.410037 -3.328119 0.106549
C -2.516216 -3.166097 0.403534
C -2.584275 -3.222758 0.624623
C -2.412430 -3.261826 0.622560
C -2.418038 -3.308565 0.717673
C -2.259560 -3.308735 0.628487
C -2.282702 -3.265775 0.615088
C -2.295994 -3.208369 0.735920
C -2.185437 -3.334174 0.724774
C -2.089497 -3.385892 0.702511
C -2.100072 -3.337522 0.940290
C -2.147007 -3.298087 1.145439
C -2.066154 -3.292101 1.157738
C -1.851383 -3.358088 1.096654
C -1.692145 -3.404324 1.014980
C -1.655975 -3.255997 1.185265
C -1.597269 -3.075163 1.288378
C -1.432889 -3.015802 1.122569
C -1.207076 -3.023675 0.874580
C -1.156842 -3.153558 0.868813
C -1.073136 -3.203653 0.892115
C -1.001283 -3.183874 0.986730
C -0.838816 -3.154588 0.988910
C -0.750979 -3.111948 1.202749
C -0.645439 -2.803075 1.671233
C -0.488610 -2.330305 2.281153
C -0.321318 -1.765294 2.921551
C -0.230908 -1.307359 3.508495
C -0.104315 -0.992589 3.932577
C 0.003420 -0.671272 4.357736
C 0.226226 -0.296037 4.674418
C 0.397818 -0.212578 4.756631
C 0.373243 -0.433806 4.741084
C 0.374333 -0.574823 4.648840
C 0.391880 -0.895876 4.351930
C 0.371429 -1.276646 3.946360
C 0.307509 -1.693472 3.564715
C 0.187375 -2.130199 3.109805
C 0.068062 -2.406538 2.880591
C 0.059602 -2.642185 2.921299
C 0.026831 -2.986720 2.686019
C -0.030433 -2.933865 2.844178
C -0.045422 -2.752610 3.161641
C 0.028445 -2.514881 3.500134
C 0.137629 -2.394341 3.926081
C 0.327542 -2.071397 4.099884
C 0.457259 -1.710693 3.969572
C 0.558961 -1.507113 4.017144
C 0.761157 -1.451466 3.844420
C 0.858988 -1.523723 3.565370
C 0.888723 -1.549649 3.363508
C 0.964889 -1.326184 3.271636
C 0.895212 -1.707956 3.161913
C 0.958510 -1.886575 3.077624
C 1.056649 -1.823156 3.241495
C 1.066046 -1.827664 3.314107
C 1.158864 -1.871638 3.291293
C 1.276570 -1.924141 3.318951
C 1.321996 -2.127504 3.209851
C 1.452956 -2.068600 3.301218
C 1.647388 -1.797730 3.478773
C 1.726598 -1.806758 3.550807
C 1.920810 -1.544733 3.838098
C 2.086432 -1.355982 4.190088
C 2.275065 -1.031277 4.396633
C 2.419144 -0.730175 4.555489
C 2.496044 -0.579577 4.641578
C 2.452974 -0.765156 4.683785
C 2.640772 -0.702201 4.773683
C 2.681952 -0.754300 4.765275
C 2.782397 -0.667691 4.736079
C 2.701251 -0.834240 4.598611
C 2.670637 -1.114384 4.391263
C 2.707310 -1.249778 4.231594
C 2.731405 -1.237111 4.060869
C 2.531092 -1.565846 3.625974
C 2.329045 -2.055337 3.067975
C 2.125975 -2.382115 2.647050
C 1.999862 -2.720557 2.306780
C 1.890433 -2.973834 2.022421
C 1.749374 -3.235762 1.652321
C 1.654109 -3.516305 1.468087
C 1.789022 -3.128757 1.678758
C 2.117720 -2.622965 2.009089
C 2.423838 -2.191977 2.315581
C 2.803087 -1.755780 2.673029
C 3.041406 -1.504922 2.946541
C 3.353445 -1.097835 3.313794
C 3.645690 -0.774406 3.478940
C 3.774411 -0.817882 3.402475
C 3.647969 -1.147863 3.168762
C 3.616309 -1.336249 3.096516
C 3.555670 -1.498951 2.925279
C 3.492789 -1.600691 2.785856
C 3.333735 -1.950610 2.454086
C 3.135695 -2.290826 2.123320
C 3.092886 -2.466142 1.877400
C 3.154331 -2.286998 1.913244
C 3.180319 -2.287160 1.823273
C 3.181923 -2.290725 1.745273
C 3.282849 -2.139972 1.732375
C 3.268777 -2.135661 1.680485
C 3.143604 -2.278381 1.502853
C 2.837288 -2.601632 1.211739
C 2.522064 -3.099445 0.738673
C 2.197994 -3.510246 0.248552
C 1.894495 -3.827109 -0.185711
C 1.605061 -4.185077 -0.586859
C 1.471341 -4.291147 -0.800610
C 1.463930 -4.320870 -0.868931
C 1.623234 -4.157189 -0.808980
C 1.898324 -3.887942 -0.560096
C 2.163078 -3.639813 -0.377765
C 2.480617 -3.502696 -0.157347
C 2.737184 -3.353899 0.077931
C 2.957114 -3.271916 0.254516
C 3.175720 -3.000397 0.458116
C 3.399238 -2.800148 0.682680
C 3.509503 -2.722633 0.733608
C 3.665837 -2.524561 0.933673
C 3.720833 -2.400632 1.046114
C 3.761790 -2.278443 1.047411
C 3.857438 -2.025419 1.070649
C 3.800764 -2.230236 0.893354
C 3.559705 -2.523058 0.554747
C 3.322856 -2.766237 0.220678
C 2.961070 -3.245514 -0.254625
C 2.745062 -3.731365 -0.864790
C 2.363468 -4.145553 -1.347505
C 2.048309 -4.610635 -1.842106
C 1.839785 -4.865877 -2.137045
C 1.752990 -5.007301 -2.325788
C 2.370670 -5.034348 -2.419988
C 2.451815 -5.085330 -2.531220
C 2.437389 -4.996729 -2.447085
C 2.804355 -4.975853 -2.395272
