498
chr1 3D structure from Hi-C (resolution 500000bp)
C -1.963731 0.504141 5.037305
C -2.203983 0.780919 4.816910
C -2.225446 1.249478 4.784556
C -2.314161 1.480812 4.610988
C -3.073364 1.576387 4.041631
C -2.919593 1.990362 3.645278
C -2.642763 2.441726 3.475246
C -2.433357 2.830305 3.290209
C -2.308145 2.942566 3.035856
C -2.394303 2.600213 2.750533
C -2.403443 2.325021 2.609992
C -2.391935 2.296225 2.611231
C -2.508986 2.038641 2.591883
C -2.688491 1.671018 2.548888
C -2.952399 1.139077 2.548617
C -3.205214 0.668766 2.623447
C -3.369131 0.397255 2.661188
C -3.493181 0.244680 2.664595
C -3.642124 0.014252 2.698159
C -3.743809 -0.145751 2.744390
C -3.808807 -0.190342 2.783466
C -3.718186 0.035914 2.740540
C -3.569723 0.502190 2.680937
C -3.401501 1.168614 2.715435
C -3.251993 1.495645 2.596640
C -3.056486 1.777198 2.507442
C -2.923810 2.061463 2.356054
C -2.826415 2.238982 2.276206
C -2.915349 2.110004 2.283182
C -3.035396 1.770944 2.328004
C -3.219081 1.467082 2.330079
C -3.363411 1.342552 2.351331
C -3.529037 1.301166 2.345713
C -3.643243 1.320130 2.363499
C -3.739078 1.390224 2.336308
C -3.763901 1.581909 2.275645
C -3.786503 1.710279 2.159591
C -3.753691 1.650014 2.010755
C -3.814647 1.514817 2.012977
C -3.954312 1.134797 1.983915
C -4.130435 0.843181 2.013505
C -4.241380 0.713801 2.025336
C -4.296610 0.685572 2.093096
C -4.376220 0.547036 2.086799
C -4.451461 0.254447 2.025478
C -4.478467 0.258753 1.961442
C -4.516008 0.263863 1.839335
C -4.562529 0.124242 1.660642
C -4.600361 -0.045971 1.537088
C -4.639444 -0.238938 1.426282
C -4.675628 -0.375716 1.356532
C -4.727533 -0.343107 1.300970
C -4.816645 -0.482879 1.250303
C -4.864227 -0.515011 1.305739
C -4.809415 -0.425688 1.318822
C -4.706113 -0.114759 1.308393
C -4.559870 0.282135 1.265211
C -4.434593 0.759643 1.293318
C -4.372398 1.051979 1.276891
C -4.291358 1.254745 1.227928
C -4.256963 1.405966 1.136682
C -4.285610 1.416479 1.095173
C -4.373921 1.158999 0.975417
C -4.407283 0.991423 0.917725
C -4.300729 0.956530 0.806105
C -4.143892 1.122079 0.746384
C -4.024850 1.325532 0.721808
C -3.951666 1.290573 0.641787
C -3.871194 1.341585 0.591120
C -3.871762 1.391336 0.567920
C -3.858887 1.527085 0.520052
C -3.920454 1.487233 0.545464
C -4.120175 1.235802 0.482576
C -4.228321 1.151793 0.403328
C -4.251408 1.380915 0.410445
C -4.326847 1.307311 0.311946
C -4.358864 1.209142 0.199540
C -4.517075 0.854910 0.060177
C -4.638117 0.695673 -0.123582
C -4.511561 0.727406 -0.244890
C -4.435206 0.536415 -0.331718
C -4.382972 0.412681 -0.467330
C -4.293369 0.571314 -0.492862
C -4.262225 0.718198 -0.492697
C -4.175155 0.873555 -0.454494
C -4.040896 0.921756 -0.427959
C -4.065428 0.816823 -0.389051
C -4.091129 0.868164 -0.419813
C -4.063414 0.766571 -0.427612
C -3.873130 0.701418 -0.360273
C -3.528765 0.823062 -0.326075
C -3.205590 0.990539 -0.330563
C -2.905089 1.179600 -0.312440
C -2.507044 1.593353 -0.329020
C -2.046682 1.965297 -0.274447
C -1.535403 2.500672 -0.254189
C -1.219412 3.018754 -0.334145
C -0.954937 3.175612 -0.363740
C -0.823720 3.156941 -0.426701
C -0.899586 2.967506 -0.558263
C -1.135316 2.603172 -0.639084
C -1.428537 2.294584 -0.682182
C -1.863779 1.900583 -0.777018
C -2.201467 1.567515 -0.797904
C -2.538628 1.420230 -0.816726
C -2.764626 1.438085 -0.831119
C -2.854165 1.571952 -0.806715
C -2.704459 1.832386 -0.774773
C -2.468638 2.129264 -0.768755
C -2.186638 2.371480 -0.730229
C -1.936420 2.590505 -0.747354
C -1.609511 2.803007 -0.758145
C -1.328391 2.986011 -0.769280
C -1.073861 3.135087 -0.741939
C -1.110904 3.114783 -0.870862
C -1.161845 3.014281 -0.949774
C -1.180798 3.034159 -1.017421
C -1.063737 3.079651 -1.091872
C -1.034574 3.178825 -1.179981
C -0.967412 3.166614 -1.234699
C -0.931056 3.065826 -1.289070
C -0.789406 3.082569 -1.284657
C -0.784264 3.042312 -1.374382
C -0.720320 3.006707 -1.423541
C -0.713614 2.829052 -1.394528
C -0.677487 2.724239 -1.388068
C -0.698426 2.694322 -1.413967
C -0.629899 2.680266 -1.485993
C -0.427830 2.836474 -1.449802
C -0.301190 2.962115 -1.476874
C -0.212545 3.077511 -1.517201
C -0.312533 3.067877 -1.675130
C -0.255848 3.022762 -1.738376
C -0.111639 3.082771 -1.783278
C 0.111290 3.275839 -1.803102
C 0.256867 3.267252 -1.859294
C 0.540723 3.385722 -1.834964
C 0.688236 3.214592 -1.827054
C 1.020688 3.338808 -1.773600
C 1.233733 3.350878 -1.845486
C 1.344666 3.391582 -1.900268
C 1.396155 3.339981 -1.999958
C 1.464205 3.306399 -2.088543
C 1.535849 3.225499 -2.154998
C 1.702193 3.339004 -2.255265
C 1.801326 3.308154 -2.376004
C 1.719951 3.329249 -2.397246
C 1.716583 3.289430 -2.447690
C 1.633617 3.214814 -2.399695
C 1.487664 3.201241 -2.437425
C 1.323341 3.203809 -2.506577
C 1.101763 3.249899 -2.553927
C 0.752097 3.066325 -2.511637
C 0.695067 3.059359 -2.584377
C 0.661631 3.045140 -2.692684
C 0.697320 3.101592 -2.863855
C 0.795318 3.066543 -2.981481
C 0.972369 3.072169 -3.027259
C 1.023205 3.062115 -3.121532
C 1.292265 3.298825 -3.258277
C 1.258128 3.317367 -3.367441
C 1.155497 3.337770 -3.401619
C 1.129273 3.377479 -3.436012
C 1.035020 3.568782 -3.466900
C 0.875627 3.479867 -3.494022
C 0.755926 3.391289 -3.494618
C 0.482539 3.196909 -3.441787
C 0.375517 3.036495 -3.376133
C 0.284121 2.866300 -3.392824
C 0.109008 2.712616 -3.407971
C -0.029561 2.319937 -3.332101
C -0.297207 2.185321 -3.339557
C -0.276556 2.098174 -3.362755
C -0.109362 2.150321 -3.459977
C -0.218053 2.067878 -3.527626
C -0.376137 1.968557 -3.561405
C -0.592093 1.794419 -3.492347
C -0.624874 1.785788 -3.510231
C -0.572319 1.737717 -3.498323
C -0.684683 1.727125 -3.484249
C -0.932738 1.577214 -3.467854
C -0.961344 1.585011 -3.489554
C -1.004334 1.498056 -3.448644
C -0.966699 1.405525 -3.373860
C -1.077390 1.328823 -3.363302
C -0.956318 1.293429 -3.381604
C -0.861014 1.185071 -3.386020
C -0.564051 1.236875 -3.415452
C -0.133668 1.350739 -3.461063
C 0.387579 1.536469 -3.526910
C 0.763003 1.700014 -3.721531
C 1.086464 1.723769 -3.852532
C 1.119337 1.712304 -3.986150
C 1.410993 1.783734 -4.014687
C 1.448513 1.786839 -4.060064
C 1.291020 1.712957 -4.107558
C 0.934145 1.547165 -4.127872
C 0.531823 1.379053 -4.073265
C 0.304282 1.320608 -4.081923
C 0.202888 1.198719 -4.043173
C 0.025732 1.141930 -4.176605
C 0.018009 1.099016 -4.247781
C 0.094330 1.076915 -4.280517
C 0.374294 1.111617 -4.357006
C 0.680379 1.289692 -4.603809
C 0.878794 1.367277 -4.688227
C 1.086354 1.528765 -4.799381
C 1.281984 1.516842 -4.761417
C 1.371619 1.470934 -4.771719
C 1.428480 1.484587 -4.739485
C 1.418096 1.456778 -4.656287
C 1.360421 1.311864 -4.511557
C 1.233407 1.188559 -4.463406
C 0.964159 1.093496 -4.520470
C 0.443383 0.914184 -4.366243
C -0.217620 0.743709 -4.078661
C -0.914678 0.451628 -3.820335
C -1.513866 0.262283 -3.582657
C -1.991156 0.086515 -3.376661
C -2.427352 -0.040773 -3.183474
C -2.691819 -0.168911 -2.817493
C -2.788194 -0.117404 -2.682989
C -2.746535 -0.147414 -2.746675
C -2.636652 -0.061087 -2.841621
C -2.561074 -0.057703 -2.999884
C -2.410470 -0.009295 -3.040499
C -2.233258 0.026441 -3.061895
C -2.019637 0.058700 -3.210963
C -1.841804 0.004325 -3.335495
C -1.652463 0.015317 -3.340470
C -1.585379 -0.103695 -3.307511
C -1.438019 -0.118818 -3.252733
C -1.317165 -0.126093 -3.271596
C -0.956297 -0.101340 -3.398598
C -0.714316 -0.094129 -3.414563
C -0.646770 -0.128491 -3.436553
C -0.539393 -0.145170 -3.482609
C 0.490017 0.475800 -3.301343
C 1.480148 0.947084 -3.189341
C 2.202079 1.079597 -3.397195
C 2.824778 1.402645 -3.273502
C 3.617693 1.963364 -2.630064
C 4.561425 2.590316 -1.962156
C 5.424821 3.292091 -1.272405
C 5.316746 3.559635 -0.847570
C 5.171110 3.929003 -0.355687
C 5.512070 4.268930 0.318603
C 5.663044 4.315814 0.658799
C 5.433636 4.347844 1.090935
C 5.152114 4.350951 1.550849
C 4.909217 4.216019 2.063963
C 4.858072 3.885659 2.591819
C 4.987796 3.543704 2.946377
C 4.921922 3.567687 3.355437
C 4.872491 3.705272 3.866772
C 4.313119 3.740503 4.155501
C 3.772544 3.841591 4.316205
C 3.236806 4.141269 4.269444
C 2.671452 4.583510 4.093277
C 1.971298 5.085761 4.010880
C 1.306587 5.587351 3.963471
C 0.774852 6.034785 3.892711
C 1.093817 6.302765 3.389344
C 1.587419 6.441217 2.939802
C 2.183346 6.376720 2.646385
C 2.766896 6.167931 2.556782
C 3.082425 5.604506 3.002953
C 3.216035 4.952466 3.591794
C 3.169582 4.198977 4.277574
C 2.948749 3.391221 5.002949
C 2.519481 2.623532 5.727926
C 1.913627 1.981572 6.421278
C 1.270674 1.492463 7.023636
C 0.867637 1.423571 7.155134
C 0.606235 1.517541 7.173539
C 0.482521 1.802024 7.084729
C 0.639413 2.413314 6.708614
C 0.882221 3.151036 6.208419
C 1.149898 3.870978 5.707571
C 1.383460 4.432737 5.326077
C 1.642613 4.742571 5.096077
C 1.942863 4.869868 4.940901
C 2.462001 4.731950 4.773537
C 2.850432 4.354744 4.752881
C 2.631195 3.160157 3.521972
C 2.298386 2.182178 4.002835
C 2.041781 1.236097 4.383379
C 1.254640 -0.017908 2.943711
C 0.485455 -1.012926 1.900926
C -0.778676 -2.069469 0.944006
C -2.046904 -3.178404 -0.066253
C -2.446745 -3.258285 0.324966
C -2.684350 -3.492456 -0.969729
C -3.029705 -3.927228 -2.338638
C -3.072989 -4.005661 -2.206403
C -3.106973 -4.164439 -1.252756
C -3.042413 -4.161168 -1.016799
C -2.999769 -3.878239 -0.681798
C -3.200096 -3.936164 -0.421805
C -3.371060 -3.989803 -0.238207
C -3.375029 -3.828679 0.005197
C -3.104219 -3.577024 0.378288
C -2.930932 -3.410599 -0.547360
C -2.690945 -3.105318 -0.662152
C -2.680118 -3.140408 -0.697606
C -2.644662 -3.062427 -0.701566
C -2.620976 -3.057057 -0.604775
C -2.759724 -3.157578 -0.467322
C -2.966306 -3.207745 -0.234335
C -3.137631 -3.265728 0.028482
C -3.211587 -3.301909 0.073361
C -3.024253 -3.242924 0.051023
C -2.740532 -3.209590 -0.140213
C -2.428869 -3.225140 -0.426320
C -1.948875 -3.126535 -0.803983
C -1.509188 -3.057048 -1.188922
C -1.124117 -2.979415 -1.536665
C -0.958378 -3.060547 -1.610475
C -0.873501 -3.045636 -1.646909
C -0.979443 -3.131539 -1.487063
C -1.009814 -3.213554 -1.448956
C -0.939371 -3.145468 -1.309675
C -0.809284 -3.099364 -1.277592
C -0.523176 -3.009449 -1.333468
C 0.081351 -2.814147 -1.641307
C 0.688646 -2.738547 -1.948794
C 1.299893 -2.530296 -2.241757
C 1.723991 -2.379693 -2.364950
C 1.814103 -2.445538 -2.495464
C 2.002507 -2.499725 -2.561625
C 1.993124 -2.528300 -2.533300
C 1.591230 -2.671340 -2.371295
C 1.123913 -2.745284 -2.138134
C 0.728595 -3.004027 -2.012944
C 0.520692 -3.171453 -1.992211
C 0.472167 -3.249784 -1.972390
C 0.267510 -3.327949 -1.875074
C 0.241389 -3.446651 -1.901723
C 0.440103 -3.462634 -1.987296
C 0.715824 -3.456115 -2.078949
C 0.805440 -3.433636 -2.050465
C 0.778114 -3.500901 -1.941937
C 0.826215 -3.564323 -1.913591
C 0.860780 -3.585003 -1.906252
C 0.704122 -3.618571 -1.776826
C 0.629312 -3.703828 -1.639535
C 0.518916 -3.838231 -1.563642
C 0.604093 -3.840923 -1.570968
C 0.744922 -3.632749 -1.536413
C 0.856529 -3.421028 -1.488168
C 1.095020 -3.273583 -1.485112
C 1.411731 -3.134027 -1.511025
C 1.597370 -3.022578 -1.522939
C 1.771084 -2.811870 -1.519315
C 1.888633 -2.686559 -1.527688
C 1.835862 -2.761823 -1.443935
C 1.739001 -2.934635 -1.338382
C 1.409897 -3.153251 -1.166966
C 1.110244 -3.384054 -0.964962
C 0.774365 -3.483060 -0.763687
C 0.561674 -3.640603 -0.594800
C 0.336817 -3.741207 -0.414432
C 0.168738 -3.835304 -0.319100
C 0.025275 -3.788576 -0.223336
C 0.021407 -3.722750 -0.146538
C 0.170606 -3.575774 -0.180085
C 0.433521 -3.551203 -0.262545
C 0.657032 -3.541757 -0.329574
C 1.061699 -3.455675 -0.459338
C 1.522932 -3.283051 -0.615232
C 1.969214 -3.166489 -0.763865
C 2.497701 -3.000631 -0.996259
C 2.851122 -2.899800 -1.153230
C 3.200715 -2.782336 -1.259680
C 3.524034 -2.611747 -1.354551
C 3.692597 -2.633753 -1.380037
C 3.916812 -2.530057 -1.376083
C 4.124733 -2.485440 -1.385410
C 4.258409 -2.441436 -1.348123
C 4.323878 -2.433971 -1.251621
C 4.367904 -2.376901 -1.145913
C 4.338506 -2.453767 -1.051950
C 4.184860 -2.468011 -0.935969
C 3.969559 -2.690267 -0.856220
C 3.925959 -2.755382 -0.813318
C 3.884649 -2.845000 -0.707100
C 3.843210 -2.933635 -0.631320
C 3.859811 -2.928871 -0.594223
C 3.904935 -2.834110 -0.571146
C 4.060207 -2.826465 -0.497540
C 4.268668 -2.742369 -0.452704
C 4.216454 -2.706236 -0.365094
C 4.129868 -2.717864 -0.302211
C 3.979697 -2.902996 -0.158449
C 3.611993 -3.263127 0.044844
C 3.280085 -3.487469 0.206963
C 3.021077 -3.549377 0.238162
C 2.613269 -3.584941 0.315018
C 2.055496 -3.806395 0.529852
C 1.442248 -3.884632 0.746227
C 0.879328 -3.683533 0.891613
C 0.429873 -3.444165 0.995585
C -0.075956 -3.322056 1.118906
C -0.641795 -3.248569 1.372674
C -1.060608 -3.207447 1.622003
C -1.263017 -3.022253 1.734987
C -1.362462 -2.951439 1.821330
C -1.436669 -2.953187 1.848770
C -1.443358 -2.921196 1.885202
C -1.452250 -3.048130 2.049800
C -1.399806 -3.076312 1.973517
C -1.273360 -3.128015 1.899798
C -1.079311 -3.224095 1.858245
C -0.734155 -3.125073 1.755233
C -0.273670 -3.090897 1.663845
C 0.161219 -3.004364 1.521058
C 0.571101 -2.831861 1.282095
C 1.023163 -2.781695 1.219110
C 1.411643 -2.692280 1.129452
C 1.631132 -2.625588 1.066503
C 1.508827 -2.814781 1.085550
C 1.298167 -2.980760 1.147766
C 1.081587 -3.166697 1.281707
C 1.202167 -3.143940 1.316197
C 1.363832 -3.023280 1.306727
C 1.466303 -3.029053 1.315304
C 1.795119 -2.906048 1.222711
C 2.366723 -2.665002 1.144471
C 2.873512 -2.479619 1.054663
C 3.481098 -2.227831 0.948686
C 3.778725 -2.164734 0.980144
C 3.891124 -2.157187 0.987436
C 4.036172 -2.056725 1.021115
C 4.069852 -2.089640 1.113394
C 4.028620 -2.147290 1.159844
C 3.930366 -2.115180 1.181276
C 3.781138 -2.117900 1.215924
C 3.517329 -2.186825 1.217382
C 3.405742 -2.297084 1.309702
C 3.222132 -2.440641 1.433325
C 2.876909 -2.572714 1.498152
C 2.724602 -2.656008 1.622246
C 2.553621 -2.739916 1.710827
C 2.387071 -2.853890 1.821616
C 2.309420 -2.948708 2.035119
C 1.990968 -3.025158 2.105400
C 1.946034 -2.951308 2.088136
C 2.062383 -2.838027 2.111224
C 1.797593 -2.833304 2.128758
C 1.532603 -2.761349 2.152434
C 1.275658 -2.729390 2.181937
C 1.283750 -2.591675 2.134096
C 1.347740 -2.416335 2.216864
C 1.072636 -2.389872 2.373730
C 0.868336 -2.358716 2.576450
C 0.773449 -2.231822 2.630590
C 0.831543 -2.203325 2.770269
C 0.851795 -2.140603 2.795238
C 0.677638 -2.129890 2.817118
C 0.607164 -2.142834 2.786270
C 0.744965 -2.025452 2.660523
C 0.980402 -1.862202 2.462789
C 1.128045 -1.839422 2.457701
C 1.214600 -1.910381 2.411942
C 1.285878 -1.967532 2.437846
C 1.276257 -2.135291 2.488440
C 1.038405 -2.182746 2.586366
C 0.778346 -2.411302 2.743647
C 0.496393 -2.691088 2.884633
C 0.534244 -2.806113 2.877270
C 0.710855 -2.636001 2.763026
C 1.082118 -2.450816 2.603910
C 1.589114 -2.139363 2.390650
C 2.329703 -1.967371 2.219532
C 3.078376 -1.641502 1.953474
C 3.658876 -1.335140 1.751358
C 4.087060 -1.114882 1.633932
C 4.390424 -0.998608 1.555826
C 4.516394 -0.949669 1.458401
C 4.519778 -0.922980 1.441499
C 4.389381 -0.871315 1.358017
C 4.233200 -0.894572 1.465278
C 4.116569 -0.852854 1.548646
C 3.945322 -0.576992 2.239784
C 3.847962 -0.620831 2.706527
C 3.476118 -0.662646 2.916752
C 3.121751 -0.721512 3.093523
C 2.990834 -0.790179 3.393634
C 2.805467 -0.938658 3.643328
C 2.551459 -1.021593 3.729512
C 2.239323 -1.344509 3.220472
C 2.074285 -1.303789 2.885542
C 2.351527 -1.192152 2.694889
C 2.740396 -1.026594 2.580917
C 2.798208 -1.022631 2.540915
C 2.857830 -0.860373 2.310147
C 3.024712 -0.791502 2.244336
C 3.453451 -0.636876 2.072173
