498
chr1 3D structure from Hi-C (resolution 500000bp)
C -1.068534 1.463409 4.133719
C -1.390578 1.666571 3.963271
C -1.494952 2.031945 3.940275
C -1.611035 2.221496 3.792969
C -2.604689 2.266019 3.556639
C -2.414688 2.540062 3.172047
C -2.214374 2.840921 2.932836
C -1.975775 3.131681 2.756711
C -1.836369 3.160179 2.585211
C -1.885169 2.854189 2.389989
C -1.915706 2.547345 2.319586
C -1.916052 2.557971 2.243075
C -2.053380 2.344703 2.250928
C -2.197222 1.992190 2.306394
C -2.500067 1.532715 2.384771
C -2.732588 1.178262 2.497780
C -2.894524 0.966524 2.548625
C -3.041075 0.837887 2.584022
C -3.152961 0.658659 2.664631
C -3.273120 0.545786 2.720221
C -3.335121 0.606320 2.696959
C -3.218259 0.713727 2.626874
C -3.080582 1.095127 2.478091
C -2.900139 1.677339 2.412887
C -2.716106 1.968561 2.266286
C -2.557412 2.201506 2.083751
C -2.394061 2.438905 1.959709
C -2.319940 2.538508 1.877125
C -2.436055 2.555474 1.883852
C -2.586889 2.253235 1.929600
C -2.782067 1.893445 2.045914
C -2.873139 1.807110 2.074073
C -3.008840 1.741186 2.132013
C -3.122657 1.772518 2.125872
C -3.200256 1.854832 2.093967
C -3.223125 1.943112 2.017333
C -3.213534 2.062765 1.943649
C -3.163040 2.059078 1.745170
C -3.267624 1.997548 1.722289
C -3.426255 1.778627 1.719864
C -3.600455 1.545174 1.775722
C -3.717891 1.398127 1.798088
C -3.732347 1.409348 1.866896
C -3.819818 1.296224 1.859620
C -3.929865 1.022835 1.855030
C -3.940256 0.913637 1.835514
C -3.955546 0.777337 1.746074
C -3.993144 0.648406 1.665377
C -3.985015 0.457777 1.626793
C -4.067389 0.249505 1.578831
C -4.111054 0.090321 1.559440
C -4.171727 0.086259 1.537905
C -4.233101 -0.041304 1.567651
C -4.279435 -0.041804 1.567755
C -4.254637 0.004918 1.540589
C -4.218692 0.312539 1.454185
C -4.069949 0.670618 1.354822
C -3.917018 1.165945 1.296333
C -3.798439 1.476035 1.221709
C -3.781071 1.703916 1.080581
C -3.732003 1.782660 1.034691
C -3.761338 1.759301 0.977613
C -3.856793 1.569813 0.915808
C -3.891994 1.385613 0.878982
C -3.817822 1.278164 0.792936
C -3.740609 1.372003 0.685481
C -3.615311 1.523468 0.634002
C -3.580519 1.556890 0.563719
C -3.487823 1.600926 0.501113
C -3.417392 1.528210 0.516433
C -3.350087 1.682086 0.492929
C -3.447900 1.675397 0.520006
C -3.619112 1.486813 0.516144
C -3.728444 1.401980 0.487201
C -3.721128 1.510182 0.454620
C -3.774459 1.432976 0.415109
C -3.874255 1.417029 0.319139
C -4.063451 1.060924 0.216720
C -4.156259 0.800976 0.082436
C -4.021759 0.773711 0.008588
C -3.985352 0.693366 -0.105021
C -3.927448 0.661309 -0.195112
C -3.860510 0.736032 -0.260668
C -3.779521 0.859106 -0.320424
C -3.699923 0.989243 -0.331884
C -3.546853 1.077634 -0.260315
C -3.574595 1.030546 -0.260383
C -3.564685 0.987195 -0.284827
C -3.557380 0.838071 -0.267668
C -3.410287 0.881101 -0.269001
C -3.076412 0.958991 -0.239912
C -2.772857 1.123334 -0.255675
C -2.486579 1.293891 -0.315465
C -2.102590 1.622700 -0.359693
C -1.624900 1.908659 -0.319471
C -1.141662 2.379696 -0.400186
C -0.744000 2.750107 -0.471381
C -0.571498 2.895423 -0.555789
C -0.488543 2.861040 -0.622002
C -0.587466 2.754279 -0.715510
C -0.773809 2.443566 -0.719338
C -1.123911 2.226568 -0.773125
C -1.505601 1.941455 -0.766551
C -1.905581 1.682030 -0.783779
C -2.164419 1.577043 -0.760232
C -2.344607 1.580198 -0.763352
C -2.422311 1.633669 -0.756037
C -2.329701 1.843793 -0.791938
C -2.052565 2.085034 -0.804244
C -1.810239 2.221143 -0.820407
C -1.581853 2.424307 -0.889707
C -1.336712 2.599986 -0.974059
C -1.042541 2.795464 -1.002393
C -0.827480 2.962148 -1.071993
C -0.835957 2.944832 -1.154237
C -0.938654 2.827485 -1.247944
C -0.914206 2.882803 -1.315748
C -0.670465 2.898137 -1.330235
C -0.529692 2.893473 -1.379297
C -0.472564 2.839572 -1.395170
C -0.393888 2.750769 -1.365838
C -0.302616 2.759246 -1.375312
C -0.242080 2.731539 -1.359407
C -0.144352 2.650875 -1.343300
C -0.290590 2.538913 -1.334069
C -0.393300 2.500863 -1.349417
C -0.422749 2.440009 -1.430505
C -0.383634 2.416709 -1.490798
C -0.181337 2.552718 -1.540166
C 0.033132 2.582422 -1.533854
C 0.169630 2.631935 -1.577316
C 0.149021 2.594121 -1.656709
C 0.316264 2.509949 -1.645082
C 0.469155 2.583037 -1.695115
C 0.682211 2.700828 -1.735947
C 0.785404 2.677070 -1.779180
C 0.912525 2.847700 -1.889647
C 0.901564 2.723849 -1.931391
C 1.220496 2.798039 -1.940961
C 1.382410 2.819922 -2.033700
C 1.522384 2.746778 -2.100177
C 1.608769 2.661698 -2.207821
C 1.677744 2.657661 -2.292555
C 1.774041 2.581583 -2.331262
C 1.907395 2.721945 -2.423117
C 1.925636 2.700340 -2.500962
C 1.865396 2.651265 -2.525721
C 1.781498 2.656803 -2.524807
C 1.623233 2.603743 -2.545938
C 1.507823 2.514373 -2.564091
C 1.348790 2.471265 -2.612084
C 1.200885 2.454322 -2.612073
C 0.867012 2.306583 -2.570692
C 0.725682 2.378057 -2.658340
C 0.635985 2.428271 -2.757690
C 0.635126 2.541115 -2.860655
C 0.680705 2.618079 -2.914528
C 0.855607 2.608454 -2.977619
C 1.032583 2.552466 -3.083740
C 1.344738 2.675411 -3.235847
C 1.355380 2.663760 -3.320723
C 1.523832 2.568763 -3.331110
C 1.548576 2.520840 -3.354393
C 1.634989 2.531839 -3.424603
C 1.390860 2.516147 -3.443611
C 1.232518 2.438422 -3.457271
C 0.891528 2.355587 -3.417729
C 0.716246 2.267896 -3.392014
C 0.423610 2.259730 -3.437727
C 0.288479 2.176085 -3.387149
C -0.016600 1.915808 -3.306780
C -0.080725 1.772475 -3.204906
C -0.145385 1.760684 -3.190377
C -0.024433 1.771319 -3.254876
C -0.081924 1.733882 -3.234219
C -0.248590 1.626344 -3.177114
C -0.447851 1.427209 -3.153270
C -0.430994 1.441698 -3.169411
C -0.390741 1.366177 -3.224310
C -0.494622 1.317189 -3.263368
C -0.596917 1.189184 -3.194118
C -0.575894 1.130206 -3.200376
C -0.611420 1.071631 -3.203498
C -0.688098 1.079686 -3.139328
C -0.819525 1.024376 -3.083449
C -0.860479 1.018602 -3.087796
C -0.785476 0.978626 -3.047723
C -0.594756 0.991261 -3.115906
C -0.224651 1.054710 -3.204951
C 0.247411 1.156264 -3.329437
C 0.660755 1.221692 -3.475677
C 0.908208 1.185853 -3.626331
C 0.896587 1.204144 -3.733344
C 1.110016 1.244842 -3.809516
C 1.268677 1.237910 -3.837401
C 1.186546 1.134547 -3.844434
C 0.924336 0.979373 -3.790027
C 0.570560 0.826427 -3.718203
C 0.389258 0.818132 -3.704341
C 0.262888 0.728771 -3.692666
C 0.173704 0.638846 -3.729669
C 0.163807 0.635602 -3.789683
C 0.216890 0.667214 -3.836656
C 0.417970 0.697592 -3.918619
C 0.730801 0.827793 -4.166020
C 1.063550 0.850968 -4.215256
C 1.290733 0.911044 -4.341446
C 1.328329 0.926096 -4.409257
C 1.227519 0.921777 -4.476454
C 1.202954 0.881777 -4.497326
C 1.168453 0.849243 -4.513133
C 1.145386 0.737418 -4.365033
C 0.838289 0.653500 -4.324348
C 0.638452 0.662318 -4.339116
C 0.228356 0.525270 -4.120464
C -0.281805 0.346045 -3.756013
C -0.902728 0.185545 -3.434065
C -1.453102 0.083969 -3.092975
C -1.966197 0.039438 -2.876819
C -2.292717 -0.047300 -2.676306
C -2.528415 -0.161035 -2.340085
C -2.610109 -0.103545 -2.260371
C -2.584556 -0.074963 -2.329509
C -2.463544 -0.043705 -2.431426
C -2.397110 -0.058661 -2.547664
C -2.296674 -0.050931 -2.611687
C -2.105451 -0.038001 -2.688139
C -1.913621 -0.042339 -2.818379
C -1.787572 -0.085318 -2.871041
C -1.634738 -0.137635 -2.879895
C -1.591845 -0.221509 -2.835162
C -1.489141 -0.241164 -2.868043
C -1.263005 -0.285010 -2.873658
C -1.033402 -0.263696 -3.023464
C -0.784833 -0.309533 -3.087903
C -0.668035 -0.379060 -3.154848
C -0.598139 -0.392234 -3.190592
C -0.543125 -0.571463 -3.662906
C -0.467693 -0.854489 -4.067400
C -0.178084 -0.964348 -4.461219
C 0.533299 -0.729138 -4.285554
C 1.289673 -0.204268 -3.794939
C 1.594948 0.797879 -3.151800
C 1.089394 0.519351 -3.477801
C 1.811504 1.599110 -2.573831
C 2.596890 2.675087 -1.712364
C 3.230252 3.191243 -1.068199
C 3.285103 3.317319 -0.860830
C 3.099738 3.410424 -0.425143
C 3.451273 3.043060 -0.096421
C 4.569474 3.934237 1.233975
C 4.573255 3.637107 1.773829
C 4.772066 3.308777 2.012033
C 4.787528 3.337442 2.317836
C 4.874658 3.374871 2.653269
C 4.340031 2.975927 3.216430
C 3.826362 2.630320 3.662385
C 3.436715 2.784462 3.720491
C 3.047985 3.048442 3.664627
C 2.358110 3.489676 3.845026
C 1.670274 3.967182 4.078216
C 1.271939 4.365481 4.219853
C 1.797380 4.868034 3.480660
C 2.472478 5.248268 2.665683
C 3.132742 5.092983 2.180849
C 3.749751 4.711058 2.081144
C 4.214218 4.241275 2.271032
C 4.542156 3.716103 2.621913
C 4.499671 3.265182 3.130047
C 4.210285 2.904389 3.755607
C 3.739720 2.605304 4.499605
C 3.146053 2.379469 5.225094
C 2.501801 2.354597 5.660661
C 1.991084 2.434661 5.867108
C 1.618500 2.618671 5.924654
C 1.387814 2.864215 5.873591
C 1.297121 3.174478 5.710577
C 1.347178 3.553671 5.423907
C 1.708970 3.999545 4.737646
C 1.966283 4.482767 4.101506
C 2.197958 4.870361 3.583878
C 2.440234 5.111266 3.212008
C 2.726988 5.227049 2.904208
C 3.184062 5.085671 2.561678
C 2.914875 3.952509 1.414525
C 2.055291 2.562476 0.503522
C 1.691201 1.697621 1.216184
C 0.696341 0.312159 0.461765
C -0.092979 -0.840352 -0.073672
C -1.180687 -2.171707 -0.633749
C -2.435318 -3.304111 -1.286486
C -2.805622 -3.211834 -0.900109
C -2.769793 -2.949666 -0.373224
C -3.222387 -3.491365 -1.514921
C -2.781429 -3.185398 -0.213004
C -2.616096 -3.104027 0.751143
C -2.621774 -3.016701 0.993960
C -2.589693 -2.751256 1.328376
C -2.789475 -2.787343 1.546275
C -2.974772 -2.781714 1.758442
C -2.911886 -2.601780 1.930990
C -3.005483 -2.718653 0.950359
C -3.048014 -2.762879 0.006078
C -2.729687 -2.530445 -0.152479
C -2.716952 -2.598289 -0.120960
C -2.653078 -2.579991 -0.091940
C -2.619988 -2.580901 -0.050273
C -2.730402 -2.650969 0.104248
C -2.896303 -2.683679 0.360604
C -3.061430 -2.726264 0.576523
C -3.146333 -2.752759 0.698041
C -2.960767 -2.703011 0.648850
C -2.725275 -2.712479 0.497898
C -2.432249 -2.738498 0.226161
C -2.031300 -2.710504 -0.135170
C -1.582731 -2.684952 -0.522287
C -1.235588 -2.685523 -0.803077
C -1.089855 -2.742767 -0.944359
C -1.064327 -2.800232 -0.954942
C -1.166501 -2.873717 -0.859605
C -1.244905 -2.975176 -0.746768
C -1.132600 -2.929903 -0.706416
C -1.037757 -2.933178 -0.699654
C -0.756577 -2.909498 -0.820841
C -0.223170 -2.821909 -1.080046
C 0.383922 -2.717678 -1.422329
C 0.966558 -2.593765 -1.724050
C 1.385285 -2.463864 -1.925359
C 1.421092 -2.505472 -2.001300
C 1.538275 -2.518479 -2.073752
C 1.500318 -2.525008 -2.053260
C 1.184537 -2.630535 -1.926248
C 0.724328 -2.757061 -1.663093
C 0.343465 -2.897570 -1.552187
C 0.117462 -3.018210 -1.527847
C 0.010291 -3.127280 -1.482563
C -0.197350 -3.266971 -1.341830
C -0.236845 -3.357397 -1.333774
C -0.093599 -3.400088 -1.401183
C 0.152600 -3.358445 -1.504670
C 0.277662 -3.381551 -1.423658
C 0.270747 -3.467567 -1.263755
C 0.323256 -3.468041 -1.248296
C 0.361668 -3.497866 -1.210578
C 0.214824 -3.560382 -1.048813
C 0.066038 -3.618679 -0.916339
C -0.017863 -3.649842 -0.840379
C 0.034925 -3.631420 -0.858490
C 0.180774 -3.501660 -0.879251
C 0.337210 -3.423681 -0.801870
C 0.597250 -3.238142 -0.851474
C 0.916689 -3.091214 -0.956780
C 1.161556 -3.009675 -0.999294
C 1.343534 -2.947480 -1.038962
C 1.447420 -2.935734 -1.044005
C 1.406884 -3.012650 -0.980203
C 1.348767 -3.014305 -0.923589
C 1.062193 -3.176621 -0.724842
C 0.727798 -3.297804 -0.517206
C 0.425145 -3.328247 -0.302128
C 0.175081 -3.365875 -0.124373
C 0.028080 -3.315075 -0.000366
C -0.137922 -3.248491 0.136455
C -0.295605 -3.292302 0.266545
C -0.310618 -3.213015 0.301972
C -0.101845 -3.109922 0.252891
C 0.131892 -3.089791 0.181119
C 0.400445 -3.083193 0.080454
C 0.766877 -3.029186 -0.095073
C 1.183635 -3.021559 -0.278505
C 1.577009 -2.964803 -0.466335
C 2.058322 -2.942296 -0.714276
C 2.370201 -2.947509 -0.846400
C 2.634722 -2.910935 -0.960327
C 2.893593 -2.840113 -1.064068
C 3.010761 -2.907436 -1.025577
C 3.229608 -2.840860 -1.098353
C 3.418255 -2.841073 -1.078466
C 3.493808 -2.817433 -1.028697
C 3.557753 -2.753945 -1.021544
C 3.612685 -2.802154 -0.964183
C 3.579833 -2.880630 -0.866211
C 3.441888 -2.885133 -0.789196
C 3.231068 -2.984310 -0.640629
C 3.259567 -2.936711 -0.628325
C 3.306294 -2.893182 -0.575184
C 3.328764 -2.902828 -0.497361
C 3.399243 -2.779599 -0.452677
C 3.496507 -2.622498 -0.444850
C 3.687372 -2.493066 -0.441471
C 3.894362 -2.427201 -0.432107
C 3.788021 -2.442408 -0.377614
C 3.685910 -2.533101 -0.263809
C 3.540891 -2.707790 -0.144131
C 3.227535 -3.009051 0.045273
C 2.903620 -3.215314 0.220743
C 2.659240 -3.353696 0.355703
C 2.287959 -3.441258 0.491643
C 1.816848 -3.566141 0.732864
C 1.257325 -3.537254 0.940693
C 0.701316 -3.364467 1.149301
C 0.249445 -3.106764 1.287190
C -0.207551 -2.951345 1.470712
C -0.765048 -2.838604 1.680643
C -1.123570 -2.680399 1.887434
C -1.263393 -2.447273 1.964051
C -1.370664 -2.320420 2.020123
C -1.442019 -2.282752 2.082635
C -1.450219 -2.252637 2.119915
C -1.459153 -2.376344 2.225461
C -1.394834 -2.417863 2.216067
C -1.321576 -2.485276 2.161327
C -1.199999 -2.603896 2.135875
C -0.849739 -2.651156 2.022118
C -0.433607 -2.734587 1.902924
C -0.016055 -2.756658 1.726457
C 0.333400 -2.653371 1.520178
C 0.715084 -2.649350 1.417324
C 1.072306 -2.588677 1.335689
C 1.267065 -2.583120 1.272037
C 1.124571 -2.691462 1.348655
C 0.914410 -2.741489 1.450443
C 0.701845 -2.843577 1.599329
C 0.840124 -2.783670 1.542076
C 1.040283 -2.693535 1.493377
C 1.162700 -2.686518 1.466408
C 1.455166 -2.593812 1.387066
C 1.972598 -2.380768 1.206118
C 2.493643 -2.212424 1.056600
C 3.034190 -2.014157 0.916482
C 3.299726 -2.006362 0.945808
C 3.404174 -2.055537 0.950204
C 3.540243 -2.052875 0.971712
C 3.613959 -2.058855 0.981360
C 3.586663 -2.097389 1.088115
C 3.487993 -2.144304 1.102330
C 3.416574 -2.169959 1.117557
C 3.183087 -2.206941 1.152097
C 3.048430 -2.224364 1.245772
C 2.878408 -2.286915 1.322925
C 2.555176 -2.406627 1.499992
C 2.393591 -2.533838 1.624301
C 2.226500 -2.588451 1.756259
C 2.031907 -2.623888 1.891825
C 1.968235 -2.706018 2.117264
C 1.692377 -2.716337 2.186072
C 1.642613 -2.568631 2.139697
C 1.768904 -2.436289 2.053226
C 1.607792 -2.258521 2.028812
C 1.372449 -2.166574 2.018860
C 1.183286 -2.095065 2.030192
C 1.188149 -1.947237 1.967508
C 1.281133 -1.814151 2.078803
C 1.076375 -1.806944 2.292552
C 0.846862 -1.785247 2.533960
C 0.696779 -1.799322 2.622812
C 0.724407 -1.758690 2.728642
C 0.699949 -1.785743 2.783022
C 0.566408 -1.717951 2.791869
C 0.489574 -1.700744 2.722570
C 0.570334 -1.717029 2.663803
C 0.771605 -1.623676 2.514612
C 0.953246 -1.684580 2.474607
C 1.066419 -1.715575 2.448985
C 1.157701 -1.757917 2.426933
C 1.117242 -1.892375 2.516918
C 0.919183 -1.965453 2.654669
C 0.671647 -2.054345 2.741854
C 0.441814 -2.194365 2.840096
C 0.372009 -2.193516 2.896470
C 0.548653 -2.118246 2.763406
C 0.916182 -1.960739 2.587125
C 1.386674 -1.767449 2.300863
C 2.039508 -1.642150 1.979967
C 2.763404 -1.443714 1.722796
C 3.317308 -1.275605 1.543699
C 3.746248 -1.149526 1.408118
C 4.009607 -1.099980 1.388374
C 4.038365 -1.044071 1.454396
C 4.037610 -1.017577 1.439949
C 3.903277 -0.974763 1.479838
C 3.793342 -0.907929 1.507051
C 3.670371 -0.884750 1.579760
C 3.474300 -0.608210 2.218408
C 3.390195 -0.584722 2.622279
C 3.119079 -0.597976 2.671252
C 2.801064 -0.627746 2.864374
C 2.740976 -0.666563 3.118880
C 2.513901 -0.765719 3.389630
C 2.282945 -0.765763 3.412517
C 2.116797 -1.033446 2.904988
C 1.958653 -1.038424 2.594212
C 2.192663 -0.983883 2.429790
C 2.532642 -0.924422 2.405531
C 2.494923 -0.909105 2.421895
C 2.564006 -0.855395 2.244185
C 2.718540 -0.841991 2.230168
C 3.036366 -0.775251 2.114530
