498
chr1 3D structure from Hi-C (resolution 500000bp)
C -0.650826 1.483068 4.010700
C -0.907370 1.493188 3.988610
C -0.990425 1.638183 3.981688
C -1.130230 1.653381 3.893071
C -1.661140 1.331546 3.966584
C -1.818580 1.484316 3.640746
C -1.819235 1.704010 3.381350
C -1.823484 1.927770 3.198625
C -1.861276 2.008846 3.025767
C -1.966257 1.829389 2.927859
C -2.025246 1.678376 2.830681
C -2.091625 1.632466 2.713790
C -2.171819 1.488808 2.775175
C -2.316091 1.221865 2.742275
C -2.396100 0.754657 2.740091
C -2.487820 0.294807 2.698903
C -2.537613 0.017520 2.765662
C -2.562098 -0.159519 2.831855
C -2.568859 -0.422418 2.966183
C -2.637954 -0.546965 2.980643
C -2.640544 -0.602852 3.034289
C -2.680208 -0.376517 3.091937
C -2.663089 0.059897 3.164740
C -2.663363 0.560999 3.042288
C -2.668075 0.854821 2.851589
C -2.642833 1.123148 2.696701
C -2.607755 1.293925 2.512969
C -2.579061 1.409869 2.387477
C -2.607145 1.263371 2.365967
C -2.604232 0.966372 2.394405
C -2.690102 0.741489 2.461429
C -2.800376 0.624354 2.582528
C -2.905533 0.594982 2.596938
C -2.946667 0.549616 2.594646
C -3.028877 0.605021 2.627626
C -3.043531 0.691360 2.465569
C -3.124713 0.686051 2.284016
C -3.138685 0.549881 2.094249
C -3.130133 0.418008 2.138960
C -3.143791 0.024795 2.261358
C -3.262112 -0.220878 2.322092
C -3.332722 -0.369021 2.293858
C -3.377266 -0.431235 2.377957
C -3.422971 -0.528735 2.448648
C -3.454225 -0.787497 2.533194
C -3.488538 -0.885702 2.349702
C -3.555897 -0.861529 2.157241
C -3.547847 -0.974803 2.021096
C -3.599910 -1.119322 2.015121
C -3.602111 -1.266716 1.885657
C -3.625924 -1.450957 1.792827
C -3.669773 -1.485327 1.689807
C -3.698754 -1.656046 1.744684
C -3.708778 -1.717506 1.649429
C -3.718039 -1.674728 1.617918
C -3.690944 -1.433360 1.571087
C -3.674830 -1.095337 1.581646
C -3.627981 -0.603817 1.551237
C -3.651698 -0.306882 1.470263
C -3.628066 -0.065664 1.331347
C -3.652609 0.042894 1.340942
C -3.707863 -0.016138 1.303201
C -3.731579 -0.211416 1.187070
C -3.795847 -0.277914 1.114839
C -3.785299 -0.216832 1.064134
C -3.687076 -0.046980 1.010127
C -3.662012 0.135801 0.977499
C -3.786880 0.233527 0.867223
C -3.855520 0.419741 0.851801
C -3.924570 0.490979 0.819675
C -3.920642 0.563186 0.801293
C -3.968688 0.453091 0.794807
C -4.060947 0.193395 0.736783
C -4.070597 0.093791 0.667591
C -3.918278 0.103142 0.669102
C -3.908135 -0.042745 0.550001
C -3.824629 -0.156479 0.466744
C -3.874834 -0.534721 0.275903
C -3.897816 -0.721544 0.081529
C -3.846953 -0.658345 -0.028559
C -3.770311 -0.743516 -0.107910
C -3.878295 -0.755675 -0.276972
C -3.842193 -0.487722 -0.298541
C -3.854808 -0.347706 -0.318534
C -3.888172 -0.131214 -0.300476
C -3.883887 -0.008183 -0.287117
C -3.881313 0.006635 -0.272854
C -3.977461 0.074300 -0.333420
C -3.953294 -0.053568 -0.383053
C -3.910608 -0.227752 -0.525599
C -3.829285 0.154647 -0.492278
C -3.560904 0.399554 -0.457941
C -3.336721 0.656807 -0.397331
C -3.143712 1.087854 -0.336234
C -2.876555 1.467067 -0.236256
C -2.438260 2.143806 -0.021523
C -2.015837 2.805013 0.249573
C -1.775886 2.954509 0.313908
C -1.694739 3.234575 0.400857
C -1.839937 3.115433 0.139229
C -2.069275 2.816888 -0.098748
C -2.379075 2.682319 -0.273170
C -2.696037 2.233282 -0.466301
C -3.025472 1.857579 -0.653574
C -3.185681 1.524187 -0.762082
C -3.295501 1.185895 -0.905745
C -3.233342 1.174179 -0.751655
C -3.049551 1.319519 -0.610625
C -2.823426 1.506151 -0.468188
C -2.589227 1.679984 -0.437053
C -2.378356 1.861580 -0.412844
C -2.230585 2.115559 -0.439362
C -2.057767 2.434871 -0.380523
C -1.952564 2.645059 -0.405362
C -1.896076 2.573754 -0.496727
C -1.931662 2.527102 -0.632018
C -1.983433 2.757660 -0.576120
C -1.900144 2.912466 -0.603806
C -1.844089 3.015202 -0.601793
C -1.868209 3.063677 -0.692622
C -1.739559 2.962275 -0.725897
C -1.702440 3.068108 -0.754741
C -1.658362 3.035667 -0.819645
C -1.624298 2.935995 -0.981787
C -1.712182 2.813509 -1.070247
C -1.730078 2.730527 -1.167656
C -1.735771 2.635197 -1.259457
C -1.818923 2.741867 -1.354440
C -1.669830 2.943907 -1.272846
C -1.557809 3.003366 -1.279824
C -1.455335 3.042343 -1.269463
C -1.355086 2.937498 -1.328616
C -1.280524 2.919301 -1.410922
C -1.119853 2.911174 -1.408764
C -0.910070 3.053823 -1.326978
C -0.850589 3.114987 -1.368384
C -0.652582 3.249592 -1.305044
C -0.472335 3.302376 -1.227509
C -0.284129 3.450701 -1.170705
C -0.049371 3.537124 -1.101224
C 0.111225 3.658768 -1.069902
C 0.230883 3.701291 -1.053456
C 0.457215 3.732743 -1.022616
C 0.656913 3.774548 -0.964392
C 0.783480 3.831275 -1.056353
C 0.920873 3.889311 -1.089412
C 0.948085 3.876166 -1.120480
C 1.042628 3.816301 -1.205227
C 0.975530 3.619431 -1.333847
C 0.797113 3.464107 -1.508581
C 0.682799 3.389063 -1.651154
C 0.533650 3.299740 -1.696409
C 0.249184 3.282831 -1.808514
C 0.160276 3.272692 -1.908182
C 0.082595 3.297198 -1.976243
C 0.167728 3.285247 -2.033245
C 0.257859 3.231277 -2.071241
C 0.347074 3.147131 -2.146208
C 0.587255 3.162287 -2.221834
C 0.799677 3.131255 -2.286659
C 0.851918 3.029578 -2.364487
C 0.840064 2.963526 -2.412566
C 0.861220 3.026784 -2.453092
C 0.944237 3.122832 -2.513469
C 0.821688 3.114062 -2.601696
C 0.595523 3.082229 -2.695094
C 0.427948 2.879671 -2.668808
C 0.276808 2.814075 -2.679716
C 0.179312 2.670457 -2.715343
C -0.001083 2.573085 -2.788457
C -0.442651 2.368898 -2.885563
C -0.648559 2.261607 -2.934105
C -0.769419 2.233377 -2.968119
C -0.721200 2.333963 -3.039836
C -0.772969 2.217681 -3.046206
C -1.009737 2.118648 -3.109778
C -1.150525 1.952582 -3.085298
C -0.976916 1.910115 -3.149861
C -1.012370 1.940842 -3.193071
C -0.607188 1.876463 -3.174905
C -0.710444 1.713025 -3.166550
C -0.791477 1.763215 -3.233421
C -0.743116 1.694680 -3.236081
C -0.881533 1.608305 -3.341795
C -1.057839 1.525098 -3.297051
C -0.948277 1.369465 -3.240381
C -1.271462 1.271478 -3.247200
C -0.973844 1.381503 -3.318304
C -0.562015 1.468122 -3.332489
C -0.115310 1.660193 -3.364440
C 0.357100 1.788910 -3.366729
C 0.725567 1.818109 -3.428121
C 0.906108 1.774337 -3.618380
C 1.170845 1.853830 -3.633657
C 1.070041 1.799053 -3.601519
C 0.901755 1.714922 -3.640478
C 0.565726 1.511166 -3.713156
C 0.235938 1.342688 -3.813259
C 0.029915 1.254464 -3.831434
C -0.087368 1.188795 -3.647235
C -0.244484 1.109144 -3.697998
C -0.094073 1.069392 -3.801736
C 0.068656 1.002344 -3.831149
C 0.450360 1.020114 -3.831038
C 1.016350 1.174758 -3.766188
C 1.217282 1.193831 -3.744064
C 1.345153 1.234064 -3.883092
C 1.395046 1.181711 -3.873650
C 1.381212 1.102213 -3.870682
C 1.361227 1.066665 -3.958963
C 1.227828 1.006080 -4.009762
C 0.870296 0.886241 -4.006770
C 0.759354 0.838929 -3.976522
C 0.577122 0.774217 -3.959648
C 0.214979 0.575797 -3.932471
C -0.352374 0.392139 -3.724917
C -0.945546 0.133959 -3.452049
C -1.486739 -0.087249 -3.219180
C -1.811819 -0.291093 -3.010555
C -2.145256 -0.491245 -2.823403
C -2.377252 -0.618786 -2.567607
C -2.467135 -0.639923 -2.461490
C -2.443966 -0.662834 -2.538341
C -2.336058 -0.559403 -2.623222
C -2.237578 -0.513613 -2.681525
C -2.209713 -0.449450 -2.798988
C -2.062408 -0.402777 -2.954618
C -1.948228 -0.326891 -3.069926
C -1.748831 -0.318075 -3.186554
C -1.615125 -0.320582 -3.286027
C -1.555105 -0.455855 -3.334972
C -1.390636 -0.466752 -3.449422
C -1.255519 -0.490111 -3.518205
C -0.968624 -0.481383 -3.649144
C -0.738644 -0.550403 -3.834862
C -0.699148 -0.529105 -3.767463
C -0.546374 -0.506002 -3.669791
C 0.258249 -0.017284 -3.465127
C 0.960346 0.364896 -3.248534
C 1.634238 0.631126 -3.147552
C 2.153285 0.941375 -2.854691
C 2.748527 1.424782 -2.315582
C 3.469277 1.854687 -1.962321
C 4.162392 2.327082 -1.617248
C 4.021252 2.594903 -1.238935
C 3.872018 2.912325 -0.822526
C 3.867279 3.237181 -0.415045
C 3.792367 3.430418 -0.178401
C 3.574829 3.550391 0.199042
C 3.324024 3.655696 0.641363
C 3.077449 3.704374 1.175953
C 3.061648 3.521811 1.535846
C 3.217172 3.337895 1.637240
C 3.281760 3.271207 1.775562
C 3.292592 3.323515 1.987163
C 2.908211 3.275315 2.253735
C 2.502869 3.284039 2.426280
C 2.066601 3.430453 2.439062
C 1.621226 3.651154 2.382505
C 1.050484 3.899154 2.551961
C 0.580562 4.113078 2.745592
C 0.248673 4.280313 2.895820
C 0.505476 4.440569 2.565737
C 0.892249 4.529958 2.238382
C 1.397035 4.476977 1.993445
C 1.948288 4.302732 1.849199
C 2.460239 4.064703 1.792934
C 2.697160 3.743766 2.040529
C 2.776613 3.401726 2.385530
C 2.723107 3.040082 2.808959
C 2.508039 2.679859 3.292693
C 2.132211 2.375019 3.798446
C 1.664418 2.192841 4.248175
C 1.200454 2.115616 4.615820
C 0.978867 2.162199 4.672723
C 0.862819 2.280219 4.632233
C 0.833861 2.518495 4.454771
C 0.865635 2.845767 4.174912
C 0.377739 2.269789 2.861564
C 0.383981 2.550605 2.636151
C 0.425121 2.740369 2.471361
C 0.584590 2.810530 2.349317
C 0.890557 2.762605 2.194297
C 1.222153 2.613615 2.072916
C 1.573134 2.078661 1.202569
C 2.650345 2.728571 1.642704
C 2.729096 2.853287 1.396985
C 2.491218 1.924264 0.233198
C 1.923893 1.036294 -0.639387
C 2.020627 0.684631 -1.471230
C 1.496199 0.311261 -1.105693
C 0.822206 -0.052304 -0.868306
C -0.118582 -0.827609 -1.035822
C -0.521978 -2.031765 -1.687348
C 0.262500 -1.325906 -0.993509
C 1.196723 -0.560250 -0.572197
C 0.237358 -1.127777 -0.438003
C -0.106608 -1.569840 -1.253196
C -0.299759 -1.725198 -1.132649
C -0.391603 -1.768696 -0.925523
C -0.398024 -1.710383 -0.664907
C -1.236783 -2.427662 -0.809453
C -2.065420 -3.183973 -1.145467
C -1.892676 -3.000169 -0.998678
C -1.924617 -3.094688 -1.075368
C -1.938878 -3.086137 -1.089884
C -1.894896 -3.016057 -1.014921
C -1.964257 -3.113541 -0.930524
C -2.145845 -3.254251 -0.802125
C -2.295409 -3.403430 -0.548625
C -2.331065 -3.572445 -0.569437
C -2.119540 -3.475566 -0.517365
C -1.889412 -3.532097 -0.738985
C -1.648768 -3.608717 -1.036052
C -1.345175 -3.535350 -1.364710
C -1.009662 -3.374039 -1.637421
C -0.712560 -3.185027 -1.926324
C -0.583882 -3.183416 -1.941512
C -0.546954 -3.194265 -2.009371
C -0.596411 -3.131848 -1.887113
C -0.603038 -3.113081 -1.742399
C -0.519570 -3.070096 -1.670690
C -0.344723 -3.029269 -1.742970
C -0.075872 -2.926315 -1.751709
C 0.351226 -2.694820 -2.054425
C 0.809709 -2.530256 -2.292643
C 1.286068 -2.326260 -2.406995
C 1.620458 -2.125128 -2.479035
C 1.725151 -2.024561 -2.395409
C 1.835911 -1.981920 -2.360180
C 1.868839 -2.031981 -2.376489
C 1.646311 -2.161000 -2.218365
C 1.342799 -2.229154 -1.964668
C 1.080660 -2.431038 -1.868506
C 0.930664 -2.523808 -1.849842
C 0.887086 -2.607662 -1.851412
C 0.778716 -2.787363 -1.847208
C 0.758246 -2.865482 -1.850910
C 0.901901 -2.814434 -1.888961
C 1.085210 -2.758585 -1.956166
C 1.231147 -2.759919 -1.983420
C 1.227646 -2.809202 -1.960255
C 1.269331 -2.834883 -1.965934
C 1.325703 -2.860825 -1.886217
C 1.184849 -2.982022 -1.803396
C 1.111107 -3.097480 -1.673325
C 1.058750 -3.232731 -1.604208
C 1.034305 -3.147695 -1.502818
C 1.192927 -3.123100 -1.512731
C 1.416092 -3.088776 -1.546390
C 1.605667 -2.957649 -1.642286
C 1.852753 -2.732976 -1.587607
C 1.985064 -2.558934 -1.533420
C 2.231738 -2.418488 -1.699052
C 2.381329 -2.480738 -1.765002
C 2.334834 -2.426310 -1.655147
C 2.121718 -2.425165 -1.452196
C 1.817363 -2.528916 -1.243108
C 1.554385 -2.779548 -1.118678
C 1.345511 -2.857149 -1.018901
C 1.053675 -3.087170 -0.778459
C 0.813224 -3.164353 -0.615666
C 0.593090 -3.412137 -0.510085
C 0.479407 -3.387921 -0.454173
C 0.503136 -3.471967 -0.374002
C 0.718521 -3.461817 -0.369893
C 0.881901 -3.559368 -0.381816
C 1.073611 -3.437785 -0.382449
C 1.423364 -3.328643 -0.441585
C 1.904791 -3.100696 -0.560239
C 2.362194 -2.972328 -0.761242
C 2.722710 -2.635241 -0.905374
C 2.974984 -2.287841 -1.054267
C 3.360269 -1.926297 -1.198054
C 3.643256 -1.668498 -1.281315
C 3.708550 -1.509106 -1.310119
C 3.738489 -1.321478 -1.261791
C 3.770973 -1.272320 -1.147545
C 3.840040 -1.224481 -1.128959
C 3.791094 -1.189219 -0.982442
C 3.728714 -1.209854 -0.828387
C 3.712660 -1.229470 -0.742934
C 3.715716 -1.273115 -0.675273
C 3.715262 -1.360736 -0.640198
C 3.739969 -1.347003 -0.598423
C 3.829928 -1.226832 -0.516679
C 3.925234 -1.181392 -0.431229
C 3.961959 -1.141297 -0.383725
C 3.921520 -1.151607 -0.308604
C 3.995516 -1.084499 -0.247726
C 4.118944 -0.891827 -0.186970
C 4.100566 -0.958966 -0.091671
C 3.971788 -1.187728 -0.013084
C 3.798980 -1.454323 0.015360
C 3.460229 -2.008870 0.214393
C 3.292746 -2.252041 0.265931
C 3.057548 -2.378076 0.322820
C 2.708149 -2.767318 0.402300
C 2.227682 -3.003106 0.487739
C 1.714387 -3.150942 0.597566
C 1.184987 -3.221035 0.767679
C 0.787621 -3.109226 0.782735
C 0.256821 -3.198824 0.929257
C -0.252398 -3.284793 1.103539
C -0.642706 -3.269500 1.200352
C -0.857951 -3.251490 1.300449
C -0.945755 -3.293659 1.390531
C -0.996441 -3.309587 1.434410
C -0.958186 -3.254680 1.493979
C -0.916474 -3.302735 1.582990
C -0.867925 -3.359381 1.614709
C -0.743277 -3.420566 1.649419
C -0.524197 -3.446586 1.639150
C -0.269471 -3.362198 1.604931
C 0.096067 -3.265244 1.516731
C 0.409759 -3.282969 1.464223
C 0.728216 -3.182797 1.387244
C 1.111708 -3.100578 1.312821
C 1.429718 -3.003512 1.314503
C 1.598686 -2.968678 1.406933
C 1.535406 -3.007314 1.381852
C 1.421815 -3.133117 1.431298
C 1.294613 -3.070015 1.400882
C 1.467396 -3.006570 1.477375
C 1.653499 -2.875490 1.484811
C 1.757100 -2.756837 1.449066
C 1.998883 -2.517039 1.335724
C 2.471658 -2.160974 1.388650
C 2.893630 -1.843211 1.349735
C 3.402593 -1.453779 1.390337
C 3.518383 -1.185213 1.298045
C 3.517299 -1.050187 1.272837
C 3.568454 -0.895611 1.258548
C 3.577122 -0.849704 1.255923
C 3.526052 -0.943636 1.290959
C 3.445187 -1.005632 1.423211
C 3.244719 -1.180473 1.420056
C 3.169450 -1.355609 1.519328
C 3.151112 -1.473129 1.636628
C 3.048904 -1.608631 1.737410
C 2.860700 -1.752461 1.839697
C 2.704555 -1.836126 1.854044
C 2.525699 -1.924672 1.991701
C 2.434220 -1.998276 2.144187
C 2.258870 -2.041424 2.178316
C 2.009302 -2.157416 2.221710
C 1.920840 -2.118356 2.232053
C 1.952028 -2.060908 2.267022
C 1.755221 -2.222954 2.365903
C 1.520815 -2.287525 2.330754
C 1.279527 -2.314845 2.308006
C 1.221472 -2.296073 2.389172
C 1.195873 -2.185387 2.575644
C 0.993985 -2.240962 2.729263
C 0.765258 -2.247074 2.921278
C 0.667017 -2.130561 2.964640
C 0.693101 -2.063010 3.007994
C 0.709052 -1.998902 2.990560
C 0.607695 -1.926129 2.827049
C 0.541157 -1.933740 2.593864
C 0.650160 -1.852515 2.489676
C 0.805506 -1.740507 2.344748
C 0.929053 -1.685489 2.214079
C 1.005343 -1.691698 2.168463
C 1.051584 -1.727958 2.159444
C 1.080548 -1.846746 2.274075
C 0.944919 -1.921900 2.347656
C 0.731827 -2.100238 2.373365
C 0.530070 -2.271203 2.348603
C 0.523135 -2.268383 2.270594
C 0.693361 -2.103498 2.339380
C 0.986761 -1.914705 2.422651
C 1.346884 -1.636964 2.410795
C 1.874142 -1.342553 2.457265
C 2.403228 -0.948437 2.485244
C 2.909114 -0.562435 2.488454
C 3.225245 -0.371132 2.676120
C 3.372680 -0.229007 2.468309
C 3.441299 -0.112719 2.401604
C 3.431046 -0.076557 2.339990
C 3.319902 -0.086996 2.239966
C 3.211125 -0.123502 2.179938
C 3.005307 -0.193838 2.217887
C 2.654627 -0.015618 2.576391
C 2.453547 0.038747 2.967050
C 2.170987 -0.103312 3.007512
C 1.915624 -0.206931 3.145385
C 1.795672 -0.244935 3.375539
C 1.628567 -0.336847 3.512307
C 1.518202 -0.427321 3.563763
C 1.535574 -0.762171 3.293383
C 1.568172 -0.855956 3.088718
C 1.767472 -0.726515 2.949452
C 1.986154 -0.504173 2.986544
C 2.048884 -0.447552 2.953304
C 2.118720 -0.378182 2.910217
C 2.208023 -0.307079 2.904200
C 2.470985 -0.039610 2.814865
