498
chr1 3D structure from Hi-C (resolution 500000bp)
C 3.717988 2.911699 -1.888709
C 3.604903 3.052400 -1.709333
C 3.435737 3.210862 -1.715646
C 3.284333 3.313744 -1.564192
C 3.138419 3.460751 -1.143307
C 2.851088 3.542002 -0.905358
C 2.546307 3.618411 -0.777699
C 2.290522 3.677782 -0.857101
C 2.095521 3.693557 -0.832011
C 2.149856 3.592996 -0.640286
C 2.191965 3.420673 -0.498430
C 2.135622 3.349219 -0.407604
C 2.264617 3.312777 -0.317799
C 2.429814 3.171748 -0.133423
C 2.645639 2.928346 0.208127
C 2.824785 2.697613 0.528101
C 2.999110 2.504527 0.733668
C 3.151681 2.410805 0.847462
C 3.324645 2.355067 0.944502
C 3.407676 2.337568 1.051521
C 3.403200 2.358659 1.079439
C 3.384845 2.478114 0.920961
C 3.241809 2.767989 0.665409
C 2.857261 3.137822 0.367306
C 2.538973 3.325541 0.271481
C 2.262225 3.428400 0.204219
C 2.035269 3.435622 0.130963
C 1.862847 3.448564 0.129632
C 1.877186 3.443845 0.298878
C 2.063998 3.200176 0.530763
C 2.393758 2.991370 0.749017
C 2.542894 3.031478 0.770231
C 2.638899 3.029305 0.831152
C 2.676231 3.052059 0.909944
C 2.688678 3.181663 0.914992
C 2.496551 3.208562 0.951325
C 2.337790 3.214645 1.015474
C 2.080450 3.226777 1.138021
C 2.070581 3.180163 1.337005
C 2.172546 3.155073 1.531436
C 2.282786 3.169785 1.677279
C 2.388315 3.058010 1.805213
C 2.487090 3.079544 1.804600
C 2.583603 3.072222 1.894893
C 2.816194 2.885582 2.065430
C 2.841365 2.694944 2.094214
C 2.878549 2.434281 2.182236
C 2.903719 2.189230 2.293219
C 3.025267 2.008304 2.408638
C 2.996756 1.846858 2.555597
C 3.069445 1.717872 2.682386
C 3.008198 1.667818 2.798627
C 3.193384 1.565594 2.856807
C 3.096966 1.579579 2.905848
C 3.056883 1.579195 2.985755
C 2.814484 1.849915 2.890087
C 2.663376 2.064389 2.720813
C 2.383721 2.406712 2.433597
C 2.187357 2.586031 2.302719
C 1.902074 2.727097 2.325410
C 1.863969 2.837957 2.302233
C 1.818569 2.909454 2.362647
C 1.838191 2.741414 2.501201
C 1.827817 2.683055 2.619882
C 1.768118 2.671530 2.645587
C 1.628129 2.729099 2.552467
C 1.476932 2.888855 2.429883
C 1.377219 2.872572 2.612088
C 1.293367 2.823076 2.686025
C 1.270840 2.793585 2.773942
C 1.189237 2.918287 2.682846
C 1.198782 2.865935 2.773261
C 1.238816 2.750211 2.962181
C 1.282626 2.616324 3.066026
C 1.242052 2.604122 2.881097
C 1.223995 2.523772 2.927194
C 1.168358 2.450370 2.933431
C 1.212516 2.110986 3.271063
C 1.196443 1.880985 3.454773
C 1.104551 1.880125 3.397192
C 0.989612 1.794214 3.417129
C 0.833279 1.883649 3.535725
C 0.641136 2.033006 3.433200
C 0.542403 2.139596 3.370217
C 0.456735 2.344214 3.246465
C 0.386470 2.469199 3.154254
C 0.380750 2.407435 3.184937
C 0.346953 2.464268 3.235526
C 0.299492 2.354262 3.311287
C 0.202663 2.467373 3.237999
C 0.086468 2.712534 2.894795
C -0.043239 2.744083 2.554983
C -0.186913 2.795541 2.209683
C -0.361572 3.050062 1.764099
C -0.532891 3.146854 1.230559
C -0.658905 3.396039 0.483180
C -0.740502 3.481348 -0.150441
C -0.845298 3.441434 -0.394694
C -0.891789 3.589685 -0.623499
C -0.994744 3.683180 -0.418896
C -1.044000 3.598872 -0.034713
C -1.067936 3.692639 0.448427
C -0.940870 3.542268 0.897923
C -0.894863 3.428014 1.384826
C -0.806197 3.286513 1.758214
C -0.797287 3.063043 2.136714
C -0.724353 2.978184 2.089833
C -0.730488 2.913536 1.900623
C -0.747333 2.947902 1.516899
C -0.826131 2.882870 1.259112
C -0.925949 2.888499 0.999295
C -1.127142 2.967470 0.801805
C -1.254149 3.126277 0.470001
C -1.388363 3.126850 0.260489
C -1.396688 3.074954 0.257583
C -1.443668 3.028383 0.363888
C -1.578266 3.249924 0.349909
C -1.686391 3.283322 0.149330
C -1.721810 3.262698 -0.090175
C -1.761790 3.264254 -0.199750
C -1.765890 3.167222 -0.182109
C -1.817112 3.203523 -0.270512
C -1.901347 3.121634 -0.259025
C -1.941855 2.941721 -0.233743
C -1.932250 2.906974 -0.084749
C -1.999554 2.902798 0.167492
C -2.103057 2.792547 0.365389
C -2.226027 2.851212 0.420591
C -2.344739 2.957345 0.251665
C -2.388729 2.894925 0.185029
C -2.415336 2.799277 0.030948
C -2.417799 2.665567 0.128740
C -2.398766 2.590996 -0.037292
C -2.447944 2.525261 -0.157600
C -2.485509 2.484036 -0.437575
C -2.531888 2.421052 -0.583913
C -2.597755 2.438787 -0.841192
C -2.644099 2.493260 -0.917861
C -2.718498 2.504281 -1.207992
C -2.788974 2.411043 -1.366252
C -2.808503 2.359863 -1.581862
C -2.865833 2.283030 -1.687647
C -2.926319 2.196715 -1.844253
C -2.935486 2.157414 -2.036213
C -3.039605 2.084989 -2.157020
C -3.107938 1.999826 -2.233082
C -3.178493 2.009764 -2.159360
C -3.239210 1.966036 -2.071042
C -3.260305 1.918093 -1.777972
C -3.266497 1.815035 -1.450876
C -3.384175 1.732568 -1.213855
C -3.348324 1.729977 -1.013312
C -3.386504 1.846125 -0.723433
C -3.445825 1.800994 -0.614479
C -3.525601 1.823764 -0.524021
C -3.568475 1.762859 -0.578735
C -3.656963 1.755479 -0.606699
C -3.651531 1.673034 -0.659114
C -3.775401 1.552538 -0.840006
C -3.817999 1.354754 -1.051926
C -3.847278 1.266569 -1.053485
C -3.862952 1.141287 -1.101022
C -3.908687 1.078767 -1.152609
C -3.943924 0.933198 -1.345524
C -3.935852 0.837231 -1.363762
C -3.924842 0.779940 -1.262942
C -3.810130 0.821244 -0.939471
C -3.757542 0.913530 -0.682205
C -3.697997 0.916337 -0.443624
C -3.675646 0.906348 -0.280861
C -3.670527 0.987488 0.207419
C -3.654064 1.124873 0.608539
C -3.677584 1.255694 0.875932
C -3.797108 1.259552 0.842241
C -3.717602 1.171206 0.833728
C -3.613824 1.169999 1.030515
C -3.468914 1.207967 1.294387
C -3.453933 1.227631 1.356201
C -3.506737 1.216119 1.444075
C -3.532101 0.914061 1.171330
C -3.410904 0.846929 1.291697
C -3.446281 0.826685 1.392749
C -3.437685 0.797071 1.444883
C -3.471384 0.797287 1.635758
C -3.361161 0.781762 1.731845
C -3.239101 0.626618 1.640280
C -3.079546 0.800479 1.945042
C -3.281218 0.757110 1.748999
C -3.459180 0.614629 1.373731
C -3.709585 0.429639 0.906821
C -3.857215 0.242187 0.367813
C -3.969658 0.029185 0.034295
C -4.127773 -0.171696 -0.232679
C -4.306562 -0.337979 -0.440369
C -4.227793 -0.459167 -0.474669
C -4.171147 -0.482134 -0.336803
C -4.043324 -0.462019 0.048926
C -3.976612 -0.560633 0.493624
C -3.981883 -0.496139 0.708918
C -3.820358 -0.395071 1.025799
C -3.724073 -0.418848 1.148362
C -3.855797 -0.453229 1.196317
C -3.911359 -0.448796 1.227181
C -4.045620 -0.539735 1.010706
C -4.200680 -0.665557 0.686220
C -4.233255 -0.778887 0.513841
C -4.381790 -0.777012 0.484124
C -4.427044 -0.721545 0.554088
C -4.358864 -0.752896 0.612141
C -4.379875 -0.929380 0.690539
C -4.343265 -0.953247 0.869583
C -4.202645 -0.782302 0.962672
C -4.084918 -0.691384 1.174970
C -4.010564 -0.669950 1.279968
C -3.754185 -0.578575 1.571271
C -3.330290 -0.388137 1.963186
C -2.837848 -0.146272 2.338474
C -2.376828 0.098943 2.652739
C -2.033725 0.256812 2.933571
C -1.739297 0.296137 3.089365
C -1.405521 0.358915 3.206610
C -1.326360 0.417477 3.267674
C -1.432271 0.358098 3.280738
C -1.583399 0.369265 3.223738
C -1.661060 0.310609 3.174543
C -1.776564 0.246341 3.213505
C -1.935849 0.214768 3.195595
C -2.079510 0.117362 3.132866
C -2.204226 -0.027315 3.083053
C -2.269960 -0.095834 3.072515
C -2.249811 -0.225600 3.098740
C -2.342567 -0.385347 3.091502
C -2.414504 -0.525616 2.980977
C -2.569900 -0.769016 2.866318
C -2.719837 -0.980010 2.823842
C -2.688257 -1.032875 2.648964
C -2.656446 -1.078762 2.416462
C -2.956709 -1.365698 1.636599
C -3.212929 -1.642229 0.966487
C -3.397526 -1.766969 0.232518
C -3.394541 -1.753100 -0.579244
C -3.311204 -1.639282 -1.552883
C -2.931228 -1.382860 -2.564239
C -2.902127 -1.156908 -3.527832
C -2.624978 -0.625683 -3.936406
C -2.314294 0.037183 -4.413404
C -1.983215 0.656019 -4.688500
C -1.663875 1.272777 -4.781608
C -1.055751 1.858747 -4.751613
C -0.871201 2.088550 -4.626956
C -0.733311 1.996806 -4.679663
C -0.574474 1.888047 -4.745921
C -0.406792 1.747156 -4.823288
C -0.270944 1.555213 -4.931219
C -0.175496 1.421149 -5.062473
C -0.481160 1.300950 -5.148359
C -0.800517 1.264253 -5.198248
C -0.379927 1.720654 -4.974450
C -0.449123 1.574797 -3.420804
C -0.156920 2.054404 -3.151240
C 0.128967 2.438132 -2.924799
C 0.440916 2.510201 -2.873123
C 0.705594 2.474650 -2.881249
C 0.850348 2.345564 -2.937464
C 0.255958 1.863370 -3.106448
C 0.074285 1.931206 -4.566043
C -0.643472 0.955892 -4.517127
C -1.370737 0.036676 -4.460234
C -2.067430 -0.510656 -4.371166
C -2.709178 -0.963178 -4.252842
C -3.273660 -1.696973 -3.113246
C -3.401446 -2.202378 -1.921006
C -2.607856 -1.773563 -1.808012
C -1.710000 -0.979182 -1.938729
C -1.063492 -0.210729 -2.125319
C -0.551041 0.449007 -2.183484
C -0.062867 1.110282 -2.203842
C 0.474959 2.160910 -3.169371
C 0.951512 3.237877 -4.177847
C 0.541356 3.428475 -4.142054
C 0.083946 3.561418 -4.131800
C -0.381352 3.090068 -4.169864
C -0.734499 2.561905 -4.231347
C -0.996803 1.986450 -4.342465
C -1.523351 0.912423 -3.726986
C -2.132466 -0.217819 -3.326824
C -2.667669 -1.387417 -2.667152
C -3.010598 -2.489751 -1.720124
C -2.620537 -2.693381 -0.432097
C -2.354514 -2.833360 1.017665
C -1.457862 -2.511007 1.416899
C -0.886412 -2.161369 1.748122
C -0.339493 -1.975914 2.416733
C 0.187981 -1.727179 2.949129
C 0.395426 -1.512154 3.267141
C 0.151994 -1.531782 3.411905
C 0.337114 -1.471685 3.374318
C -0.108592 -1.812832 4.227969
C 0.079147 -1.757104 4.386062
C 0.388165 -1.584111 4.416532
C 0.642638 -1.476243 4.240426
C 1.043270 -1.306597 3.952055
C 1.366526 -1.243943 3.657452
C 1.360182 -1.241996 3.324269
C 1.452679 -1.343041 3.406779
C 1.499197 -1.384928 3.383130
C 1.552649 -1.371789 3.272284
C 1.708584 -1.367317 3.298741
C 1.945372 -1.341538 3.407190
C 2.169457 -1.338120 3.489619
C 2.300509 -1.389712 3.607491
C 2.190941 -1.438190 3.370889
C 1.966978 -1.654204 3.361683
C 1.736670 -1.930069 3.326449
C 1.302907 -2.180612 3.252290
C 0.879444 -2.378788 3.007924
C 0.625014 -2.531499 2.833893
C 0.507041 -2.658082 2.735704
C 0.510942 -2.705645 2.777062
C 0.683685 -2.636845 2.699503
C 0.665720 -2.547405 2.665699
C 0.640888 -2.570654 2.529441
C 0.562948 -2.676320 2.439824
C 0.347327 -2.758312 2.202576
C -0.066425 -2.952486 1.916027
C -0.485867 -3.183504 1.558524
C -0.919496 -3.364552 1.153546
C -1.130719 -3.442024 0.819595
C -1.108992 -3.340857 0.716478
C -1.169885 -3.322216 0.581661
C -1.240242 -3.347480 0.573475
C -1.049961 -3.247257 0.692497
C -0.733845 -3.041388 0.877796
C -0.504651 -2.987665 1.140210
C -0.366021 -2.942302 1.289780
C -0.279143 -2.995708 1.334023
C -0.105985 -3.110178 1.538720
C -0.033845 -3.194690 1.609973
C -0.116008 -3.258196 1.517816
C -0.216841 -3.307563 1.330790
C -0.197339 -3.383127 1.211283
C -0.083917 -3.452520 1.194112
C -0.028038 -3.498566 1.164755
C 0.027688 -3.495505 1.122974
C 0.220532 -3.470986 1.210439
C 0.386481 -3.471486 1.280995
C 0.442812 -3.521445 1.387564
C 0.420369 -3.428417 1.319490
C 0.303362 -3.520539 1.195716
C 0.180881 -3.676265 1.027040
C -0.020124 -3.725860 0.764434
C -0.108249 -3.723640 0.489290
C -0.139459 -3.679729 0.281241
C -0.260858 -3.873317 0.156012
C -0.270158 -4.060984 0.130611
C -0.168419 -3.976854 0.141858
C -0.069676 -3.736688 0.119225
C 0.239533 -3.577270 0.317445
C 0.498401 -3.478168 0.541666
C 0.712305 -3.316594 0.723510
C 1.056525 -3.125381 0.876924
C 1.234254 -2.950825 0.931052
C 1.417436 -2.965771 1.103596
C 1.562103 -2.901796 1.217764
C 1.655380 -2.963787 1.222261
C 1.568527 -3.144438 1.032929
C 1.523191 -3.342795 0.879231
C 1.335002 -3.403646 0.599520
C 0.953985 -3.523168 0.336469
C 0.577597 -3.616140 -0.083494
C 0.250572 -3.857859 -0.431824
C -0.151477 -3.850396 -0.834009
C -0.481648 -3.776802 -1.137001
C -0.861069 -3.774972 -1.526736
C -1.111192 -3.833508 -1.695390
C -0.990866 -3.803558 -1.791879
C -1.005816 -3.716725 -1.909006
C -0.950240 -3.649987 -2.005619
C -0.842454 -3.689820 -2.033550
C -0.751335 -3.627917 -2.064051
C -0.584886 -3.658367 -1.994507
C -0.447389 -3.625385 -2.072429
C -0.392358 -3.672667 -2.033793
C -0.229132 -3.755115 -1.933467
C -0.242935 -3.720444 -1.985800
C -0.352921 -3.612901 -2.214379
C -0.365989 -3.602580 -2.316751
C -0.409335 -3.523176 -2.424121
C -0.429149 -3.381424 -2.448694
C -0.500757 -3.201585 -2.658341
C -0.622685 -3.055426 -2.949940
C -0.489073 -3.055505 -2.931324
C -0.271536 -3.148474 -2.723931
C -0.072690 -3.172153 -2.590857
C 0.209072 -3.355978 -2.477938
C 0.464709 -3.481383 -2.295373
C 0.650460 -3.481357 -2.105957
C 0.961831 -3.562148 -1.743150
C 1.271917 -3.461059 -1.337021
C 1.544704 -3.230003 -0.926873
C 1.873582 -2.926815 -0.473562
C 2.204695 -2.524376 0.071094
C 2.512812 -2.236493 0.485957
C 2.837278 -1.998895 0.957694
C 3.075606 -1.669942 1.233832
C 3.194859 -1.475774 1.336365
C 3.298273 -1.324696 1.395585
C 3.368239 -1.263458 1.456219
C 3.407897 -1.204039 1.407869
C 3.482359 -1.183652 1.413683
C 3.555819 -1.230305 1.320797
C 3.550029 -1.322492 1.296604
C 3.508037 -1.476006 1.200733
C 3.354752 -1.706260 0.959671
C 3.183665 -1.957187 0.626321
C 3.034261 -2.217947 0.334076
C 2.800446 -2.406543 0.019516
C 2.565426 -2.581922 -0.283302
C 2.441527 -2.734180 -0.614829
C 2.457071 -2.828502 -0.797643
C 2.542407 -2.778752 -0.725653
C 2.644899 -2.740126 -0.596124
C 2.642865 -2.630941 -0.450311
C 2.656486 -2.657888 -0.640668
C 2.632151 -2.651254 -0.840252
C 2.535196 -2.635965 -0.947793
C 2.240149 -2.610026 -1.191263
C 1.977188 -2.643298 -1.696656
C 1.671736 -2.625027 -2.189416
C 1.445240 -2.622918 -2.784087
C 1.244991 -2.550637 -2.931662
C 1.143138 -2.533858 -2.985135
C 1.064558 -2.467670 -3.111126
C 1.036883 -2.413599 -3.163451
C 1.110009 -2.384379 -3.138577
C 1.283462 -2.421287 -3.073160
C 1.318657 -2.419701 -2.889153
C 1.533447 -2.378486 -2.827862
C 1.710179 -2.366314 -2.771493
C 1.857946 -2.360162 -2.611953
C 2.118845 -2.351758 -2.390665
C 2.313265 -2.370876 -2.182221
C 2.504595 -2.283700 -2.062642
C 2.754069 -2.239054 -1.949744
C 2.834273 -2.204046 -1.811936
C 2.959607 -2.155223 -1.569865
C 2.956915 -2.080940 -1.586997
C 2.858454 -2.045307 -1.688465
C 2.961096 -1.925099 -1.549999
C 3.006353 -1.858455 -1.336188
C 2.988131 -1.807447 -1.178701
C 3.014193 -1.714075 -1.153998
C 3.103817 -1.498698 -1.333726
C 3.306998 -1.321757 -1.194863
C 3.598744 -1.141357 -1.081184
C 3.620277 -1.061569 -1.045437
C 3.634882 -0.944557 -1.103761
C 3.646550 -0.909303 -1.070706
C 3.499597 -0.872779 -0.966003
C 3.264204 -0.927266 -0.824868
C 3.189382 -0.969600 -0.898829
C 2.977271 -1.018522 -1.010707
C 2.816916 -1.085276 -1.085190
C 2.732856 -1.124199 -1.178734
C 2.670174 -1.095584 -1.290762
C 2.811182 -1.089924 -1.294433
C 2.988380 -1.030352 -1.172485
C 3.049621 -1.040998 -0.916206
C 3.095671 -0.998216 -0.726798
C 3.034279 -0.946548 -0.687336
C 2.984160 -0.984936 -0.913107
C 2.922300 -1.002556 -1.250669
C 2.610128 -1.075727 -1.666843
C 2.344696 -1.180485 -2.204625
C 2.007277 -1.209827 -2.852801
C 1.786048 -1.231038 -3.388195
C 1.700127 -1.250551 -3.843987
C 1.465757 -1.269705 -3.882217
C 1.324455 -1.217413 -3.920119
C 1.334547 -1.198166 -3.879724
C 1.356808 -1.154397 -3.750786
C 1.412796 -1.103100 -3.639208
C 1.469459 -1.055376 -3.489217
C 1.685946 -0.596177 -3.508429
C 1.961939 -0.264474 -3.598938
C 2.125126 -0.256232 -3.387983
C 2.303236 -0.137668 -3.218741
C 2.516907 -0.033468 -3.199459
C 2.681620 0.026391 -3.027660
C 2.791136 0.062602 -2.872269
C 2.780308 -0.262995 -2.560865
C 2.624811 -0.464472 -2.423355
C 2.440967 -0.468527 -2.518585
C 2.424024 -0.403192 -2.775345
C 2.324111 -0.351892 -2.834959
C 2.252738 -0.351486 -2.922768
C 2.193739 -0.327423 -3.060241
C 2.014732 -0.337346 -3.306879
