277
chr9 3D structure from Hi-C (resolution 500000bp)
C -2.986531 0.464218 -0.614144
C -3.070668 0.395859 -0.502518
C -3.149591 0.294746 -0.433284
C -3.176503 0.227985 -0.416979
C -3.226977 0.010352 -0.335816
C -3.305971 0.021673 -0.424049
C -3.463857 0.114019 -0.266142
C -3.610695 0.155291 -0.209727
C -3.673062 0.318723 -0.198205
C -3.699083 0.454043 -0.299216
C -3.734321 0.568214 -0.323147
C -3.704049 0.513043 -0.493778
C -3.743769 0.319567 -0.660457
C -3.596605 0.025998 -1.007393
C -3.478983 -0.288340 -1.255941
C -3.410081 -0.684544 -1.549483
C -3.326632 -0.994970 -1.758635
C -3.177607 -1.357595 -2.015177
C -3.106829 -1.579172 -2.187501
C -2.977234 -1.746496 -2.249699
C -2.884087 -1.920452 -2.274960
C -2.800551 -2.071101 -2.314817
C -2.656552 -2.165465 -2.311010
C -2.595556 -2.287378 -2.231806
C -2.536124 -2.358729 -2.180211
C -2.457118 -2.296805 -2.069611
C -2.428266 -2.183500 -1.941924
C -2.537246 -1.993637 -1.680538
C -2.633666 -1.850153 -1.483536
C -2.659825 -1.731554 -1.359821
C -2.696571 -1.718127 -1.239741
C -2.816124 -1.772925 -1.179240
C -2.850135 -1.896236 -1.119982
C -2.973316 -1.967037 -1.057971
C -2.996137 -2.086009 -1.011988
C -3.036042 -2.016318 -0.845509
C -3.137378 -2.106099 -0.758539
C -3.208297 -1.993620 -0.594955
C -3.293744 -1.678425 -0.283923
C -3.422726 -1.511070 -0.101911
C -3.404464 -1.513202 0.017814
C -3.390378 -1.585419 0.017727
C -3.233682 -1.888772 -0.221752
C -3.027773 -2.073179 -0.390384
C -2.735023 -2.330713 -0.625386
C -2.433208 -2.748247 -0.977757
C -2.133128 -3.035556 -1.203748
C -1.907715 -3.260875 -1.396871
C -1.656616 -3.380318 -1.479804
C -1.579257 -3.383539 -1.455411
C -1.602533 -3.170326 -1.323750
C -1.780407 -2.984812 -1.101287
C -1.941543 -2.806031 -0.848585
C -2.062268 -2.775812 -0.740200
C -2.145958 -2.751945 -0.583078
C -2.287885 -2.787792 -0.542137
C -2.403195 -2.795275 -0.418492
C -2.478277 -3.015857 -0.356996
C -2.523674 -3.214297 -0.412441
C -2.524022 -3.312471 -0.396760
C -2.605607 -3.259854 -0.275049
C -2.723376 -3.091139 -0.153171
C -2.746135 -2.756507 -0.009425
C -2.814391 -2.260745 0.193041
C -2.956112 -1.620235 0.385384
C -2.958224 -0.918269 0.535440
C -2.931947 -0.276387 0.567100
C -2.850323 0.365465 0.620221
C -2.761814 0.954560 0.622675
C -2.756112 1.359352 0.695467
C -2.680739 1.448575 0.675516
C -2.631771 1.468840 0.683275
C -2.491220 1.326097 0.565510
C -2.387130 1.111314 0.441777
C -2.283777 0.799774 -0.006079
C -2.043451 0.296709 -0.683182
C -1.977834 0.110769 -1.581726
C -1.873465 0.086099 -2.602317
C -1.224798 -0.643515 -3.117495
C -0.856582 -1.061874 -3.677561
C -0.716833 -1.381717 -4.367088
C -0.577764 -1.729304 -4.430052
C -0.379007 -2.162416 -4.265997
C 0.139874 -2.860112 -3.977313
C 0.774378 -2.948588 -3.964285
C 1.010263 -2.328322 -4.448019
C 1.739910 -1.952983 -4.422963
C 2.751175 -1.552425 -4.007758
C 3.777107 -0.950182 -3.820903
C 4.598019 -0.018827 -3.663069
C 4.514213 1.181687 -3.943913
C 4.136398 1.765813 -3.809091
C 3.581825 2.393354 -3.617296
C 2.566610 3.069644 -3.715289
C 1.343153 3.602350 -4.055406
C -0.016150 3.980895 -4.504343
C -1.415521 4.313251 -4.853340
C -2.040181 4.485839 -4.588404
C -2.464910 4.618911 -4.349261
C -2.558468 4.333291 -4.543256
C -2.445757 3.948939 -4.820044
C -2.095503 3.609651 -5.049379
C -1.505646 3.343131 -5.243806
C -0.707857 3.084675 -5.453579
C 0.201744 2.763248 -5.700604
C 1.171185 2.493663 -5.827669
C 1.956972 2.641449 -5.504247
C 2.558965 2.965079 -5.093777
C 2.835248 3.435529 -4.699756
C 2.824819 3.924149 -4.369221
C 2.688742 4.326392 -4.137764
C 2.622855 4.567036 -4.008518
C 2.850655 4.600346 -3.716275
C 3.080716 4.465026 -3.538240
C 3.330514 4.131682 -3.543122
C 3.704014 3.610819 -3.641441
C 4.186253 2.962908 -3.774493
C 4.634063 2.218408 -3.904344
C 4.782336 1.344355 -3.985583
C 4.500691 0.557178 -4.387994
C 4.142692 -0.376140 -4.485358
C 4.117661 -0.949157 -4.563742
C 3.975754 -1.473544 -4.288029
C 4.247508 -1.723574 -3.849871
C 4.080968 -2.335329 -3.457536
C 3.964120 -2.760342 -2.950996
C 3.699267 -2.888371 -2.981705
C 3.582497 -2.873778 -3.156297
C 2.928156 -2.728101 -3.443626
C 2.527661 -2.572327 -3.974967
C 2.330889 -2.879422 -4.032914
C 2.659659 -2.646923 -4.039098
C 3.122856 -2.300665 -4.084108
C 3.480671 -2.199594 -3.222207
C 3.098356 -1.753626 -2.467015
C 2.873442 -1.889556 -1.253917
C 2.802783 -1.981549 -0.278626
C 1.965444 -1.881304 0.452404
C 1.145060 -1.844297 1.016260
C 0.308341 -1.930952 1.531356
C -0.317498 -1.917627 1.693736
C -0.380383 -2.148270 1.874315
C -0.285178 -2.266523 1.822506
C -0.321648 -2.482318 1.997748
C -0.083350 -2.613173 1.884881
C 0.031839 -2.746298 1.881101
C 0.075710 -2.672941 1.803565
C 0.156892 -2.703626 1.800686
C 0.367759 -2.812602 1.666421
C 0.451805 -2.742140 1.612595
C 0.449976 -2.518915 1.542280
C 0.345257 -2.278312 1.468515
C 0.378415 -2.081527 1.482916
C 0.417474 -2.026731 1.562893
C 0.546136 -2.086832 1.569805
C 0.648481 -2.142991 1.629964
C 0.716914 -2.206858 1.723537
C 0.916165 -2.445360 1.670962
C 1.172365 -2.734941 1.601822
C 1.315209 -2.919670 1.464596
C 1.448257 -3.059520 1.327875
C 1.487929 -3.119973 1.254296
C 1.521121 -3.117605 1.193252
C 1.566851 -3.053304 1.030212
C 1.285265 -2.722835 1.201904
C 0.954077 -2.347901 1.404996
C 0.650978 -1.975450 1.721816
C 0.377565 -1.697315 1.976242
C 0.069304 -1.303878 2.215513
C -0.239532 -0.963615 2.502211
C -0.403043 -0.813658 2.767039
C -0.439416 -0.812204 2.895843
C -0.397371 -0.766482 3.039243
C -0.343959 -0.842470 3.119999
C -0.309367 -0.834168 3.205404
C -0.289604 -0.785304 3.208647
C -0.372267 -0.628163 3.199887
C -0.474508 -0.476210 3.252265
C -0.539680 -0.315617 3.293741
C -0.605344 -0.154527 3.299214
C -0.656767 0.126620 3.312613
C -0.815209 0.481405 3.308711
C -0.905466 0.761790 3.322244
C -0.909591 0.933977 3.268774
C -0.842061 1.074426 3.272987
C -0.889316 1.235554 3.265093
C -0.938469 1.406337 3.215722
C -1.011200 1.500226 3.208416
C -0.952888 1.471905 3.231930
C -0.860474 1.396667 3.223816
C -0.782629 1.324105 3.254778
C -0.850241 1.324478 3.176473
C -0.712237 1.328358 3.073669
C -0.648182 1.264821 2.982412
C -0.489616 1.195772 2.902347
C -0.386324 1.110933 2.769503
C -0.305285 0.989367 2.744272
C -0.149502 0.794841 2.732769
C 0.156729 0.398396 2.699441
C 0.670994 -0.080170 2.793899
C 1.022194 -0.517756 2.741264
C 1.320914 -1.000748 2.584427
C 1.667788 -1.417987 2.548103
C 2.077584 -1.812817 2.414598
C 2.363448 -2.093459 2.264155
C 2.498037 -2.079878 2.249715
C 2.328249 -1.976268 2.126722
C 2.227065 -1.799212 2.172454
C 2.111352 -1.582175 2.341631
C 2.052926 -1.435533 2.339654
C 1.879892 -1.239542 2.473431
C 1.743645 -0.993387 2.592874
C 1.667483 -0.877460 2.525768
C 1.685127 -0.830477 2.463061
C 1.753758 -0.757318 2.472730
C 1.671119 -0.567261 2.393287
C 1.549657 -0.364484 2.364409
C 1.502661 -0.159982 2.353046
C 1.620865 0.031744 2.223396
C 1.685758 0.231779 2.307927
C 1.588609 0.520375 2.433205
C 1.504286 0.745166 2.509483
C 1.566653 0.823488 2.578032
C 1.624264 0.956959 2.609241
C 1.625881 1.028334 2.519898
C 1.515810 1.100573 2.580390
C 1.438651 1.125728 2.490364
C 1.515348 1.018446 2.346467
C 1.683140 0.782146 2.083708
C 1.759045 0.630671 1.832394
C 1.772640 0.503592 1.718332
C 1.884361 0.337112 1.667767
C 2.010348 0.111630 1.623044
C 2.146073 -0.044608 1.532867
C 2.270542 -0.146686 1.504570
C 2.292177 -0.167369 1.545544
C 2.332957 -0.100452 1.600124
C 2.299490 -0.053366 1.601238
C 2.115437 0.217893 1.635042
C 1.878567 0.548276 1.634326
C 1.718856 0.875190 1.789608
C 1.430852 1.223468 1.868876
C 1.249017 1.532581 1.911443
C 0.993268 1.866299 1.999388
C 0.796365 2.120687 2.073921
C 0.733371 2.244385 2.144690
C 0.579738 2.350710 2.169689
C 0.323705 2.511129 2.125626
C 0.145007 2.657241 2.151920
C 0.074199 2.821187 2.269230
C 0.096502 2.912311 2.315110
C 0.036084 3.103014 2.345452
C -0.116870 3.309253 2.271217
C -0.138288 3.545691 2.206966
C -0.179789 3.737144 2.064835
C -0.180639 3.961936 1.932786
C -0.287241 4.167168 1.836759
C -0.280556 4.317251 1.772791
C -0.186740 4.411306 1.720728
C -0.063987 4.493975 1.659397
C 0.084523 4.422984 1.704481
C 0.228453 4.403241 1.737708
C 0.369225 4.358131 1.735174
C 0.549238 4.364337 1.683130
C 0.679187 4.386879 1.626611
C 0.846603 4.435085 1.570498
C 1.118603 4.313342 1.579809
C 1.294487 4.299734 1.501314
C 1.432510 4.300007 1.469169
C 1.479247 4.398150 1.367753
C 1.367873 4.522484 1.217425
C 1.212189 4.634428 1.036301
C 1.224640 4.543542 0.934897
C 1.364055 4.637117 0.796462
C 1.283383 4.754201 0.691469
C 1.266176 4.836795 0.584221
C 1.353012 4.787473 0.541938
