277
chr9 3D structure from Hi-C (resolution 500000bp)
C 2.126039 2.320757 0.011556
C 1.987943 2.469261 0.104413
C 1.929518 2.574252 0.055231
C 1.934614 2.621421 0.023705
C 1.774317 2.716609 -0.127214
C 1.801016 2.853600 -0.075396
C 1.886767 2.968343 0.094522
C 1.896624 3.069787 0.195061
C 2.084525 3.050624 0.305999
C 2.184613 3.084171 0.501528
C 2.179283 3.165952 0.663447
C 2.121193 3.288737 0.679947
C 2.071930 3.415381 0.509086
C 1.945033 3.489694 0.149394
C 1.811232 3.601058 -0.191465
C 1.593833 3.718818 -0.676418
C 1.444394 3.699239 -1.132131
C 1.300549 3.707116 -1.590943
C 1.153393 3.696939 -1.916884
C 0.978707 3.541017 -2.158750
C 0.787858 3.467732 -2.326394
C 0.680435 3.389494 -2.495920
C 0.575686 3.367234 -2.510651
C 0.472493 3.469329 -2.501875
C 0.377654 3.417808 -2.473891
C 0.418214 3.323610 -2.355056
C 0.533400 3.409309 -2.133701
C 0.603704 3.383772 -1.855203
C 0.565733 3.420775 -1.540835
C 0.502369 3.342990 -1.410377
C 0.481207 3.137007 -1.437483
C 0.418277 3.139241 -1.519549
C 0.282164 3.230689 -1.565595
C 0.129843 3.287025 -1.581138
C 0.046664 3.357809 -1.580542
C 0.102697 3.341917 -1.412644
C 0.102093 3.494869 -1.323079
C 0.118853 3.655939 -0.997688
C 0.264586 3.727815 -0.469941
C 0.366807 3.750282 -0.142878
C 0.359750 3.756965 0.015314
C 0.214674 3.702107 -0.110707
C -0.034481 3.665059 -0.583880
C -0.198450 3.521663 -0.864976
C -0.421618 3.405676 -1.200708
C -0.756925 3.324923 -1.745242
C -1.064644 3.261744 -2.150202
C -1.287566 3.178182 -2.463616
C -1.349736 3.140795 -2.534931
C -1.387693 3.117682 -2.431768
C -1.351960 3.095927 -2.177010
C -1.277361 3.172806 -1.920811
C -1.177622 3.234797 -1.599591
C -1.057714 3.326148 -1.437124
C -1.020557 3.434246 -1.243570
C -1.046968 3.570321 -1.102162
C -1.084254 3.672864 -1.029034
C -1.218888 3.826012 -1.069794
C -1.333712 4.000252 -1.162664
C -1.366864 4.086226 -1.134342
C -1.419130 4.093132 -1.002446
C -1.358089 4.071685 -0.866349
C -1.206093 3.981550 -0.634425
C -0.790311 3.763165 -0.172290
C -0.279993 3.553153 0.275485
C 0.198840 3.190535 0.728545
C 0.628017 2.833313 0.994290
C 1.065681 2.453274 1.305114
C 1.512243 2.138374 1.629634
C 1.827716 1.939823 1.907573
C 1.809123 1.904778 1.923544
C 1.812035 1.852200 1.985928
C 1.604474 1.947725 1.904482
C 1.398627 2.081664 1.842380
C 1.079716 2.523372 1.784454
C 0.851063 2.543135 0.827034
C 0.769119 2.409815 -0.286380
C 0.902316 2.134287 -1.474286
C 0.193793 1.949886 -2.351749
C -0.210027 1.744383 -3.208583
C -0.492871 1.500823 -4.215037
C -0.609748 1.113502 -5.005051
C -0.811854 1.116284 -5.111379
C -0.547499 1.198568 -5.062497
C -0.101694 1.240020 -4.832139
C 1.174475 1.185916 -4.895981
C 2.401894 1.135975 -4.720868
C 3.575161 1.169301 -4.203262
C 4.769883 1.053503 -3.740157
C 5.928904 0.852411 -3.046452
C 6.517516 0.574267 -2.393146
C 6.770326 0.370297 -1.899168
C 6.878465 0.133238 -1.660531
C 6.830217 -0.212224 -1.671640
C 6.665353 -0.709576 -1.841469
C 6.216841 -1.644745 -1.972739
C 5.603184 -2.594235 -2.161749
C 4.841960 -3.483017 -2.321472
C 3.963232 -4.335309 -2.369997
C 2.986585 -5.169774 -2.281554
C 1.983155 -5.913123 -2.156549
C 1.063913 -6.488782 -2.114985
C 0.499896 -6.570786 -2.361470
C 0.662728 -6.335840 -2.578499
C 1.090868 -5.984202 -2.725712
C 1.757492 -5.552101 -2.782304
C 2.664226 -5.036109 -2.740288
C 3.675477 -4.542530 -2.618779
C 4.232620 -4.388136 -2.644878
C 4.517477 -4.306555 -2.667976
C 4.119655 -4.397642 -2.840018
C 3.639051 -4.466157 -3.151594
C 3.225574 -4.478547 -3.573201
C 2.879863 -4.462766 -4.055840
C 2.631748 -4.309474 -4.545724
C 2.798552 -3.783950 -4.831612
C 2.997736 -3.259791 -5.122395
C 3.080373 -2.918825 -5.357190
C 2.839351 -2.703314 -5.496460
C 2.429018 -2.627205 -5.622179
C 1.577208 -2.285463 -5.654282
C 1.198723 -2.169466 -5.882048
C 0.628223 -2.013090 -5.868104
C -0.114058 -2.428398 -5.700938
C -0.945203 -2.124713 -5.432610
C -1.538770 -1.713148 -5.052902
C -1.974351 -1.477440 -4.980043
C -2.080245 -1.570803 -4.992072
C -2.499702 -1.636673 -4.907826
C -2.683451 -1.896347 -5.070817
C -2.958381 -1.731182 -4.980888
C -2.880680 -2.283148 -4.925384
C -2.694567 -2.946783 -5.023276
C -2.693424 -3.037309 -4.521209
C -2.322011 -2.748210 -3.610850
C -2.406094 -2.261736 -2.562939
C -2.502217 -1.875591 -1.665702
C -2.392534 -1.109336 -0.899113
C -2.319278 -0.275323 -0.343841
C -2.301884 0.613992 0.238451
C -2.167515 1.160244 0.648560
C -2.450239 1.297588 0.690076
C -2.614027 1.282975 0.611880
C -2.868992 1.414873 0.652261
C -2.991031 1.353242 0.447414
C -3.096380 1.294908 0.424843
C -3.135376 1.262136 0.521170
C -3.198682 1.165027 0.446224
C -3.283545 1.039341 0.239545
C -3.222845 0.941362 0.208323
C -3.028372 0.843726 0.294640
C -2.792776 0.717739 0.446996
C -2.630532 0.601311 0.511993
C -2.521349 0.497848 0.483795
C -2.605673 0.435278 0.425673
C -2.703216 0.373094 0.408314
C -2.790807 0.341297 0.424169
C -3.060852 0.289194 0.243791
C -3.343814 0.206470 -0.021263
C -3.563988 0.145828 -0.166885
C -3.749963 0.102890 -0.333814
C -3.751447 0.037245 -0.439261
C -3.722683 -0.008689 -0.508848
C -3.665696 -0.094292 -0.605021
C -3.395349 -0.034568 -0.246050
C -3.080201 0.110934 0.198572
C -2.776459 0.268958 0.625096
C -2.520998 0.413177 1.038036
C -2.295802 0.524574 1.569901
C -2.042095 0.681271 2.045554
C -2.025143 0.797985 2.349901
C -2.048469 0.778566 2.440223
C -2.023680 0.775842 2.527698
C -2.119940 0.713367 2.535113
C -2.193458 0.607584 2.556624
C -2.120607 0.592562 2.529121
C -1.976382 0.561518 2.640014
C -1.756901 0.566485 2.789398
C -1.579146 0.566400 2.924862
C -1.397559 0.537644 2.983920
C -1.162441 0.512077 3.173200
C -0.775141 0.525843 3.357507
C -0.531841 0.505627 3.535187
C -0.359301 0.409665 3.540619
C -0.250408 0.248193 3.597967
C -0.126527 0.213929 3.680954
C -0.074111 0.179965 3.801467
C 0.028501 0.134085 3.836176
C -0.013350 0.094207 3.792870
C -0.126137 0.045211 3.745560
C -0.376110 -0.029903 3.793642
C -0.436889 -0.046884 3.766201
C -0.394246 -0.121702 3.635409
C -0.458037 -0.281327 3.479593
C -0.536358 -0.321763 3.295898
C -0.697198 -0.372154 3.228693
C -0.829450 -0.362971 3.139454
C -0.804864 -0.244401 2.940922
C -1.166949 -0.221537 2.677243
C -1.803825 -0.513051 2.432459
C -2.207187 -0.529587 2.160628
C -2.624603 -0.694130 1.854454
C -3.046884 -0.868771 1.498125
C -3.443118 -1.080398 1.111014
C -3.816434 -1.338186 0.797893
C -3.840429 -1.437098 0.710573
C -3.668352 -1.266986 0.697144
C -3.526126 -1.295841 0.859466
C -3.374425 -1.219393 1.055589
C -3.187757 -1.208562 1.050364
C -2.999321 -1.178081 1.135021
C -2.841458 -1.137570 1.378673
C -2.679921 -1.226009 1.390117
C -2.604786 -1.309838 1.312203
C -2.563028 -1.366011 1.247671
C -2.390101 -1.383823 1.295787
C -2.207958 -1.342970 1.505668
C -1.981598 -1.405122 1.670014
C -1.806453 -1.559965 1.736059
C -1.687941 -1.617027 1.955530
C -1.492681 -1.634197 2.242375
C -1.309397 -1.741852 2.401783
C -1.250752 -1.831047 2.429823
C -1.079713 -1.890541 2.423195
C -0.964308 -1.871262 2.359199
C -0.847187 -1.836979 2.300692
C -0.735543 -1.830378 2.168597
C -0.723336 -1.831795 1.905442
C -0.863278 -1.826102 1.571264
C -0.966051 -1.850500 1.361707
C -1.129697 -1.888411 1.277688
C -1.286320 -1.954016 1.196023
C -1.495539 -1.989960 1.024986
C -1.707731 -2.050875 0.884970
C -1.771171 -2.111160 0.806084
C -1.817808 -2.182271 0.883389
C -1.764732 -2.156132 0.883928
C -1.685576 -2.127021 0.892369
C -1.448306 -2.028278 1.101620
C -1.111851 -1.948786 1.398585
C -0.740019 -1.859129 1.649512
C -0.480758 -1.813878 1.978978
C -0.096164 -1.652321 2.169818
C 0.244982 -1.541121 2.465775
C 0.529437 -1.482733 2.687405
C 0.675769 -1.462715 2.829096
C 0.849989 -1.346373 2.907572
C 1.018735 -1.285037 3.117504
C 1.220654 -1.147609 3.217526
C 1.269853 -1.233341 3.358186
C 1.322270 -1.380030 3.451171
C 1.439156 -1.452892 3.574763
C 1.713836 -1.459808 3.602154
C 1.944983 -1.545973 3.623827
C 2.196675 -1.586002 3.594796
C 2.383270 -1.746023 3.613381
C 2.682456 -1.685372 3.595524
C 2.899808 -1.645650 3.533733
C 2.939307 -1.764945 3.482758
C 2.958303 -1.884297 3.460919
C 2.752948 -2.092278 3.417799
C 2.602514 -2.252995 3.360487
C 2.546998 -2.342426 3.341406
C 2.477539 -2.560339 3.344693
C 2.420209 -2.774611 3.336427
C 2.442831 -2.921731 3.274619
C 2.253580 -3.144197 3.156012
C 2.238564 -3.248374 3.077344
C 2.233026 -3.334692 2.997200
C 2.358156 -3.370864 2.914106
C 2.548915 -3.359070 2.839614
C 2.771169 -3.206512 2.765186
C 2.893929 -3.027407 2.700821
C 3.086163 -3.144041 2.565665
C 3.333517 -3.054569 2.543554
C 3.554391 -2.996917 2.515899
C 3.591532 -3.005659 2.412106
