271
chr11 3D structure from Hi-C (resolution 500000bp)
C -2.974983 3.069401 -2.970783
C -3.112873 2.996256 -2.805671
C -3.276480 2.964089 -2.565073
C -3.376785 2.875705 -2.404649
C -3.531914 2.618227 -2.265700
C -3.655915 2.315409 -2.083295
C -3.716109 2.002544 -1.951262
C -3.779436 1.451148 -1.838964
C -3.756180 1.127251 -1.760104
C -3.776415 0.828783 -1.813374
C -3.886332 0.576570 -1.723402
C -3.990874 0.322313 -1.577802
C -4.178780 0.306170 -1.277262
C -4.272437 0.185516 -1.006640
C -4.291445 0.271465 -1.046847
C -4.328609 0.381142 -1.150767
C -4.193331 0.266755 -1.236621
C -4.102581 0.250788 -1.277582
C -3.985753 0.182594 -1.545171
C -3.798732 0.087190 -1.595661
C -3.766787 0.144587 -1.627802
C -3.735146 0.098554 -1.437306
C -3.861930 -0.283104 -1.102910
C -4.009774 -0.447907 -0.744427
C -3.934993 -0.807357 -0.560635
C -3.898281 -1.070883 -0.241661
C -3.923362 -1.469856 0.086181
C -3.929630 -1.861721 0.343658
C -3.913044 -2.170800 0.385615
C -3.865020 -2.265311 0.563516
C -3.800677 -2.406135 0.449905
C -3.853497 -2.301360 0.275649
C -3.861532 -2.181417 0.059791
C -3.803924 -1.967723 -0.446797
C -3.604856 -1.802948 -0.826179
C -3.517030 -1.730425 -1.046210
C -3.367609 -1.707648 -1.513170
C -3.256369 -1.751615 -1.630859
C -3.048649 -2.029719 -1.596781
C -2.926903 -2.359169 -1.489358
C -2.820307 -2.694051 -1.180507
C -2.837070 -3.017628 -0.796413
C -2.759927 -3.163524 -0.402083
C -2.620461 -3.446814 -0.106183
C -2.475372 -3.674642 0.162488
C -2.388250 -3.829035 0.375419
C -2.256297 -3.922419 0.663583
C -2.098023 -4.053563 0.822630
C -1.918503 -4.114144 0.708420
C -1.774280 -4.209406 0.537636
C -1.634281 -4.318290 0.509542
C -1.463968 -4.300330 0.386445
C -1.366029 -4.300280 0.143485
C -1.128782 -4.382015 -0.005316
C -0.866419 -4.420972 -0.157447
C -0.708030 -4.505671 -0.262039
C -0.498912 -4.652260 -0.236359
C -0.417038 -4.539254 -0.425285
C -0.509065 -4.553976 -0.581641
C -0.531823 -4.480291 -0.808923
C -0.706886 -4.237148 -1.285720
C -1.033402 -3.924230 -1.775563
C -1.331032 -3.445240 -2.295110
C -1.644733 -2.862220 -2.814933
C -1.756733 -2.417393 -3.142354
C -1.799057 -1.953784 -3.415429
C -1.835182 -1.633108 -3.588018
C -1.870936 -1.371346 -3.641708
C -1.704665 -1.282792 -3.764323
C -1.574062 -1.449265 -3.656868
C -1.307802 -1.758670 -3.477101
C -0.931779 -2.273238 -3.224947
C -0.458057 -2.751029 -2.992588
C -0.040980 -3.176865 -2.573140
C 0.499458 -3.606899 -2.218397
C 0.946929 -3.890665 -1.889206
C 1.219776 -4.086989 -1.827094
C 1.365948 -4.196150 -1.835008
C 1.302427 -4.118626 -1.836504
C 1.329962 -4.026130 -1.969909
C 1.301746 -3.865456 -2.224982
C 1.166453 -3.686197 -2.514363
C 0.928719 -3.529716 -2.730256
C 0.817410 -3.284227 -2.744440
C 0.656020 -2.924829 -2.835292
C 0.475895 -2.562684 -3.029219
C 0.037413 -2.021413 -3.144578
C -0.333110 -1.425948 -3.221225
C -0.697069 -0.916799 -3.279449
C -0.961751 -0.371569 -3.462765
C -1.097541 0.052994 -3.711793
C -1.100648 0.346422 -3.939391
C -1.008214 0.534267 -4.127152
C -0.665321 0.372559 -4.288458
C -0.100259 0.143995 -4.508331
C 0.369878 -0.125299 -4.694440
C 0.818892 -0.487246 -4.709287
C 1.298965 -0.853483 -4.591727
C 1.783984 -1.292969 -4.418326
C 2.177152 -1.971073 -3.691447
C 2.466885 -2.503491 -2.965225
C 2.797791 -2.269338 -2.690102
C 3.213043 -1.974603 -2.430768
C 3.639990 -1.792750 -2.150414
C 4.033625 -1.827475 -1.837272
C 4.249331 -1.925121 -1.523022
C 4.369879 -1.623486 -1.884380
C 4.423899 -1.234363 -2.331418
C 4.200443 -1.579334 -2.310673
C 4.050177 -1.874927 -2.301802
C 3.838044 -1.970450 -2.331746
C 3.424572 -1.708651 -2.468555
C 3.073268 -1.265037 -2.614960
C 2.980416 -0.822113 -2.651578
C 2.830386 -0.475096 -2.631844
C 2.744432 -0.097719 -2.737669
C 2.523592 0.294446 -2.865894
C 2.245504 0.645786 -3.093491
C 2.087274 0.976237 -3.235286
C 1.871957 1.266258 -3.386603
C 1.312166 1.643460 -3.540225
C 0.958174 2.020261 -3.640671
C 0.641776 2.331539 -3.658669
C 0.334776 2.571867 -3.648867
C 0.208931 2.790405 -3.611391
C 0.258268 2.960581 -3.580431
C 0.486943 3.045331 -3.588910
C 0.995462 3.020059 -3.582437
C 1.402111 3.026010 -3.545895
C 1.742340 3.072449 -3.408338
C 2.136083 3.189659 -3.212296
C 2.344221 3.342018 -2.984843
C 2.430314 3.435467 -2.880208
C 2.238581 3.628551 -2.715963
C 1.916596 3.759472 -2.564824
C 1.706047 3.860010 -2.411814
C 1.336950 3.949865 -2.309088
C 0.836712 4.034049 -2.160522
C 0.354308 4.047412 -2.009722
C -0.022049 4.090962 -1.890579
C -0.241499 4.137422 -1.810292
C -0.324800 4.254704 -1.662623
C -0.538260 4.312240 -1.504376
C -0.540540 4.434600 -1.307883
C -0.402840 4.452418 -1.206507
C -0.094520 4.525246 -1.016286
C 0.132722 4.567419 -0.704637
C 0.423018 4.604109 -0.373611
C 0.692194 4.566453 -0.249200
C 1.031028 4.530846 -0.138161
C 1.216487 4.352865 -0.022845
C 1.450410 4.246563 0.152359
C 1.636301 4.087255 0.138699
C 1.874783 3.924348 0.146263
C 2.049191 3.550048 0.176322
C 2.111510 3.224338 0.363559
C 2.326086 2.819320 0.340043
C 2.666691 2.369597 0.262095
C 3.032787 1.984219 0.084181
C 3.379967 1.455885 0.079432
C 3.602771 0.974737 0.110168
C 3.833810 0.635286 0.114319
C 4.115980 0.451535 0.082976
C 4.083499 0.436466 0.155066
C 4.003147 0.544442 0.344231
C 3.974210 0.489687 0.572911
C 3.957947 0.510052 0.785605
C 4.080371 0.701624 0.789631
C 4.055626 0.990332 0.779895
C 3.809393 0.999670 0.786643
C 3.783307 0.903417 0.925449
C 3.876988 0.951217 1.031911
C 3.871087 0.903873 1.138418
C 3.712322 1.160355 1.242320
C 3.572349 1.135654 1.464034
C 3.701921 0.655564 1.474027
C 4.012257 0.226785 1.462543
C 4.079796 -0.091426 1.462301
C 4.026976 -0.743246 1.346781
C 3.880679 -1.228697 1.294332
C 3.817249 -1.798301 1.243519
C 3.681760 -2.196590 1.169527
C 3.470672 -2.187339 1.363971
C 3.335597 -2.082027 1.548288
C 3.178702 -1.745078 1.734325
C 3.117238 -1.270759 2.010831
C 3.020947 -0.827604 2.193731
C 2.955723 -0.448550 2.468298
C 2.918449 -0.089678 2.633210
C 2.852197 0.025307 2.730685
C 2.722668 -0.228774 2.819175
C 2.729757 -0.620049 2.917373
C 2.659551 -1.042812 2.933945
C 2.718304 -1.292001 2.963343
C 2.826864 -1.524087 2.933980
C 2.832282 -1.871875 3.081117
C 2.735498 -1.942949 3.225801
C 2.573942 -1.988072 3.308254
C 2.409797 -1.969530 3.374286
C 2.233482 -1.968013 3.484439
C 2.036352 -1.927446 3.574663
C 1.690599 -1.825490 3.604250
C 1.426088 -1.784973 3.515839
C 1.268286 -2.019034 3.496353
C 1.061710 -1.926115 3.557855
C 0.905671 -1.930125 3.540971
C 0.745446 -1.879808 3.570883
C 0.564425 -2.020976 3.654865
C 0.515746 -2.344976 3.664808
C 0.417407 -2.381647 3.737431
C 0.189805 -2.355181 3.826153
C 0.251322 -2.036678 3.884086
C 0.096905 -1.942219 3.988009
C -0.160256 -1.948917 3.985855
C -0.081306 -1.532228 3.990964
C -0.027945 -1.106183 4.170375
C 0.044337 -0.828198 4.333004
C 0.408553 -0.126673 4.339479
C 0.517004 0.271837 4.363586
C 0.834241 0.719190 4.283440
C 1.294640 1.426137 4.132420
C 1.342819 1.810606 3.941579
C 1.236155 2.144551 3.694482
C 1.210483 2.385248 3.501318
C 0.941308 2.414758 3.310506
C 0.798650 2.406259 3.175576
C 0.666560 2.585987 3.133514
C 0.457189 2.657291 3.142132
C 0.278353 2.689718 3.107177
C 0.209522 2.806767 3.011776
C 0.083677 3.028385 2.872224
C -0.132134 3.257649 2.722916
C -0.394133 3.513493 2.410006
C -0.781272 3.692914 2.048829
C -1.188177 3.817043 1.756640
C -1.464751 3.934814 1.443234
C -1.613681 3.987712 1.278671
C -1.840284 3.985933 1.160171
C -1.996964 3.905298 1.148608
C -2.216999 3.759715 1.228539
C -2.373022 3.583203 1.364750
C -2.276969 3.330930 1.736278
C -2.152516 3.081215 2.044549
C -2.226806 2.925214 2.218998
C -2.301214 2.700915 2.441256
C -2.427935 2.500366 2.565035
C -2.492133 2.336783 2.745994
C -2.234766 2.202853 2.909169
C -2.205246 2.289154 2.781895
C -2.314846 2.201351 2.805419
C -2.206979 2.082297 2.984770
C -2.080656 1.925740 3.105362
C -1.824518 1.583098 3.373676
C -1.415425 1.448395 3.500780
C -1.403997 1.348259 3.569021
C -1.489654 0.870636 3.772308
C -1.417266 0.655104 4.015704
C -1.587687 0.531300 3.872819
C -1.646420 0.546262 3.709193
C -1.667625 0.673513 3.615831
C -1.950145 0.572482 3.599049
C -2.110825 0.403011 3.588626
C -2.108927 0.396698 3.514679
C -2.348634 0.247460 3.364805
C -2.324430 0.197043 3.446802
C -2.521375 0.098303 3.489280
C -2.750283 0.090019 3.395715
C -2.967252 -0.027585 3.339395
C -3.059311 -0.063454 3.327232
C -3.213108 0.010984 3.263483
C -3.250624 0.185814 3.226078
