271
chr11 3D structure from Hi-C (resolution 500000bp)
C -3.550672 2.847928 -1.778144
C -3.687098 2.647485 -1.602422
C -3.791422 2.507030 -1.429453
C -3.856669 2.343628 -1.270850
C -4.003025 2.094668 -0.946501
C -4.130677 1.581248 -0.702754
C -4.135614 1.048218 -0.452738
C -4.123323 0.430049 -0.338169
C -4.052336 -0.075380 -0.319178
C -4.009213 -0.429220 -0.322613
C -4.005021 -0.720868 -0.430132
C -3.916303 -1.069507 -0.528710
C -3.985834 -1.110066 -0.479215
C -3.912299 -1.061733 -0.732563
C -3.839704 -0.879260 -1.005635
C -3.834416 -0.547915 -1.193946
C -3.746891 -0.380932 -1.395907
C -3.676552 -0.280845 -1.486781
C -3.711587 -0.037346 -1.525185
C -3.484934 0.015214 -1.772099
C -3.497289 0.079474 -1.665265
C -3.446750 -0.050282 -1.494240
C -3.482262 -0.371898 -1.104781
C -3.490500 -0.710447 -0.791338
C -3.393192 -1.036605 -0.581454
C -3.282033 -1.442935 -0.431658
C -3.346366 -1.810698 -0.010923
C -3.372860 -2.170770 0.231337
C -3.369667 -2.408804 0.401331
C -3.276964 -2.638159 0.413511
C -3.250640 -2.729882 0.203803
C -3.251475 -2.647113 -0.117009
C -3.250622 -2.454978 -0.403978
C -3.174677 -2.003256 -1.000899
C -3.019361 -1.725702 -1.417012
C -2.940492 -1.518460 -1.841199
C -2.852834 -1.351375 -2.257083
C -2.785644 -1.317116 -2.372895
C -2.635996 -1.526315 -2.184526
C -2.491793 -1.827660 -2.053718
C -2.356711 -2.399976 -1.794059
C -2.265236 -2.850349 -1.671845
C -2.142851 -3.133689 -1.523508
C -1.997235 -3.369264 -1.286764
C -1.750474 -3.644618 -1.070437
C -1.475016 -3.806621 -0.982324
C -1.152880 -3.963047 -0.854912
C -0.864577 -4.086124 -0.678194
C -0.642656 -4.058218 -0.590692
C -0.515529 -4.040047 -0.567957
C -0.453675 -4.097356 -0.493806
C -0.416661 -4.044976 -0.536844
C -0.579620 -3.989702 -0.367597
C -0.821159 -3.928380 -0.135035
C -0.983311 -3.907246 -0.003655
C -1.082485 -3.977334 0.168661
C -1.000403 -4.085448 0.156772
C -0.876684 -3.994039 -0.158168
C -0.787351 -3.997860 -0.304330
C -0.709072 -3.956616 -0.766531
C -0.646099 -3.747109 -1.421964
C -0.670266 -3.455402 -2.017401
C -0.776297 -2.978919 -2.701191
C -1.018811 -2.435965 -3.038884
C -1.162688 -2.053095 -3.225679
C -1.353789 -1.585213 -3.462540
C -1.371449 -1.244810 -3.616594
C -1.336292 -0.973808 -3.551969
C -1.285870 -0.916846 -3.642819
C -1.118610 -0.952435 -3.584350
C -0.846199 -1.259340 -3.426658
C -0.450765 -1.653987 -3.242076
C -0.055149 -2.058437 -3.045591
C 0.323770 -2.386585 -2.843154
C 0.817321 -2.763047 -2.751649
C 1.268136 -2.860217 -2.658207
C 1.671890 -3.003300 -2.573077
C 1.901377 -2.933446 -2.732342
C 1.839794 -2.750557 -2.904202
C 1.819301 -2.564413 -3.119235
C 1.784812 -2.386303 -3.243762
C 1.562862 -2.281613 -3.376578
C 1.399648 -2.273662 -3.365939
C 1.132737 -2.200614 -3.378766
C 0.850077 -2.010893 -3.346231
C 0.674973 -1.690811 -3.361061
C 0.292935 -1.300386 -3.266977
C -0.202271 -0.878614 -3.233376
C -0.569001 -0.350133 -3.156435
C -1.023452 0.275560 -3.183312
C -1.281699 0.750205 -3.310166
C -1.404941 0.988338 -3.415285
C -1.437064 1.101729 -3.539548
C -1.044594 0.936160 -3.734796
C -0.292706 0.364179 -3.508316
C 0.304185 -0.332294 -3.226600
C 0.994459 -1.094175 -2.893294
C 1.596555 -1.697034 -2.515846
C 2.118032 -2.457528 -1.927734
C 2.318612 -3.231642 -1.021980
C 2.245996 -3.809924 -0.087483
C 2.355604 -3.146828 -0.291681
C 2.558483 -2.449757 -0.621241
C 2.747101 -1.876797 -0.951944
C 2.669626 -2.131084 -0.572127
C 2.662677 -2.159293 -0.401161
C 3.097873 -1.747180 -0.961506
C 3.523365 -1.320225 -1.626475
C 3.394669 -1.654480 -1.587923
C 3.328521 -1.961069 -1.530852
C 3.236392 -2.096663 -1.493292
C 3.166631 -1.426518 -1.974583
C 3.083849 -0.761242 -2.502262
C 2.867296 -0.440968 -2.658300
C 2.644180 -0.089485 -2.690390
C 2.453242 0.255292 -2.793590
C 2.181531 0.571251 -2.935337
C 1.927283 0.833572 -3.082578
C 1.826846 1.057972 -3.285821
C 1.642087 1.357752 -3.399754
C 1.351543 1.741262 -3.325156
C 0.993875 2.063472 -3.321384
C 0.689120 2.285106 -3.312518
C 0.352723 2.549935 -3.256639
C -0.037781 2.810594 -3.148190
C -0.224965 3.060779 -3.038423
C -0.187499 3.222672 -2.980654
C -0.115080 3.218514 -3.120525
C 0.183827 3.234385 -3.185876
C 0.499971 3.271518 -3.140535
C 0.954713 3.350654 -2.960988
C 1.433377 3.411033 -2.827029
C 1.742718 3.463657 -2.667047
C 1.850854 3.534339 -2.440013
C 1.773611 3.655811 -2.130215
C 1.650545 3.765689 -1.890838
C 1.521051 3.911410 -1.582811
C 1.225752 3.994652 -1.427667
C 1.022450 4.069516 -1.219375
C 0.760623 4.095743 -1.030946
C 0.519994 4.185372 -0.964026
C 0.352767 4.228485 -0.956649
C 0.075075 4.235127 -0.908694
C -0.301783 4.250520 -0.876011
C -0.581833 4.222702 -0.907182
C -0.877914 4.162253 -0.925598
C -1.092635 4.094449 -0.931741
C -1.354843 3.981594 -0.882712
C -1.217055 3.994888 -0.595681
C -0.973595 4.024936 -0.342828
C -0.775387 3.945447 -0.238434
C -0.570675 3.873322 -0.030234
C -0.195109 3.823788 0.121479
C 0.250153 3.772601 0.269674
C 0.768589 3.593122 0.507834
C 0.906183 3.122387 0.430694
C 1.279990 2.830416 0.394829
C 1.787589 2.251430 0.294958
C 2.368288 1.696512 0.186331
C 2.764093 1.220138 0.054395
C 3.023641 0.764785 -0.096952
C 3.348478 0.512750 -0.200555
C 3.694891 0.500195 -0.187223
C 3.641059 0.447134 -0.175998
C 3.629072 0.685574 -0.093916
C 3.583457 0.866636 -0.066307
C 3.560174 0.882324 0.105525
C 3.670881 1.089473 0.107719
C 3.639929 1.283477 -0.019966
C 3.456280 1.371174 0.001618
C 3.527550 1.360504 0.072895
C 3.590835 1.467589 0.181662
C 3.661796 1.443393 0.331414
C 3.532722 1.705347 0.479563
C 3.501126 1.592043 0.768966
C 3.548237 0.943389 0.946080
C 3.782278 0.362709 0.963144
C 3.837797 -0.059284 0.984726
C 3.922401 -0.527287 0.937618
C 3.935600 -0.819570 0.999872
C 4.004428 -1.280494 0.999047
C 3.854647 -1.541837 0.990907
C 3.796339 -1.293596 1.194748
C 3.799569 -0.898700 1.415991
C 3.729187 -0.623877 1.582316
C 3.597244 -0.319411 1.830309
C 3.372837 -0.002679 1.944455
C 3.221651 0.330475 2.122242
C 3.105157 0.606355 2.368950
C 2.910054 0.753894 2.510224
C 2.825599 0.463517 2.586728
C 2.814567 0.187659 2.649940
C 2.723007 -0.283971 2.628790
C 2.691556 -0.652450 2.670346
C 2.689722 -1.164659 2.634088
C 2.717701 -1.615498 2.563381
C 2.749023 -1.861212 2.596978
C 2.625378 -1.772799 2.765172
C 2.496311 -1.697780 2.925698
C 2.389666 -1.587101 3.093021
C 2.254262 -1.498152 3.203028
C 2.105726 -1.201711 3.370613
C 1.934910 -0.907571 3.391282
C 1.758343 -1.060299 3.405711
C 1.560495 -1.287835 3.317812
C 1.356359 -1.477023 3.262654
C 1.165028 -1.558677 3.288109
C 1.061914 -1.682134 3.390974
C 0.997728 -1.837454 3.468926
C 0.953027 -1.920558 3.604182
C 0.830794 -2.011842 3.592030
C 0.880234 -1.608339 3.662720
C 0.921995 -1.108965 3.735410
C 0.960921 -0.547345 3.835395
C 1.033359 0.059230 3.688900
C 1.184273 0.717972 3.503232
C 1.376654 1.232783 3.360684
C 1.528715 2.136769 3.330000
C 1.500665 2.499438 3.290954
C 1.512623 2.580291 3.197272
C 1.418691 2.772345 2.928012
C 1.222033 2.887194 2.953451
C 0.915795 2.789214 2.985271
C 0.599870 2.693486 3.005240
C 0.343506 2.428973 2.911694
C 0.208325 2.274424 2.890756
C -0.439191 2.084414 2.796277
C -0.630687 1.996400 2.903307
C -0.773522 1.918819 2.851621
C -0.946586 1.963496 2.794317
C -1.195417 2.086621 2.691051
C -1.464364 2.350801 2.566458
C -1.716524 2.605592 2.343615
C -1.594942 2.991688 2.132810
C -1.745840 3.170602 1.900411
C -1.985041 3.253988 1.707170
C -2.073171 3.271353 1.552281
C -2.198686 3.226790 1.546103
C -2.313856 3.116554 1.594804
C -2.572411 2.961042 1.595776
C -2.657677 2.754776 1.763361
C -2.826542 2.424478 1.933909
C -2.802026 2.169881 2.123100
C -2.806172 1.958387 2.321365
C -2.821488 1.648420 2.469492
C -2.847130 1.270596 2.656438
C -2.591509 1.119631 2.976740
C -2.443336 1.046852 3.079495
C -2.263642 1.033720 3.190041
C -2.168546 0.972165 3.334343
C -2.058847 0.872416 3.434521
C -1.940463 0.798446 3.520299
C -1.804904 0.771880 3.602575
C -1.801139 0.602775 3.552192
C -1.630987 0.425133 3.658166
C -1.493686 0.042761 3.766314
C -1.352466 -0.130390 3.833393
C -1.433998 -0.169518 3.760363
C -1.413298 -0.199524 3.678691
C -1.275616 -0.281768 3.666422
C -1.213381 -0.466931 3.672337
C -1.366233 -0.650415 3.623672
C -1.452256 -0.644382 3.477726
C -1.560634 -0.839905 3.406818
C -1.529068 -1.096748 3.432957
C -1.564709 -1.276926 3.438984
C -1.660020 -1.427229 3.347456
C -1.778700 -1.666403 3.308354
C -1.749860 -1.769883 3.284620
C -1.774963 -1.878130 3.304343
C -1.803749 -1.930768 3.237159
