102
chr22 3D structure from Hi-C (resolution 500000bp)
C -1.440730 -1.649862 -5.705910
C -1.525350 -1.081295 -5.728093
C -1.716883 -0.535349 -5.642421
C -1.955859 0.021020 -5.434179
C -2.176320 1.101905 -5.145684
C -2.287135 2.191390 -4.809852
C -2.216392 3.091237 -4.527840
C -1.945438 3.712175 -4.333626
C -1.443293 4.038081 -4.247158
C -0.717354 4.062436 -4.290660
C 0.177461 3.741590 -4.504072
C 1.093854 3.062047 -4.860981
C 1.853557 2.093953 -5.188687
C 2.343832 0.955843 -5.343270
C 2.579237 -0.255353 -5.313512
C 2.553413 -1.469911 -5.122096
C 2.256127 -2.606593 -4.810042
C 1.706379 -3.582177 -4.418038
C 0.884155 -4.292146 -3.893910
C -0.054184 -4.735172 -3.210980
C -1.067056 -4.882149 -2.559718
C -2.076600 -4.833114 -2.115456
C -2.967184 -4.545481 -1.828273
C -3.711177 -3.957378 -1.880507
C -4.289132 -3.161648 -2.006860
C -4.680463 -2.228271 -2.155483
C -5.008750 -1.272787 -2.325863
C -5.281801 -0.580145 -2.296572
C -5.475817 -0.006195 -1.991418
C -5.428617 0.373722 -1.443188
C -5.093265 0.564896 -0.627663
C -4.538778 0.649969 0.142786
C -3.892233 0.615969 0.772305
C -3.241202 0.724760 1.274500
C -2.669685 1.155890 1.503227
C -1.779883 1.345431 1.575534
C -1.106386 1.626397 1.430947
C -0.621270 1.934574 1.235041
C -0.275754 2.152628 1.116856
C 0.006586 2.529917 0.941848
C 0.448569 2.451918 0.818522
C 1.062096 2.250137 0.753085
C 1.361289 2.426800 0.671021
C 1.538718 2.584307 0.702692
C 1.577351 2.708920 0.821589
C 1.566318 2.725372 0.956789
C 1.428014 2.424943 1.225667
C 1.167158 2.321397 1.442157
C 0.853338 2.127046 1.623080
C 0.494157 1.865284 1.857374
C 0.213651 1.625168 2.053512
C -0.123797 1.284193 2.224260
C -0.429062 1.106720 2.344313
C -0.521648 0.968372 2.468891
C -0.460457 0.895098 2.527599
C -0.312420 0.894158 2.572733
C -0.062601 0.928189 2.534267
C 0.228943 0.945533 2.483511
C 0.622039 1.001959 2.448380
C 0.983346 0.989939 2.390438
C 1.259858 0.969598 2.321688
C 1.265225 0.864052 2.327732
C 1.113246 0.680199 2.409258
C 0.958701 0.455710 2.545847
C 0.720671 0.212468 2.608320
C 0.425470 -0.025255 2.711761
C 0.103834 -0.246764 2.820236
C 0.034268 -0.364510 2.852962
C 0.199761 -0.501314 2.946227
C 0.504159 -0.517671 2.830753
C 0.775993 -0.543459 2.708024
C 1.170644 -0.516940 2.592100
C 1.673031 -0.390497 2.345382
C 2.239912 -0.247652 2.096008
C 2.586638 -0.244619 1.868666
C 2.843046 -0.103829 1.464981
C 2.991209 -0.051090 1.220753
C 3.135164 0.039145 0.959838
C 3.213098 0.021716 0.734256
C 3.257792 -0.012109 0.559807
C 3.220023 -0.167044 0.456250
C 3.212007 -0.296780 0.345416
C 3.075008 -0.435748 0.328628
C 2.882622 -0.562074 0.404263
C 2.573665 -0.700649 0.513572
C 2.278562 -0.801938 0.666185
C 1.912601 -0.982478 0.826664
C 1.603815 -0.981988 0.990862
C 1.298251 -0.991872 1.218212
C 1.070657 -1.099907 1.423234
C 0.866858 -1.164357 1.531305
C 0.605194 -1.312350 1.735351
C 0.275317 -1.422020 1.874142
C 0.010745 -1.481568 1.989828
C -0.320600 -1.725454 2.062258
C -0.668944 -1.841380 2.082327
C -0.818917 -1.892968 2.104083
C -0.638504 -2.032561 2.079943
C -0.319786 -2.178835 1.913704
C -0.184337 -2.215205 1.850968
C 0.004649 -2.299124 1.795530
C 0.364168 -2.230396 1.726118
