102
chr22 3D structure from Hi-C (resolution 500000bp)
C -1.819200 -1.780339 -5.450632
C -2.050704 -1.374164 -5.422722
C -2.133070 -0.879994 -5.407888
C -2.172009 -0.337471 -5.333535
C -2.403843 0.501624 -5.066557
C -2.396647 1.496235 -4.816229
C -2.001749 2.461216 -4.719660
C -1.364755 3.160774 -4.727753
C -0.670625 3.475186 -4.759898
C 0.025826 3.429318 -4.819327
C 0.751932 3.011366 -4.942201
C 1.449126 2.189752 -5.150338
C 1.972110 1.078128 -5.318880
C 2.210038 -0.158845 -5.318189
C 2.181543 -1.387874 -5.132444
C 1.903168 -2.520763 -4.811945
C 1.377202 -3.482393 -4.418268
C 0.639393 -4.230275 -3.966163
C -0.290638 -4.664755 -3.311374
C -1.307078 -4.798611 -2.614609
C -2.276361 -4.652214 -1.987346
C -3.212191 -4.279812 -1.549393
C -3.972232 -3.758655 -1.261995
C -4.564114 -3.001651 -1.251580
C -4.957407 -2.061919 -1.326155
C -5.120934 -0.989360 -1.565682
C -5.164306 0.095796 -1.774430
C -5.250306 0.960001 -1.770932
C -5.272804 1.539341 -1.527888
C -5.108588 1.774953 -1.070168
C -4.690527 1.790188 -0.354535
C -4.082970 1.734350 0.317569
C -3.449849 1.539217 0.918801
C -2.899991 1.397438 1.383504
C -2.235446 1.664581 1.435155
C -1.368959 1.682987 1.477264
C -0.687289 1.988771 1.372851
C -0.153697 2.269942 1.184416
C 0.193293 2.389863 1.066741
C 0.447306 2.660853 0.865729
C 0.851982 2.554742 0.721099
C 1.273638 2.226619 0.743762
C 1.511656 2.367513 0.646044
C 1.731363 2.414056 0.622647
C 1.813395 2.503837 0.711108
C 1.832747 2.498409 0.819511
C 1.684017 2.204880 1.077111
C 1.409082 2.104510 1.322128
C 1.103078 1.889458 1.540138
C 0.797343 1.639433 1.797404
C 0.441877 1.409738 1.951994
C 0.022791 1.089120 2.115240
C -0.320185 0.921952 2.255372
C -0.373124 0.825160 2.394943
C -0.287318 0.754774 2.437368
C -0.113251 0.766144 2.491520
C 0.149380 0.789735 2.487654
C 0.433763 0.845092 2.500355
C 0.814439 0.907509 2.472919
C 1.160512 0.902374 2.444395
C 1.350066 0.835660 2.388836
C 1.339461 0.685096 2.422353
C 1.157966 0.460648 2.520325
C 0.863040 0.233952 2.550731
C 0.597813 -0.024634 2.611678
C 0.267935 -0.231285 2.708757
C -0.077593 -0.415537 2.783930
C -0.148166 -0.581921 2.780506
C -0.004763 -0.702055 2.808358
C 0.266391 -0.666414 2.675337
C 0.612426 -0.673767 2.586520
C 1.026298 -0.613890 2.434197
C 1.597655 -0.526932 2.184898
C 2.155956 -0.388873 1.907939
C 2.513421 -0.305073 1.677246
C 2.805484 -0.220055 1.343153
C 2.986206 -0.295665 1.157894
C 3.099648 -0.357400 0.947362
C 3.180078 -0.411244 0.753584
C 3.210043 -0.413399 0.571802
C 3.211578 -0.470324 0.441784
C 3.227391 -0.508198 0.254223
C 3.075402 -0.466675 0.176883
C 2.874297 -0.448322 0.166310
C 2.608553 -0.469609 0.224760
C 2.285393 -0.471940 0.311579
C 1.946541 -0.607653 0.500724
C 1.658490 -0.706026 0.704469
C 1.339321 -0.800839 0.989796
C 1.081368 -0.936226 1.131887
C 0.908161 -1.034091 1.269086
C 0.664150 -1.129116 1.423222
C 0.361771 -1.265887 1.598886
C 0.053045 -1.366293 1.714626
C -0.342095 -1.558968 1.824346
C -0.621692 -1.690734 1.919194
C -0.656574 -1.791604 2.041964
C -0.514976 -1.910108 2.015930
C -0.229488 -2.098820 1.911163
C -0.067668 -2.169109 1.889541
C 0.150934 -2.248441 1.840372
C 0.609627 -2.255613 1.753495
