319
chr7 3D structure from Hi-C (resolution 500000bp)
C -2.810637 -2.139423 2.226672
C -2.627673 -2.221239 2.173206
C -2.569376 -2.211203 2.032232
C -2.520862 -2.034676 1.755279
C -2.341447 -1.767802 1.126661
C -2.329403 -1.338734 0.561781
C -2.333792 -1.241015 0.359154
C -2.360759 -1.206026 0.228218
C -2.392115 -1.247367 0.211504
C -2.295134 -1.349981 0.237141
C -2.515566 -1.373283 0.410490
C -2.607981 -1.668246 0.795837
C -2.655895 -1.962334 1.140986
C -2.719769 -1.878493 1.073546
C -2.825494 -1.568665 0.781726
C -3.054603 -1.061326 0.415290
C -3.325086 -0.573423 0.064596
C -3.318173 -0.377678 -0.235459
C -3.266399 -0.189422 -0.440063
C -3.300160 -0.031106 -0.630799
C -3.366238 0.106075 -0.771743
C -3.434925 0.114192 -0.702149
C -3.359261 -0.031163 -0.803444
C -3.425687 -0.059273 -0.836328
C -3.369035 -0.059807 -0.952854
C -3.421594 0.026085 -1.037327
C -3.351454 0.068882 -1.194148
C -3.263796 0.066970 -1.351594
C -3.231184 0.036692 -1.561713
C -3.207304 0.107128 -1.602143
C -2.997053 -0.004108 -1.600645
C -2.956927 -0.186068 -1.390427
C -2.970763 -0.398148 -1.268069
C -3.058945 -0.510640 -1.274050
C -3.131824 -0.431606 -1.287610
C -3.061893 -0.494738 -1.278064
C -3.044900 -0.647766 -1.241943
C -3.088347 -0.835557 -1.082655
C -3.135767 -0.906683 -1.203138
C -3.048698 -0.986954 -1.233760
C -2.920538 -1.075106 -1.135846
C -2.815991 -1.419390 -0.891863
C -2.584259 -1.672071 -0.577209
C -2.427991 -1.976716 -0.307478
C -2.345269 -2.029692 -0.315750
C -2.068192 -2.059673 -0.248015
C -1.899212 -2.241667 -0.078196
C -1.788817 -2.369104 -0.004040
C -1.712963 -2.445478 0.004784
C -1.741298 -2.561426 0.065179
C -1.716227 -2.533918 -0.039312
C -1.751289 -2.642691 -0.142399
C -1.881867 -2.808285 -0.117016
C -1.921390 -2.749012 -0.270386
C -1.945582 -2.776049 -0.278095
C -1.956834 -2.731329 -0.395354
C -1.993605 -2.547878 -0.607723
C -1.947149 -2.628505 -0.523244
C -1.822401 -2.628141 -0.555385
C -1.799171 -2.497808 -0.792837
C -1.824016 -2.284955 -0.950444
C -1.773746 -2.105690 -1.107100
C -1.698440 -2.104545 -1.144965
C -1.688706 -2.023646 -1.314644
C -1.801683 -1.731660 -1.702521
C -1.875731 -1.465455 -1.976253
C -1.809949 -1.353403 -2.022772
C -1.752772 -1.445372 -2.088771
C -1.709476 -1.702917 -2.053130
C -1.620100 -1.793556 -2.031992
C -1.500726 -1.946731 -1.930803
C -1.271441 -2.202700 -1.724771
C -1.056160 -2.542679 -1.440205
C -0.903279 -2.747177 -1.207612
C -0.825020 -2.867368 -1.104119
C -0.811399 -2.763241 -1.184655
C -0.795854 -2.830348 -1.203175
C -0.901541 -2.828344 -1.399163
C -0.993017 -2.670170 -1.639785
C -1.023711 -2.503823 -1.817196
C -0.995219 -2.452657 -1.976034
C -0.984453 -2.432931 -2.134212
C -0.925144 -2.465223 -2.280229
C -0.851436 -2.371078 -2.275479
C -0.652189 -2.410663 -1.959901
C -0.504040 -2.687907 -1.630218
C -0.395590 -2.907197 -1.360595
C -0.337568 -3.008052 -1.284869
C -0.230500 -3.036057 -1.217189
C -0.174731 -2.959487 -1.216596
C -0.155713 -2.817493 -1.463607
C -0.139218 -2.707035 -1.726451
C -0.142903 -2.482024 -1.923552
C -0.200012 -2.101386 -2.214456
C -0.323548 -1.786142 -2.428219
C -0.409198 -1.540597 -2.532287
C -0.476128 -1.379979 -2.507993
C -0.488900 -1.396478 -2.378710
C -0.629779 -1.217641 -2.442849
C -0.755506 -0.968669 -2.744771
C -0.830492 -0.760987 -2.942869
C -0.859830 -0.640214 -3.024365
C -0.859788 -0.502676 -3.105519
C -0.960806 -0.261679 -3.206783
C -1.093639 0.074073 -3.395144
C -1.087710 0.260742 -3.412093
C -1.036391 0.369136 -3.228677
C -0.976090 0.251164 -2.979626
C -0.862324 0.161401 -2.812959
C -0.825085 0.184538 -2.763753
C -0.790058 0.331515 -2.835744
C -0.805372 0.539875 -2.845598
C -0.872432 0.837768 -2.941318
C -1.153030 1.361395 -2.860387
C -1.533194 2.007202 -2.713221
C -2.007763 2.629506 -2.469023
C -2.462918 3.106638 -2.082023
C -2.411165 3.500203 -1.901494
C -2.370643 3.815053 -1.802627
C -2.395189 4.024763 -1.653697
C -2.345824 4.022512 -1.723380
C -2.159606 3.905179 -2.035070
C -1.681470 3.806790 -2.505064
C -1.105678 3.620270 -3.034059
C -0.928707 3.306206 -3.271227
C -0.677995 2.934564 -3.446062
C -0.246190 2.491851 -3.671542
C 0.452002 1.778020 -3.796922
C 1.135335 0.952571 -3.660756
C 1.500695 0.088116 -3.319031
C 1.769330 -0.720171 -2.885640
C 1.928886 -1.203807 -2.644505
C 1.941676 -1.353422 -2.517876
C 1.839107 -1.385133 -2.401067
C 1.602001 -1.173555 -2.358880
C 1.356017 -0.853707 -2.410635
C 1.268583 -0.664558 -2.418586
C 1.167690 -0.413544 -2.532720
C 1.152375 -0.415441 -2.414465
C 1.240694 -0.497647 -2.477407
C 1.334583 -0.627638 -2.475477
C 1.404230 -0.760246 -2.500072
C 1.528541 -1.025742 -2.417781
C 1.672459 -1.338158 -2.243179
C 1.675151 -1.553782 -1.928557
C 1.655718 -1.930272 -1.554837
C 1.655773 -2.564575 -0.845131
C 1.705686 -3.177005 -0.148196
C 1.716460 -3.509338 0.457014
C 1.720631 -3.594639 0.830152
C 1.848181 -3.500473 0.759998
C 2.015013 -3.423053 0.742848
C 2.206056 -3.199477 0.586398
C 2.200967 -2.523619 0.238703
C 2.208496 -1.789661 -0.260365
C 2.164912 -1.171206 -0.613069
C 2.190024 -0.551436 -1.067339
C 1.977265 0.125213 -1.268856
C 1.821891 0.673171 -1.557268
C 1.645326 1.212414 -1.790468
C 1.827124 1.127192 -1.756958
C 1.982835 1.092972 -1.736915
C 2.145094 1.075117 -1.757639
C 2.148238 1.033431 -1.598786
C 2.221123 0.901089 -1.524854
C 2.403346 0.820503 -1.534698
C 2.646851 0.778289 -1.611990
C 2.691377 0.957288 -1.717219
C 2.808007 1.025418 -1.777037
C 2.844547 1.073571 -1.744189
C 2.859553 0.991736 -1.658793
C 2.770833 0.852550 -1.429728
C 2.854439 0.662898 -1.292580
C 2.867258 0.478666 -1.003577
C 2.908984 0.510797 -0.987357
C 2.790221 0.681692 -0.958034
C 2.705216 0.664298 -0.914808
C 2.753765 0.569340 -0.918587
C 2.815674 0.545308 -0.879462
C 2.754315 0.695034 -0.879230
C 2.692422 0.678339 -0.857284
C 2.654324 0.363505 -0.563864
C 2.752102 -0.083396 -0.235319
C 2.919271 -0.363215 -0.065730
C 3.036830 -0.280249 -0.026762
C 3.203904 -0.192610 -0.038464
C 3.221492 -0.209509 0.064866
C 3.281627 -0.128835 0.108348
C 3.312865 0.104083 0.049913
C 3.277856 0.241666 0.052547
C 3.109483 0.332373 0.045495
C 2.915944 0.269117 0.139072
C 2.758622 0.257363 0.144801
C 2.547849 0.019999 0.342703
C 2.316534 -0.285052 0.524468
C 2.131225 -0.747125 0.831867
C 1.956763 -1.100996 1.049414
C 1.826932 -1.521595 1.411870
C 1.679795 -1.924821 1.805770
C 1.515573 -2.215077 2.089951
C 1.508956 -2.362843 2.228459
C 1.559240 -2.458938 2.346115
C 1.737354 -2.329740 2.316462
C 1.916916 -2.166625 2.358317
C 2.152750 -1.838105 2.157511
C 2.325817 -1.467490 1.933606
C 2.442083 -1.245761 1.808835
C 2.565520 -1.145530 1.879710
C 2.560644 -0.961773 1.860863
C 2.384542 -0.869915 1.835496
C 2.197439 -0.780087 1.786587
C 2.222001 -0.808947 1.993657
C 2.206876 -0.825621 2.112541
C 2.158493 -0.721385 2.138545
C 2.155629 -0.245886 1.844515
C 2.166116 0.242694 1.571839
C 2.191467 0.802741 1.242219
C 2.274606 1.268133 0.974808
C 2.209180 1.700909 0.619426
C 2.381332 1.980577 0.551505
C 2.570727 2.232204 0.424772
C 2.531585 2.184580 0.500812
C 2.576666 2.132878 0.615291
C 2.685077 2.070685 0.730462
C 2.636216 2.211138 0.657091
C 2.579985 2.410411 0.591292
C 2.481767 2.386616 0.560913
C 2.331862 2.547782 0.552159
C 2.310528 2.837491 0.403355
C 2.233302 2.796028 0.451878
C 2.124949 2.614743 0.667478
C 2.142737 2.285955 1.033384
C 2.125081 2.145703 1.250259
C 1.943979 2.256336 1.106891
C 1.825844 2.354434 0.895677
C 1.656765 2.435763 0.799251
C 1.484395 2.776129 0.548609
C 1.426480 2.837950 0.496034
C 1.387117 2.969150 0.450081
C 1.320284 2.879611 0.506578
C 1.269761 2.955248 0.598738
C 1.279625 2.859606 0.895385
C 1.363229 2.679470 1.188686
C 1.432082 2.521563 1.335259
C 1.387586 2.694909 1.378418
C 1.222668 2.788064 1.267095
C 1.147090 2.844185 1.222435
C 1.119637 2.916274 1.169274
C 1.075003 2.937670 1.181975
C 1.100657 2.758660 1.347039
C 1.185009 2.538530 1.678796
C 1.137866 2.357559 1.669356
C 1.199932 1.996639 1.861893
C 1.254991 1.605693 2.134936
C 1.204827 0.919416 2.559350
C 1.156427 0.215767 2.843546
C 1.043112 -0.178547 2.962208
C 0.940589 -0.553704 3.007040
C 0.882610 -0.894494 3.226561
C 0.795310 -1.064672 3.326595
C 0.667880 -1.005268 3.228045
C 0.643076 -0.718889 3.112837
C 0.674282 -0.467161 3.067164
C 0.673880 -0.309940 2.969450
C 0.666231 -0.121658 2.876539
C 0.670802 0.036939 2.920204
C 0.681918 0.229381 2.932691
C 0.744680 0.212512 2.970991
C 0.795444 0.279505 2.974679
C 0.729242 0.568546 2.869361
C 0.544929 1.051447 2.797312
C 0.438306 1.497701 2.737623
C 0.428194 1.680625 2.669024
C 0.409016 1.788333 2.544230
C 0.332748 1.931760 2.535787
C 0.276817 1.765847 2.556179
C 0.215722 1.431031 2.750654
C 0.229987 0.995309 2.968987
C 0.190848 0.641271 3.228230
C 0.081825 0.592058 3.164971
C -0.052645 0.673852 3.291869
C -0.598451 0.807538 3.310204
C -1.272236 1.116444 3.181830
C -1.340741 1.420397 3.108972
C -1.564389 1.743752 3.031828
C -1.547942 1.973107 2.804440
C -1.486826 2.146384 2.649560
C -1.473174 2.396798 2.352537
C -1.120632 2.675092 2.077091
C -0.610594 2.879513 1.910641
C -0.630314 3.062025 1.696352
C -0.428446 3.220641 1.429521
C -0.519599 3.357321 1.279484
C -0.704317 3.518998 1.266048
C -0.681839 3.219430 1.475820
C -0.654051 2.690546 1.852156
C -0.693450 2.202087 2.226700
C -0.843295 1.680281 2.569362
C -0.833816 1.124848 2.781367
C -0.849009 0.603679 3.083232
C -0.814560 0.113557 3.288704
C -0.995585 0.002199 3.424625
C -1.076375 0.200910 3.326846
C -1.104015 0.570682 3.039602
C -1.108749 1.024441 2.656078
C -1.315281 1.535148 2.431776
C -1.400285 1.884816 2.216399
C -1.507371 2.061381 2.128707
C -1.444368 2.047519 2.012351
C -1.516490 2.026734 1.973614
C -1.507143 1.753454 2.133946
C -1.440216 1.510175 2.313003
C -1.495095 1.469133 2.314011
C -1.652139 1.585835 2.215722
C -1.739625 1.588002 2.214884
C -1.918741 1.898258 1.972289
C -1.925615 1.974948 1.869751
C -2.076751 2.212788 1.713903
C -2.279199 2.493913 1.505819
