319
chr7 3D structure from Hi-C (resolution 500000bp)
C -1.181830 3.536296 0.576896
C -1.427056 3.366056 0.433626
C -1.380564 3.297432 0.327388
C -1.118603 3.121305 0.147393
C -0.820627 2.795201 -0.143214
C -0.387562 2.573219 -0.291612
C -0.131152 2.552676 -0.366329
C -0.069821 2.502879 -0.475141
C -0.009279 2.596657 -0.505711
C -0.128795 2.571638 -0.528784
C -0.390415 2.835536 -0.386611
C -0.763359 3.075824 -0.299530
C -1.065069 3.213445 -0.329923
C -0.999634 3.215399 -0.392018
C -0.609627 3.202225 -0.433708
C 0.008818 3.135156 -0.483055
C 0.631685 3.062749 -0.605829
C 1.060656 2.978112 -0.689807
C 1.207555 2.861604 -0.796420
C 1.373280 2.817489 -0.818892
C 1.566808 2.772143 -0.849697
C 1.606520 2.833251 -0.856964
C 1.429136 2.773286 -0.902502
C 1.445123 2.838497 -0.870124
C 1.507854 2.746093 -0.951019
C 1.702277 2.723732 -0.928112
C 1.812778 2.626021 -0.987400
C 1.850781 2.521867 -1.070525
C 1.923540 2.413792 -1.190370
C 2.018374 2.399141 -1.304355
C 1.795849 2.304716 -1.384083
C 1.473809 2.322708 -1.369914
C 1.176456 2.433691 -1.413951
C 1.059525 2.601431 -1.443473
C 0.945945 2.821225 -1.366889
C 0.821433 2.869051 -1.395870
C 0.739787 2.899696 -1.418861
C 0.591775 3.013593 -1.400586
C 0.760703 3.049233 -1.511181
C 0.687789 2.965458 -1.546807
C 0.575402 2.802462 -1.557806
C 0.325838 2.673828 -1.649483
C -0.019457 2.627929 -1.592725
C -0.519956 2.583898 -1.466430
C -0.684094 2.508988 -1.427085
C -0.956447 2.337256 -1.357854
C -1.193410 2.274185 -1.336348
C -1.387198 2.235431 -1.346487
C -1.499807 2.141807 -1.393030
C -1.678754 2.129703 -1.410187
C -1.556881 2.130705 -1.519734
C -1.541024 2.172232 -1.673802
C -1.647420 2.260509 -1.763568
C -1.535231 2.217586 -1.825958
C -1.516197 2.219164 -1.863568
C -1.428814 2.237944 -1.902008
C -1.224827 2.173956 -1.998507
C -1.348516 2.128565 -2.014180
C -1.392130 2.019071 -2.021600
C -1.129829 1.913521 -2.165127
C -0.921604 1.831869 -2.228676
C -0.700125 1.773431 -2.253649
C -0.661982 1.707509 -2.235122
C -0.489043 1.717251 -2.275183
C -0.020993 1.703795 -2.400228
C 0.412729 1.664589 -2.461443
C 0.458318 1.625235 -2.405190
C 0.433810 1.630975 -2.441749
C 0.266162 1.685273 -2.577780
C 0.163132 1.585053 -2.656826
C 0.004221 1.435010 -2.634317
C -0.354071 1.356164 -2.587426
C -0.858889 1.260204 -2.571959
C -1.024251 1.199805 -2.506994
C -1.111286 1.128809 -2.502151
C -1.041148 1.008311 -2.490542
C -1.016470 1.015366 -2.550050
C -0.884857 1.011139 -2.687161
C -0.465070 0.949656 -2.797097
C -0.085816 0.909991 -2.832553
C 0.043165 0.843717 -2.940821
C 0.172666 0.774575 -3.041266
C 0.244002 0.697123 -3.166015
C 0.301025 0.600337 -3.099149
C 0.052161 0.589459 -2.922247
C -0.539956 0.591110 -2.795207
C -1.023506 0.628107 -2.697848
C -1.263284 0.649675 -2.656230
C -1.334971 0.636808 -2.642645
C -1.226336 0.625644 -2.581187
C -0.932085 0.651520 -2.681208
C -0.625035 0.664121 -2.776527
C -0.313392 0.602269 -2.816998
C 0.174151 0.569704 -2.815873
C 0.616417 0.572234 -2.778369
C 0.826319 0.555702 -2.688662
C 0.876358 0.555587 -2.552713
C 0.701357 0.507877 -2.430569
C 0.860696 0.440544 -2.360389
C 1.268800 0.460624 -2.418352
C 1.551463 0.387432 -2.472920
C 1.653267 0.334151 -2.459970
C 1.787080 0.303920 -2.466719
C 2.012496 0.252852 -2.456977
C 2.380422 0.248996 -2.414338
C 2.461833 0.172396 -2.363264
C 2.379276 0.153089 -2.140159
C 2.123920 0.174035 -2.039382
C 1.852132 0.111357 -2.003475
C 1.868889 0.129288 -1.917149
C 1.993263 0.089365 -1.860254
C 2.162556 0.092415 -1.770260
C 2.472741 0.185394 -1.657246
C 2.882669 0.324629 -1.367631
C 3.387781 0.520080 -0.874492
C 3.919209 0.829721 -0.330745
C 4.113588 1.204031 0.234919
C 4.112681 1.636479 0.778043
C 4.245418 1.683890 1.114635
C 4.316662 1.633361 1.327631
C 4.356608 1.370543 1.300365
C 4.376609 1.064313 0.993168
C 4.416254 0.599869 0.629341
C 4.467169 -0.006756 0.179161
C 4.507075 -0.662619 -0.335521
C 4.281554 -1.026198 -0.719650
C 3.730791 -1.417807 -1.231765
C 3.026838 -1.692510 -1.772737
C 2.215425 -1.987678 -2.171350
C 1.302518 -2.023598 -2.460195
C 0.369901 -2.035163 -2.645116
C -0.165692 -2.012917 -2.826457
C -0.427298 -1.961538 -2.902809
C -0.285675 -1.817277 -2.758261
C 0.015742 -1.657032 -2.550900
C 0.283968 -1.520108 -2.373175
C 0.470812 -1.484145 -2.298294
C 0.791174 -1.459234 -2.266526
C 0.753988 -1.430809 -2.131003
C 0.939702 -1.384638 -2.045252
C 0.907005 -1.387843 -2.025259
C 0.857990 -1.464652 -2.077551
C 0.578955 -1.453968 -2.111832
C 0.195531 -1.468954 -2.143508
C -0.184417 -1.334593 -1.978077
C -0.686537 -1.141002 -1.888668
C -1.715326 -0.910396 -1.786865
C -2.585736 -0.817828 -1.751519
C -3.269907 -0.657341 -1.552799
C -3.530768 -0.577388 -1.337371
C -3.526685 -0.750187 -1.274535
C -3.479061 -0.949547 -1.326858
C -3.261228 -1.248051 -1.347378
C -2.588577 -1.505091 -1.301023
C -1.767554 -1.623747 -1.132822
C -1.191667 -1.801893 -1.092619
C -0.568388 -2.094480 -1.161705
C 0.072603 -2.134459 -1.046465
C 0.592646 -2.228418 -0.961144
C 1.089876 -2.256597 -0.826277
C 0.990683 -2.409459 -0.875490
C 0.815159 -2.579307 -0.936027
C 0.756767 -2.709044 -0.940772
C 0.715630 -2.616121 -0.824523
C 0.607223 -2.645295 -0.718574
C 0.675485 -2.738348 -0.662633
C 0.796338 -2.872411 -0.611991
C 0.981972 -2.948012 -0.489512
C 1.176198 -3.041065 -0.462761
C 1.273698 -3.025897 -0.349920
C 1.213022 -3.057393 -0.296097
C 1.060355 -2.871772 -0.263064
C 0.711514 -2.865808 -0.380595
C 0.357750 -2.780180 -0.408907
C 0.326470 -2.827402 -0.473066
C 0.361012 -2.798939 -0.346964
C 0.322181 -2.762512 -0.329850
C 0.119801 -2.792759 -0.360048
C 0.071931 -2.838617 -0.350673
C 0.140570 -2.827145 -0.254302
C 0.055856 -2.793898 -0.262593
C -0.311822 -2.599440 -0.237351
C -0.829449 -2.511104 -0.317164
C -1.036534 -2.566651 -0.332701
C -1.005576 -2.671248 -0.313692
C -1.010518 -2.874559 -0.316901
C -1.012813 -2.898310 -0.216442
C -1.017672 -2.988258 -0.131664
C -0.938556 -3.125275 -0.098426
C -0.878367 -3.107522 -0.010217
C -0.885993 -3.011994 0.028462
C -0.986912 -2.807635 0.008186
C -1.063139 -2.637106 0.013003
C -1.321267 -2.302815 0.040791
C -1.595184 -2.011049 0.006326
C -1.934760 -1.579792 0.122915
C -2.247216 -1.158068 0.152719
C -2.710631 -0.806845 0.128992
C -3.060544 -0.438871 0.272630
C -3.300460 -0.162981 0.351664
C -3.468818 -0.099999 0.365773
C -3.568142 -0.024033 0.439353
C -3.538178 -0.266644 0.372089
C -3.499240 -0.557855 0.408339
C -3.237409 -0.905970 0.486480
C -2.905037 -1.174402 0.504328
C -2.717744 -1.389651 0.568713
C -2.743211 -1.505149 0.626053
C -2.606380 -1.552959 0.674790
C -2.409702 -1.449472 0.772280
C -2.220747 -1.401466 0.840329
C -2.338608 -1.404305 0.918348
C -2.440093 -1.433247 0.988949
C -2.319706 -1.369291 1.027690
C -1.836246 -1.553598 1.145501
C -1.281247 -1.728609 1.230116
C -0.706720 -1.923417 1.340870
C -0.238106 -2.136836 1.416830
C 0.236888 -2.241473 1.460258
C 0.368657 -2.450426 1.584740
C 0.619235 -2.669179 1.675981
C 0.592299 -2.598904 1.648340
C 0.447960 -2.626310 1.703706
C 0.345459 -2.669540 1.796518
C 0.487253 -2.641215 1.836889
C 0.628985 -2.686378 1.898429
C 0.724244 -2.636309 1.861991
C 0.647356 -2.653337 1.890237
C 0.979095 -2.729330 1.946756
C 0.876191 -2.695442 1.972940
C 0.606021 -2.581308 1.960060
C 0.128815 -2.462849 2.025115
C 0.102199 -2.295410 2.058066
C 0.304632 -2.196787 2.059011
C 0.706163 -2.045138 2.034982
C 0.833461 -1.945097 2.056848
C 1.277825 -1.890978 2.112878
C 1.321816 -1.904122 2.129346
C 1.488888 -1.929800 2.184681
C 1.324388 -1.911996 2.216836
C 1.377616 -1.872892 2.287929
C 1.090017 -1.890237 2.430341
C 0.730977 -1.877343 2.572405
C 0.467083 -1.895628 2.615795
C 0.587424 -1.816060 2.740379
C 0.722200 -1.722375 2.726393
C 0.780411 -1.606006 2.686878
C 0.889086 -1.549129 2.715738
C 0.957847 -1.436809 2.737308
C 0.824164 -1.404928 2.739892
C 0.594257 -1.351264 2.759380
C 0.526119 -1.301405 2.638227
C 0.142530 -1.198685 2.539730
C -0.272018 -1.077832 2.556457
C -1.000410 -0.829349 2.493658
C -1.661803 -0.631870 2.315716
C -2.000338 -0.334376 2.150352
C -2.292903 -0.125047 2.016328
C -2.635814 0.002679 1.995182
C -2.769119 0.067255 1.981877
C -2.666894 0.060502 1.945008
C -2.415686 0.039450 1.986113
C -2.194209 -0.029070 2.078174
C -2.025721 -0.142721 2.130709
C -1.894905 -0.254678 2.198022
C -1.801984 -0.300444 2.358288
C -1.650413 -0.293460 2.489303
C -1.689134 -0.252786 2.522581
C -1.649702 -0.359360 2.574965
C -1.408652 -0.362121 2.699409
C -0.778316 -0.360380 2.734952
C -0.420146 -0.301285 2.939274
C -0.286348 -0.311634 2.915894
C -0.143990 -0.339866 2.878637
C -0.009776 -0.342759 2.923343
C -0.161140 -0.260057 2.826183
C -0.468955 -0.109228 2.734122
C -1.152573 0.058299 2.786965
C -1.505627 0.234799 2.719505
C -1.505457 0.374569 2.698350
C -1.470129 0.487238 2.818111
C -1.168850 0.947872 2.918982
C -0.679133 1.497135 3.018935
C -0.393915 1.547304 3.116978
C 0.000233 1.586468 3.302357
C 0.330037 1.423903 3.281023
C 0.562772 1.301110 3.223971
C 0.882324 1.204603 3.157906
C 1.051681 0.810500 3.162640
C 1.171555 0.244996 3.171141
C 1.448200 0.077008 3.144233
C 1.635979 -0.063076 2.959833
C 1.800403 -0.019657 2.966324
C 1.903369 0.104165 3.134004
C 1.572990 0.213249 3.076334
C 1.001392 0.349471 2.995739
C 0.472087 0.568588 2.958673
C -0.033361 0.928937 2.911085
C -0.508361 1.029466 2.797867
C -1.060943 1.201770 2.646560
C -1.458508 1.312174 2.437249
C -1.530229 1.538354 2.494415
C -1.342194 1.554739 2.542885
C -0.920280 1.425666 2.537794
C -0.408391 1.230365 2.517789
C 0.059886 1.242843 2.605464
C 0.482621 1.215076 2.674321
C 0.690972 1.257607 2.756985
C 0.728307 1.133199 2.676429
C 0.862275 1.133909 2.629636
C 0.545040 1.237568 2.563647
C 0.245470 1.284584 2.518140
C 0.213946 1.396834 2.560787
C 0.379960 1.504729 2.588960
C 0.412764 1.583514 2.561469
C 0.729443 1.678813 2.641244
C 0.749178 1.704482 2.622268
C 1.050648 1.777850 2.715667
C 1.366298 1.888898 2.811875
