498
chr1 3D structure from Hi-C (resolution 500000bp)
C 3.318480 3.743986 -0.765942
C 3.322920 3.596761 -0.965133
C 3.458908 3.408137 -1.063857
C 3.420195 3.272734 -1.228260
C 3.273982 3.081030 -1.579717
C 3.188959 2.798148 -1.845480
C 3.238907 2.476891 -1.963260
C 3.313626 2.205355 -2.090113
C 3.269240 2.058113 -2.177368
C 3.048238 2.089116 -2.299854
C 2.869959 2.123393 -2.324237
C 2.741843 2.084166 -2.407021
C 2.622862 2.243157 -2.422245
C 2.341861 2.368248 -2.493269
C 1.948670 2.647766 -2.437170
C 1.514879 2.846526 -2.453735
C 1.276909 3.064903 -2.409327
C 1.137344 3.203979 -2.376141
C 0.989534 3.455171 -2.290386
C 0.879021 3.516717 -2.366814
C 0.831023 3.606546 -2.352549
C 1.022194 3.489834 -2.473939
C 1.428698 3.300611 -2.573226
C 1.828294 2.970131 -2.654268
C 1.963770 2.659975 -2.767315
C 2.097636 2.409677 -2.815024
C 2.150012 2.180879 -2.818133
C 2.218501 2.003276 -2.839231
C 2.092376 2.088325 -2.817067
C 1.890805 2.296581 -2.705436
C 1.680656 2.549552 -2.699672
C 1.616425 2.703895 -2.784723
C 1.570222 2.709675 -2.896403
C 1.493683 2.727305 -2.936399
C 1.489318 2.747451 -3.026634
C 1.446043 2.585795 -3.069031
C 1.247671 2.447370 -3.188667
C 1.031333 2.267551 -3.275658
C 0.907714 2.427185 -3.190854
C 0.609635 2.740521 -3.087282
C 0.409439 2.946721 -3.126221
C 0.275667 3.003258 -3.164216
C 0.223187 3.122230 -3.168623
C 0.152435 3.243326 -3.154727
C -0.084333 3.452799 -3.084060
C -0.263756 3.309496 -3.129883
C -0.375063 3.168524 -3.202988
C -0.553005 3.109336 -3.178339
C -0.711841 3.165115 -3.189569
C -0.892518 3.101552 -3.181805
C -1.082986 3.083567 -3.175102
C -1.184662 2.994943 -3.237211
C -1.389627 3.043037 -3.247867
C -1.482604 2.967494 -3.258468
C -1.465702 2.890702 -3.297462
C -1.289885 2.736993 -3.336819
C -0.975553 2.571829 -3.420903
C -0.536389 2.286158 -3.526407
C -0.288855 2.097525 -3.630345
C -0.056729 1.948903 -3.648531
C 0.013388 1.875086 -3.716098
C -0.098828 1.858394 -3.742669
C -0.269860 1.854322 -3.736167
C -0.397844 1.848964 -3.781171
C -0.369761 1.797564 -3.785634
C -0.239996 1.645221 -3.747638
C -0.066172 1.494375 -3.791570
C -0.186546 1.391558 -3.882202
C -0.148421 1.316688 -3.958648
C -0.196328 1.242708 -4.035274
C -0.146073 1.177267 -4.067949
C -0.302951 1.235769 -4.094300
C -0.601811 1.317223 -4.122772
C -0.780664 1.324412 -4.102260
C -0.574634 1.290848 -4.023446
C -0.699069 1.196241 -4.007716
C -0.786101 1.155841 -3.907286
C -1.215666 1.105699 -3.867469
C -1.464434 1.001214 -3.849511
C -1.409067 0.846859 -3.838362
C -1.493704 0.778824 -3.757558
C -1.616050 0.597382 -3.867432
C -1.355049 0.478317 -3.917196
C -1.216493 0.391142 -3.975063
C -1.075610 0.357888 -4.027466
C -0.968578 0.286252 -4.062163
C -0.976493 0.296973 -4.046108
C -1.001568 0.216811 -4.148493
C -1.131922 0.237856 -4.088437
C -1.146710 0.138917 -4.095366
C -0.797346 -0.003000 -4.127288
C -0.401325 -0.108364 -3.970239
C -0.034575 -0.171025 -3.804291
C 0.481708 -0.328900 -3.703253
C 0.999410 -0.434964 -3.509348
C 1.835627 -0.562286 -3.223030
C 2.519572 -0.616514 -2.835408
C 2.769296 -0.654227 -2.585748
C 3.074902 -0.687864 -2.497187
C 2.796599 -0.880966 -2.627658
C 2.379226 -0.960570 -2.810303
C 2.111055 -1.018523 -3.105768
C 1.554469 -0.971906 -3.332506
C 1.040374 -0.936930 -3.631532
C 0.649255 -0.868526 -3.744475
C 0.236762 -0.882911 -3.845183
C 0.350736 -0.745282 -3.785773
C 0.573757 -0.700113 -3.652658
C 0.844618 -0.677840 -3.479784
C 1.038154 -0.768614 -3.290834
C 1.281158 -0.864399 -3.122839
C 1.518837 -1.024932 -3.029253
C 1.880033 -1.116679 -2.878403
C 2.025617 -1.246767 -2.825751
C 1.937533 -1.305482 -2.732497
C 1.812545 -1.435869 -2.758723
C 2.048791 -1.474755 -2.853474
C 2.167706 -1.570168 -2.799955
C 2.280137 -1.615666 -2.760954
C 2.265585 -1.725493 -2.813932
C 2.199083 -1.715465 -2.665865
C 2.277727 -1.809657 -2.644069
C 2.254306 -1.860870 -2.575062
C 2.115603 -1.961582 -2.506582
C 1.963682 -1.993881 -2.563605
C 1.831629 -2.075018 -2.576533
C 1.715158 -2.129408 -2.562819
C 1.752489 -2.278351 -2.658461
C 2.013373 -2.288106 -2.546462
C 2.149071 -2.303291 -2.399692
C 2.159920 -2.345640 -2.324354
C 2.047804 -2.355675 -2.191316
C 2.000028 -2.433738 -2.093826
C 2.021046 -2.423282 -1.906096
C 2.264412 -2.393234 -1.708008
C 2.262518 -2.494505 -1.665424
C 2.411486 -2.514227 -1.529159
C 2.554581 -2.491576 -1.330831
C 2.770183 -2.559821 -1.195569
C 2.947097 -2.574607 -1.032714
C 3.079153 -2.648929 -0.908206
C 3.110371 -2.713977 -0.747514
C 3.211216 -2.710588 -0.513108
C 3.292515 -2.700718 -0.338103
C 3.323894 -2.812272 -0.267309
C 3.389346 -2.855204 -0.103711
C 3.357360 -2.870768 -0.023709
C 3.286087 -2.924751 0.074116
C 3.055600 -2.961723 0.012420
C 2.785940 -3.043179 -0.131305
C 2.591824 -3.158063 -0.124012
C 2.443199 -3.164188 -0.232356
C 2.294260 -3.256101 -0.502943
C 2.190288 -3.341824 -0.598845
C 2.150651 -3.409952 -0.664432
C 2.117135 -3.450217 -0.598448
C 2.079055 -3.501621 -0.503573
C 1.995851 -3.574132 -0.518705
C 2.022969 -3.665944 -0.256959
C 1.995601 -3.723282 -0.010349
C 1.868639 -3.738172 0.087672
C 1.771541 -3.784794 0.016987
C 1.782085 -3.864845 0.016815
C 1.843333 -3.941904 0.124365
C 1.780767 -3.963937 0.138937
C 1.644836 -4.029289 -0.070556
C 1.437617 -3.881558 -0.250965
C 1.352924 -3.848746 -0.381313
C 1.194454 -3.790474 -0.389291
C 1.047568 -3.792978 -0.549676
C 0.754260 -3.742649 -1.014512
C 0.603611 -3.733243 -1.350646
C 0.540556 -3.701385 -1.543839
C 0.624268 -3.843572 -1.528213
C 0.519448 -3.803276 -1.580830
C 0.366615 -3.781148 -1.817945
C 0.232203 -3.658938 -1.928958
C 0.283653 -3.660476 -1.408513
C 0.370885 -3.676438 -0.946267
C 0.189080 -3.735540 -0.960601
C 0.005793 -3.603237 -1.041286
C -0.007822 -3.669279 -1.157385
C -0.058414 -3.623991 -1.143501
C -0.238975 -3.640894 -1.253862
C -0.393421 -3.575026 -1.794579
C -0.589365 -3.519239 -2.136476
C -0.547733 -3.427776 -1.988006
C -0.453331 -3.626756 -1.733659
C -0.365880 -3.749004 -1.347020
C -0.198750 -3.958379 -0.896190
C -0.008321 -4.101153 -0.432656
C 0.013678 -4.233811 0.006772
C -0.002452 -4.364547 0.319320
C 0.054911 -4.450810 0.598334
C -0.002292 -4.360788 0.548009
C -0.117676 -4.321032 0.381029
C -0.344701 -4.220265 0.044641
C -0.587139 -4.166324 -0.287374
C -0.738104 -4.123218 -0.524585
C -0.833333 -3.922985 -0.774645
C -0.914864 -3.903063 -0.966479
C -1.015279 -4.029530 -0.914371
C -1.073039 -4.042301 -0.711674
C -1.089340 -4.114822 -0.306585
C -1.031052 -4.217544 0.195556
C -0.992794 -4.229847 0.393956
C -1.035577 -4.402753 0.471095
C -1.121814 -4.376115 0.519918
C -1.198827 -4.301832 0.586262
C -1.318768 -4.340459 0.542106
C -1.385621 -4.334053 0.387742
C -1.387612 -4.218940 0.105084
C -1.418909 -4.147663 -0.051507
C -1.490493 -4.049300 -0.145558
C -1.651531 -3.848273 -0.453951
C -1.782630 -3.485491 -0.947198
C -1.917867 -3.026950 -1.435179
C -2.061864 -2.640960 -1.869707
C -2.184486 -2.306031 -2.119698
C -2.330227 -2.004602 -2.332809
C -2.345480 -1.693149 -2.543624
C -2.331640 -1.573790 -2.589211
C -2.369011 -1.619042 -2.572259
C -2.295296 -1.779258 -2.494310
C -2.266052 -1.860361 -2.432055
C -2.251742 -1.989496 -2.451631
C -2.264214 -2.149809 -2.335206
C -2.242065 -2.310096 -2.290766
C -2.283239 -2.432541 -2.129907
C -2.318125 -2.568726 -1.973440
C -2.472784 -2.568353 -1.872451
C -2.533771 -2.657154 -1.743119
C -2.559988 -2.754636 -1.645024
C -2.599706 -2.909206 -1.400124
C -2.720714 -3.060125 -1.140219
C -2.666503 -3.035223 -1.065260
C -2.563610 -2.964674 -0.941794
C -1.714887 -3.058830 -0.249110
C -0.928569 -3.109873 0.420609
C -0.352712 -3.191292 1.117565
C 0.341787 -3.147603 1.597013
C 1.245321 -2.998730 2.059795
C 2.286548 -2.588128 2.086819
C 3.345662 -2.127653 2.077444
C 3.699485 -1.505312 1.535132
C 4.077552 -0.856436 1.016792
C 4.273671 -0.629124 1.096855
C 4.388631 -0.428910 1.166560
C 4.563549 0.185620 0.962634
C 4.500057 0.364556 1.265989
C 4.364441 0.047554 1.764282
C 4.234865 -0.396688 2.214736
C 4.137356 -0.848070 2.572817
C 4.440415 -0.357317 2.099242
C 4.744669 0.217081 1.576865
C 4.740855 0.325346 1.380109
C 4.710628 0.479374 1.239772
C 4.756836 1.053741 0.987195
C 4.692291 1.217036 1.146669
C 4.609889 1.375040 1.344674
C 4.483261 1.118172 1.738973
C 4.412931 0.820713 2.124385
C 4.403569 0.480322 2.442672
C 4.482671 0.142216 2.497774
C 4.575859 -0.193884 2.419573
C 4.790448 -0.105331 1.900631
C 4.992066 -0.064212 1.384401
C 4.309966 -0.589094 1.447392
C 3.617017 -1.151622 1.574447
C 2.974717 -1.716264 1.784885
C 2.330958 -2.306295 2.208048
C 2.297818 -2.507815 2.310872
C 2.269053 -2.605577 2.464685
C 2.231676 -2.629224 2.676669
C 3.007938 -2.169320 2.419636
C 3.725870 -1.755515 2.206106
C 4.224200 -1.456950 2.135463
C 4.643409 -1.145132 2.093932
C 4.594991 -0.871764 2.271595
C 4.557473 -0.629032 2.393061
C 4.540579 -0.433839 2.430143
C 3.636466 -0.892459 2.661118
C 3.259187 -1.118694 2.940412
C 2.924833 -1.281533 3.078490
C 2.257705 -1.547344 3.070705
C 1.775352 -2.127580 3.313574
C 1.253727 -2.746964 3.605020
C -0.130907 -3.282536 3.395829
C -0.562465 -2.774644 2.678691
C -1.540699 -2.508518 1.733621
C -2.417794 -2.244110 0.723979
C -2.748527 -1.768309 0.117997
C -3.589198 -1.346308 -0.623426
C -4.496675 -1.020944 -1.295889
C -4.429783 -1.080960 -1.156869
C -4.372592 -1.531952 -0.746585
C -4.378756 -1.358394 -0.670750
C -4.235288 -1.050522 -0.541235
C -4.305040 -0.826161 -0.678850
C -4.248801 -0.562095 -0.768532
C -4.077016 -0.269022 -0.837497
C -3.955575 0.389953 -1.100273
C -3.944089 0.946305 -1.412592
C -3.669733 0.982013 -1.306740
C -3.782066 1.023649 -1.284425
C -3.766789 1.037009 -1.292310
C -3.655483 1.063423 -1.276358
C -3.697067 1.216593 -1.313728
C -3.755836 1.394499 -1.459597
C -3.796709 1.654870 -1.512517
C -3.959350 1.759529 -1.473848
C -3.814464 1.712107 -1.296836
C -3.947438 1.546049 -1.061959
C -4.123901 1.306348 -0.795331
C -4.181332 0.927029 -0.533366
C -4.122167 0.591694 -0.253672
C -4.032576 0.246343 -0.059279
C -4.035613 0.163359 0.068973
C -4.069803 0.083530 0.112205
C -3.968376 0.132326 0.073911
C -3.877084 0.245787 0.083896
C -3.789172 0.249367 0.157607
C -3.771000 0.083428 0.323783
C -3.630496 -0.072125 0.595988
C -3.496967 -0.515958 0.927552
C -3.378025 -0.884582 1.321857
C -3.156366 -1.197643 1.744633
C -2.964040 -1.449880 1.999152
C -2.802210 -1.433093 2.080312
C -2.703736 -1.457739 2.216587
C -2.757270 -1.447796 2.253381
C -2.814819 -1.221395 2.092037
C -2.814161 -0.883606 1.829581
C -2.996034 -0.646289 1.649140
C -3.101768 -0.545420 1.556310
C -3.200592 -0.492372 1.556213
C -3.375211 -0.408428 1.463916
C -3.463169 -0.362837 1.453409
C -3.424412 -0.391493 1.582922
C -3.361926 -0.501654 1.767205
C -3.348518 -0.579288 1.900284
C -3.333370 -0.539640 1.926457
C -3.344715 -0.533309 1.972364
C -3.342490 -0.382108 2.047756
C -3.405702 -0.167388 1.971039
C -3.429143 0.010751 1.969456
C -3.500383 0.139858 1.965794
C -3.381867 0.250932 1.933606
C -3.342591 0.208906 2.085302
C -3.245691 0.122414 2.317200
C -3.112538 -0.090042 2.466790
C -2.839665 -0.229055 2.651069
C -2.677583 -0.283464 2.717926
C -2.611153 -0.530556 2.903362
C -2.696145 -0.568993 3.026685
C -2.614632 -0.484942 2.975640
C -2.584990 -0.239872 2.760035
C -2.657913 0.073667 2.510083
C -2.847387 0.353649 2.354731
C -2.879134 0.522821 2.177936
C -3.017268 0.931571 1.914112
C -3.029915 1.165442 1.716766
C -3.226718 1.447034 1.553293
C -3.201732 1.488237 1.459860
C -3.191967 1.565034 1.537472
C -3.136976 1.526509 1.737786
C -3.158698 1.496416 1.938246
C -2.989370 1.372440 2.154056
C -2.826469 1.190822 2.502855
C -2.585934 0.882610 2.915672
C -2.485709 0.605324 3.333698
C -2.201189 0.298349 3.571990
C -1.950452 -0.076052 3.704773
C -1.694134 -0.454794 3.950420
C -1.469733 -0.736115 4.144447
C -1.319498 -0.912986 4.147176
C -1.114559 -0.975159 4.132616
C -0.979625 -0.950504 4.145286
C -0.913575 -0.999796 4.211479
C -0.816743 -0.890624 4.175993
C -0.738521 -0.727832 4.151515
C -0.672580 -0.620482 4.147785
C -0.677922 -0.485851 4.173299
C -0.723142 -0.395196 4.192585
C -0.688228 -0.327003 4.216660
C -0.490534 -0.340853 4.271407
C -0.345327 -0.320331 4.342106
C -0.229101 -0.291390 4.358022
C -0.190558 -0.222796 4.330654
C -0.057504 -0.245933 4.379014
C 0.162949 -0.312711 4.452680
C 0.199747 -0.243227 4.440437
C 0.041699 -0.021851 4.367567
C -0.244159 0.218229 4.268167
C -0.731420 0.719287 4.063983
C -0.976076 0.942602 3.968820
C -1.143431 1.145412 3.762625
C -1.532023 1.471745 3.521742
C -1.848833 1.777665 3.074623
C -2.074505 2.043633 2.569430
C -2.160466 2.336823 2.052893
C -2.103347 2.409497 1.588289
C -2.239264 2.650203 1.060288
C -2.326143 2.920598 0.559403
C -2.369231 3.052344 0.150535
C -2.347806 3.152917 -0.061898
C -2.354839 3.279691 -0.137542
C -2.332591 3.319875 -0.176888
C -2.272281 3.323641 -0.097671
C -2.241168 3.453294 -0.064302
C -2.251748 3.496767 0.015286
C -2.241199 3.547553 0.151337
C -2.206386 3.526747 0.375574
C -2.083916 3.416206 0.632033
C -1.964113 3.253475 0.959333
C -1.932117 3.195469 1.230749
C -1.833673 3.033640 1.554383
C -1.724580 2.883504 1.916782
C -1.583321 2.812511 2.201908
C -1.450548 2.827532 2.409171
C -1.514644 2.837755 2.378588
C -1.632263 2.949078 2.305118
C -1.628721 2.872914 2.205609
C -1.484746 2.859546 2.350230
C -1.328152 2.753187 2.511968
C -1.197129 2.621085 2.600378
C -1.005348 2.366391 2.761724
C -0.551944 2.128415 3.117834
C -0.152156 1.833831 3.451025
C 0.338978 1.558471 3.852082
C 0.550110 1.324574 3.911363
C 0.663081 1.247884 3.869070
C 0.800054 1.177733 3.899685
C 0.838544 1.194584 3.907095
C 0.790158 1.271220 3.881274
C 0.750486 1.460727 3.838696
C 0.562969 1.641432 3.691245
C 0.494215 1.835021 3.645319
C 0.471059 1.985995 3.652803
C 0.410079 2.132585 3.574822
C 0.318141 2.304100 3.416708
C 0.184356 2.406266 3.325518
C 0.201019 2.615624 3.133269
C 0.190136 2.779608 3.066870
C 0.099630 2.866886 2.918839
C -0.047872 3.036546 2.701246
C -0.024520 3.050571 2.593501
C 0.056308 3.041886 2.596978
C -0.030636 3.252746 2.391435
C -0.184879 3.288396 2.184860
C -0.271516 3.354744 1.965796
C -0.183317 3.415838 1.906340
C 0.039295 3.502824 1.824181
C 0.060538 3.682032 1.626831
C 0.140669 3.887707 1.380326
C 0.224235 3.895936 1.248392
C 0.320959 3.891469 1.250024
C 0.385923 3.839111 1.213944
C 0.272857 3.693610 1.076302
C 0.096706 3.504129 1.030357
C 0.095571 3.372440 1.106265
C 0.093598 3.212963 1.250244
C 0.092006 3.029327 1.364400
C 0.066595 2.969835 1.463645
C 0.025425 2.939687 1.526682
C 0.007286 3.096166 1.576628
C -0.053070 3.207715 1.472225
C -0.236555 3.342676 1.336059
C -0.431224 3.412609 1.190232
C -0.473871 3.346444 1.180063
C -0.252775 3.302917 1.270408
C 0.032525 3.232913 1.499798
C 0.388225 3.019029 1.779340
C 0.823046 2.837365 2.200349
C 1.310514 2.567835 2.586463
C 1.771591 2.244410 2.966463
C 2.113668 2.234512 3.232520
C 2.153292 1.971667 3.371904
C 2.249454 1.833703 3.392579
C 2.218871 1.720451 3.392819
C 2.128585 1.641776 3.326771
C 2.053165 1.636095 3.250256
C 1.984881 1.765785 3.073823
C 0.989619 1.064690 2.495634
C 1.225381 1.335332 2.246720
C 1.051717 1.498590 2.045650
C 1.011207 1.714268 1.809091
C 1.090410 1.946111 1.638683
C 1.038672 2.106107 1.468961
C 0.962838 2.186244 1.384268
C 1.844080 3.104297 1.657009
C 1.658229 3.015712 1.738194
C 1.735285 2.774217 1.888621
C 1.989292 2.675094 2.031144
C 2.030278 2.626796 2.079458
C 2.093355 2.555409 2.145032
C 2.178776 2.520155 2.194946
C 2.375013 2.284227 2.388486
