498
chr1 3D structure from Hi-C (resolution 500000bp)
C 3.648200 2.263753 -2.736885
C 3.510712 2.487939 -2.597368
C 3.343256 2.658639 -2.599582
C 3.217755 2.817233 -2.457247
C 3.106702 3.045847 -2.089438
C 2.860090 3.236248 -1.807337
C 2.602758 3.389465 -1.622191
C 2.301067 3.523842 -1.665476
C 2.158518 3.540386 -1.584986
C 2.240679 3.476035 -1.403291
C 2.305528 3.312532 -1.242286
C 2.289024 3.265296 -1.119277
C 2.432478 3.201471 -1.071481
C 2.572434 3.088999 -0.901876
C 2.848683 2.857451 -0.603226
C 3.069534 2.645666 -0.297213
C 3.261148 2.472359 -0.114628
C 3.419711 2.387364 -0.051059
C 3.626399 2.275951 -0.000086
C 3.726114 2.252066 0.108910
C 3.775228 2.233521 0.126618
C 3.727676 2.328584 -0.019977
C 3.495483 2.637051 -0.278487
C 3.062316 3.003214 -0.523282
C 2.729096 3.223070 -0.548661
C 2.403857 3.376740 -0.556164
C 2.156656 3.428526 -0.589897
C 1.953750 3.470341 -0.572595
C 2.016573 3.433101 -0.351274
C 2.273279 3.178862 -0.127071
C 2.645003 2.974590 0.030028
C 2.826172 2.967512 0.022474
C 2.937389 2.974229 0.076565
C 2.988875 2.982486 0.161484
C 3.009358 3.121967 0.160915
C 2.805022 3.233022 0.187338
C 2.675587 3.260605 0.269140
C 2.470288 3.287930 0.459302
C 2.467874 3.272432 0.668054
C 2.638156 3.217962 0.834965
C 2.800945 3.219260 0.965637
C 2.924874 3.091250 1.109578
C 3.028459 3.076327 1.121883
C 3.119429 3.023526 1.224609
C 3.359804 2.819964 1.360142
C 3.389667 2.608872 1.421233
C 3.388906 2.391463 1.549793
C 3.420427 2.163152 1.668045
C 3.555150 1.972012 1.770959
C 3.534547 1.845375 1.925440
C 3.645490 1.734090 2.012368
C 3.572250 1.700741 2.189401
C 3.676202 1.598175 2.357489
C 3.592933 1.619668 2.414149
C 3.543574 1.631669 2.502939
C 3.295378 1.928297 2.405938
C 3.124550 2.150072 2.199405
C 2.776629 2.520082 1.945057
C 2.574126 2.741160 1.807110
C 2.385540 2.932719 1.719910
C 2.346108 3.045033 1.700851
C 2.282433 3.142381 1.755359
C 2.307909 2.980040 1.931636
C 2.298927 2.950642 2.076214
C 2.239301 2.957489 2.141014
C 2.087868 2.990068 2.066289
C 1.912786 3.146395 1.961811
C 1.820429 3.141364 2.154081
C 1.743369 3.143465 2.241905
C 1.736406 3.099093 2.341750
C 1.656928 3.185330 2.259761
C 1.710953 3.110906 2.326654
C 1.765755 3.049546 2.522827
C 1.803698 2.945776 2.618610
C 1.754958 2.918256 2.451520
C 1.734899 2.805961 2.524298
C 1.656511 2.771169 2.541258
C 1.702187 2.459029 2.924752
C 1.648210 2.278667 3.155058
C 1.545281 2.264625 3.108847
C 1.451903 2.182698 3.182494
C 1.288236 2.309722 3.302744
C 1.100247 2.429153 3.222199
C 1.010432 2.533055 3.163508
C 0.928761 2.742833 3.024014
C 0.895516 2.850929 2.906650
C 0.867495 2.801404 2.958945
C 0.803399 2.832234 3.009034
C 0.778537 2.722299 3.101059
C 0.660202 2.829148 3.051576
C 0.494144 3.058072 2.706163
C 0.327797 3.082302 2.370410
C 0.113281 3.132663 2.053414
C -0.077679 3.348341 1.564491
C -0.290718 3.434778 1.041097
C -0.491357 3.609406 0.241514
C -0.631450 3.683017 -0.421723
C -0.764785 3.614836 -0.665206
C -0.910772 3.748630 -0.620671
C -0.989446 3.835833 -0.401682
C -1.020420 3.772458 0.039080
C -0.977513 3.889361 0.508881
C -0.829879 3.809100 1.021238
C -0.731046 3.745440 1.505125
C -0.603553 3.649729 1.909412
C -0.502341 3.453409 2.039800
C -0.439547 3.377720 1.993409
C -0.473701 3.328349 1.811696
C -0.517205 3.323077 1.396980
C -0.632098 3.236823 1.154360
C -0.776255 3.232709 0.900184
C -0.986620 3.310689 0.673774
C -1.126274 3.448035 0.340878
C -1.314702 3.437324 0.164025
C -1.316077 3.353256 0.159348
C -1.361738 3.338331 0.211982
C -1.488598 3.550570 0.170019
C -1.584634 3.539299 -0.030342
C -1.623586 3.503053 -0.257657
C -1.667294 3.495866 -0.364068
C -1.668585 3.409463 -0.362711
C -1.739414 3.447293 -0.437356
C -1.863181 3.341659 -0.269952
C -1.924352 3.169148 -0.199563
C -1.945614 3.170816 0.011099
C -2.018362 3.151635 0.328881
C -2.132507 3.054983 0.572697
C -2.244454 3.110224 0.653483
C -2.376637 3.187751 0.467554
C -2.441613 3.133151 0.357275
C -2.479622 3.061821 0.224435
C -2.487136 2.904888 0.300195
C -2.502221 2.845387 0.100054
C -2.567804 2.756291 -0.011662
C -2.601389 2.702541 -0.288282
C -2.635103 2.649779 -0.437558
C -2.711641 2.669986 -0.672193
C -2.817387 2.696306 -0.627786
C -2.907310 2.711519 -0.924557
C -2.967646 2.638538 -1.066833
C -2.985652 2.621868 -1.295160
C -3.054094 2.521276 -1.432420
C -3.123306 2.408620 -1.588480
C -3.120709 2.352982 -1.796032
C -3.157318 2.275654 -2.065232
C -3.203183 2.210696 -2.135417
C -3.294673 2.213235 -2.053620
C -3.344494 2.158402 -1.977773
C -3.371181 2.126384 -1.695885
C -3.368777 2.001384 -1.357481
C -3.485943 1.899824 -1.130203
C -3.437120 1.827577 -0.982462
C -3.411643 1.710282 -0.989119
C -3.420310 1.525431 -1.010838
C -3.477916 1.393682 -1.043544
C -3.511472 1.273076 -1.089250
C -3.609590 1.288946 -1.142439
C -3.622862 1.229836 -1.154568
C -3.795189 1.169560 -1.249416
C -3.935007 1.175622 -1.136516
C -4.001107 1.200715 -1.015663
C -4.032989 1.170843 -0.973685
C -4.101180 1.117126 -0.979292
C -4.161136 0.943754 -1.132225
C -4.190140 0.824758 -1.120739
C -4.171630 0.717435 -1.039715
C -4.006198 0.730141 -0.757272
C -3.953470 0.818033 -0.527502
C -3.902442 0.877073 -0.243295
C -3.848805 0.910423 -0.094775
C -3.769566 1.131182 0.439384
C -3.661847 1.337672 0.823929
C -3.645071 1.524792 1.084525
C -3.788422 1.532024 1.047704
C -3.706686 1.462847 1.056522
C -3.592980 1.455820 1.242202
C -3.412279 1.529478 1.514747
C -3.428431 1.474168 1.541793
C -3.532174 1.074824 1.173968
C -3.577251 0.654613 1.012276
C -3.431848 0.624058 1.158678
C -3.441910 0.623414 1.285318
C -3.418493 0.621692 1.366555
C -3.429547 0.677483 1.528750
C -3.302649 0.686901 1.641927
C -3.152745 0.884991 2.037462
C -2.989813 1.174874 2.252497
C -3.214326 1.152213 2.137742
C -3.436200 0.968746 1.822371
C -3.726728 0.705175 1.401506
C -3.952105 0.403626 0.960213
C -4.109734 0.182815 0.651588
C -4.292386 -0.073557 0.442025
C -4.477591 -0.247844 0.291585
C -4.402646 -0.391223 0.264902
C -4.346913 -0.384734 0.400698
C -4.185571 -0.306064 0.770103
C -4.062863 -0.363375 1.180580
C -4.039986 -0.296271 1.394078
C -3.848507 -0.128902 1.650682
C -3.747262 -0.157205 1.751517
C -3.855578 -0.245974 1.783055
C -3.884517 -0.321899 1.783729
C -4.003024 -0.475706 1.653887
C -4.164021 -0.652773 1.386723
C -4.203525 -0.810601 1.266121
C -4.334998 -0.870488 1.226007
C -4.356262 -0.827877 1.303162
C -4.300960 -0.777866 1.369151
C -4.273873 -0.938274 1.516929
C -4.234201 -0.865258 1.655180
C -4.117334 -0.629785 1.715776
C -3.998609 -0.520039 1.868278
C -3.932786 -0.401415 1.984671
C -3.659274 -0.223619 2.230839
C -3.180375 -0.016538 2.547807
C -2.681812 0.308049 2.824954
C -2.216015 0.594987 3.036571
C -1.829357 0.767300 3.247803
C -1.503059 0.840013 3.384942
C -1.164598 0.867514 3.466636
C -1.073146 0.881028 3.529072
C -1.187886 0.851770 3.554571
C -1.352478 0.839960 3.518115
C -1.421276 0.711076 3.493099
C -1.546094 0.639545 3.565714
C -1.692323 0.613826 3.570957
C -1.837428 0.507828 3.548847
C -1.967577 0.431287 3.515846
C -2.036564 0.318022 3.521883
C -2.032335 0.206735 3.551658
C -2.136599 0.064606 3.577912
C -2.238525 -0.108548 3.493453
C -2.407787 -0.377311 3.433666
C -2.538138 -0.615394 3.408976
C -2.522164 -0.738066 3.244959
C -2.521276 -0.811830 3.067711
C -2.803764 -0.990803 2.048451
C -3.044681 -1.154095 1.068142
C -3.239409 -1.267306 0.230109
C -3.258803 -1.256811 -0.721981
C -3.088398 -1.106366 -1.852830
C -2.894812 -1.036917 -2.924848
C -2.829647 -0.797830 -3.985417
C -2.545824 -0.361801 -4.196864
C -2.223615 0.154476 -4.431878
C -1.591476 0.838982 -4.643601
C -0.976134 1.504881 -4.683152
C -0.484306 2.049712 -4.583918
C -0.130659 2.271878 -4.528917
C 0.105548 2.184793 -4.591736
C 0.323378 2.073141 -4.667044
C 0.520841 1.989014 -4.730223
C 0.479533 1.748816 -4.857735
C 0.456970 1.462466 -5.029518
C 0.338697 1.177782 -5.172527
C -0.048962 1.121853 -5.193176
C -0.132934 1.565929 -4.982355
C -0.140634 1.544349 -3.426853
C -0.056982 1.921032 -3.212549
C -0.066576 2.259998 -3.025842
C -0.368228 2.427674 -2.939662
C -0.934141 2.194617 -2.793877
C -1.213466 2.029873 -2.703959
C -1.519882 1.505049 -2.805781
C -1.853445 1.351083 -4.264712
C -2.297916 0.567686 -4.375293
C -2.696584 -0.197222 -4.470992
C -2.863531 -0.677370 -4.477457
C -2.782663 -0.503059 -4.527375
C -2.974719 -0.957654 -4.069256
C -3.199449 -1.438253 -3.528133
C -2.470722 -1.060285 -3.490558
C -1.758367 -0.524781 -3.488168
C -1.134814 0.004851 -3.506098
C -0.608902 0.471170 -3.520090
C -0.149348 0.743357 -3.539673
C 0.472797 1.589048 -4.019043
C 1.028075 2.502136 -4.532812
C 0.553290 2.619475 -4.530896
C 0.052629 2.691239 -4.533640
C -0.420929 2.417678 -4.600751
C -0.786647 2.053680 -4.662506
C -1.061456 1.605790 -4.720777
C -1.601947 0.712053 -4.111902
C -2.091186 -0.086164 -3.892713
C -2.524145 -0.894547 -3.659749
C -2.932251 -1.680708 -3.347667
C -2.634583 -1.930351 -1.985122
C -2.502136 -2.127000 -0.511960
C -1.736033 -1.845958 -0.259314
C -1.097725 -1.506865 0.238150
C -0.571020 -1.432158 1.247896
C 0.024464 -1.231667 2.357781
C 0.434828 -1.039431 3.440019
C 0.212753 -0.999206 3.580891
C 0.468805 -0.873979 3.565237
C 0.154738 -1.128105 4.566779
C 0.398262 -1.063900 4.631340
C 0.732312 -0.906535 4.615447
C 0.973652 -0.877498 4.402840
C 1.327511 -0.846925 4.108082
C 1.645305 -0.886734 3.834034
C 1.616934 -0.927138 3.515603
C 1.660035 -1.007224 3.626710
C 1.674780 -1.059199 3.625658
C 1.737263 -1.072697 3.508546
C 1.908362 -1.115369 3.501050
C 2.189615 -1.083242 3.535417
C 2.445860 -1.036951 3.539001
C 2.572899 -1.105883 3.656894
C 2.475336 -1.196596 3.435915
C 2.273073 -1.399793 3.471483
C 2.032409 -1.650684 3.518770
C 1.547489 -1.876294 3.542959
C 1.077829 -2.058637 3.398219
C 0.733206 -2.262352 3.321692
C 0.613092 -2.380396 3.243018
C 0.652265 -2.460403 3.274149
C 0.781811 -2.414915 3.182868
C 0.691345 -2.372687 3.146338
C 0.635561 -2.415134 3.025860
C 0.528191 -2.558425 2.971481
C 0.302487 -2.657870 2.781141
C -0.165166 -2.843292 2.624371
C -0.678043 -3.068034 2.353469
C -1.182136 -3.252949 2.030996
C -1.395539 -3.336434 1.712181
C -1.371995 -3.279115 1.594493
C -1.432948 -3.262173 1.485804
C -1.540658 -3.272180 1.482052
C -1.325781 -3.181218 1.527382
C -0.991372 -2.980450 1.659046
C -0.756853 -2.912240 1.884074
C -0.596030 -2.879352 2.011370
C -0.510820 -2.924849 2.033929
C -0.373757 -3.014688 2.173091
C -0.281965 -3.086899 2.224717
C -0.412849 -3.166551 2.102954
C -0.522699 -3.249097 1.918686
C -0.533126 -3.362187 1.770766
C -0.429742 -3.434630 1.720048
C -0.350684 -3.487107 1.703703
C -0.252090 -3.508858 1.657696
C -0.031780 -3.509796 1.714163
C 0.209352 -3.540777 1.765104
C 0.300862 -3.592543 1.861600
C 0.314390 -3.509239 1.809476
C 0.184895 -3.609467 1.726241
C -0.076704 -3.746300 1.556648
C -0.337432 -3.803906 1.330609
C -0.492942 -3.831943 1.057626
C -0.586692 -3.802025 0.865680
C -0.724576 -3.975461 0.755685
C -0.756123 -4.163987 0.717495
C -0.650681 -4.088606 0.699726
C -0.435237 -3.891194 0.667197
C -0.063104 -3.754263 0.807526
C 0.257040 -3.656550 0.962427
C 0.531801 -3.482735 1.114208
C 0.894737 -3.280215 1.254570
C 1.141681 -3.104055 1.338893
C 1.356430 -3.080482 1.501358
C 1.508360 -3.017469 1.593135
C 1.590033 -3.061361 1.607023
C 1.496394 -3.237087 1.463846
C 1.410318 -3.431889 1.346208
C 1.184558 -3.540780 1.071158
C 0.720606 -3.659971 0.823376
C 0.239021 -3.762342 0.434343
C -0.182525 -3.976263 0.132395
C -0.618034 -3.992224 -0.241103
C -1.036149 -3.909795 -0.513368
C -1.476504 -3.918600 -0.870211
C -1.769554 -3.945689 -1.022746
C -1.666969 -3.940615 -1.128880
C -1.619685 -3.898168 -1.239711
C -1.530543 -3.877012 -1.340789
C -1.403095 -3.912741 -1.429466
C -1.265936 -3.886472 -1.493310
C -1.061817 -3.942183 -1.444459
C -0.924507 -3.944211 -1.501664
C -0.853453 -3.980094 -1.509850
C -0.703620 -4.062268 -1.433902
C -0.682534 -4.033234 -1.508530
C -0.829622 -3.948864 -1.684594
C -0.853154 -3.925517 -1.783320
C -0.946399 -3.844110 -1.900531
C -0.964148 -3.705090 -1.981469
C -1.026595 -3.570273 -2.162707
C -1.147633 -3.457505 -2.453859
C -1.020885 -3.475878 -2.422122
C -0.778201 -3.586356 -2.205095
C -0.550961 -3.621478 -2.078946
C -0.497969 -3.511785 -2.291796
C -0.206768 -3.638669 -2.084019
C 0.039888 -3.643585 -1.913659
C 0.359284 -3.696478 -1.568836
C 0.703992 -3.561780 -1.195928
C 1.026833 -3.296469 -0.847333
C 1.440734 -2.950507 -0.441110
C 2.156550 -2.758138 0.302358
C 2.531227 -2.415377 0.648920
C 2.893119 -2.134844 1.060449
C 3.227888 -1.790038 1.275880
C 3.374790 -1.568864 1.365821
C 3.514891 -1.412995 1.382732
C 3.591059 -1.360798 1.413295
C 3.611374 -1.325759 1.371536
C 3.664940 -1.339171 1.375308
C 3.700254 -1.429031 1.323416
C 3.638527 -1.541090 1.363464
C 3.592487 -1.712044 1.252336
C 3.366433 -1.985176 1.055084
C 3.118746 -2.294830 0.798923
C 2.876827 -2.632278 0.568912
C 2.648496 -2.836161 0.267908
C 2.423200 -2.973368 -0.031330
C 2.284618 -3.144753 -0.382741
C 2.284684 -3.255191 -0.532458
C 2.397669 -3.193879 -0.471719
C 2.546219 -3.121257 -0.370934
C 2.590716 -2.987104 -0.244658
C 2.524088 -3.049569 -0.425449
C 2.446323 -3.076033 -0.667725
C 2.348362 -3.069581 -0.771820
C 2.014516 -3.087125 -1.024608
C 1.658569 -3.120592 -1.527140
C 1.301191 -3.159777 -2.011357
C 0.992388 -3.190712 -2.594585
C 0.815442 -3.137468 -2.727839
C 0.692483 -3.107440 -2.748334
C 0.580847 -3.028541 -2.880485
C 0.579108 -2.960091 -2.945479
C 0.717421 -2.943186 -2.922162
C 0.856067 -2.938247 -2.896294
C 0.952766 -2.936181 -2.705858
C 1.176518 -2.851123 -2.699787
C 1.390148 -2.834878 -2.672948
C 1.588775 -2.816031 -2.545863
C 1.838099 -2.817899 -2.374320
C 2.032912 -2.841220 -2.166784
C 2.282807 -2.779757 -2.063312
C 2.542558 -2.715818 -1.986721
C 2.659204 -2.686121 -1.844760
C 2.804834 -2.631570 -1.628687
C 2.802832 -2.566883 -1.601906
C 2.717644 -2.518574 -1.658657
C 2.846937 -2.395443 -1.557342
C 2.902132 -2.343217 -1.331125
C 2.921443 -2.294361 -1.144687
C 2.965662 -2.189674 -1.106810
C 3.102715 -2.001025 -1.260851
C 3.325694 -1.801266 -1.210668
C 3.646214 -1.585025 -1.138295
C 3.693551 -1.445035 -1.107434
C 3.713288 -1.258005 -1.186946
C 3.727073 -1.200391 -1.187263
C 3.577263 -1.164447 -1.090945
C 3.342280 -1.186526 -0.961410
C 3.268166 -1.259202 -1.006534
C 3.052633 -1.339953 -1.086101
C 2.894390 -1.443938 -1.140645
C 2.817491 -1.531757 -1.214021
C 2.736421 -1.530522 -1.330897
C 2.890887 -1.522472 -1.331487
C 3.056697 -1.454515 -1.235934
C 3.124627 -1.442361 -0.979625
C 3.180935 -1.393586 -0.801946
C 3.101376 -1.311364 -0.777821
C 3.018363 -1.335734 -1.011141
C 2.889074 -1.378750 -1.350272
C 2.553435 -1.434827 -1.767589
C 2.207533 -1.580187 -2.271977
C 1.807951 -1.632769 -2.896765
C 1.512946 -1.655033 -3.439292
C 1.383512 -1.703684 -3.881594
C 1.147790 -1.728515 -3.892027
C 1.058775 -1.633595 -3.915473
C 1.026960 -1.664334 -3.889679
C 1.100871 -1.618687 -3.768126
C 1.210076 -1.572060 -3.674625
C 1.358626 -1.525672 -3.552070
C 1.576218 -1.119216 -3.620986
C 1.847918 -0.807137 -3.756014
C 1.989388 -0.818157 -3.565492
C 2.199619 -0.693061 -3.420259
C 2.400011 -0.583980 -3.438618
C 2.550792 -0.506642 -3.283387
C 2.662425 -0.447675 -3.119614
C 2.689929 -0.750184 -2.809481
C 2.514010 -0.915221 -2.677115
C 2.311934 -0.915839 -2.758067
C 2.279535 -0.815050 -3.005567
C 2.171548 -0.760921 -3.069942
C 2.090457 -0.758866 -3.159410
C 1.947227 -0.761448 -3.309510
C 1.714103 -0.728502 -3.529171
