268
chr10 3D structure from Hi-C (resolution 500000bp)
C -0.069165 2.912533 1.118144
C -0.269041 2.905352 0.870475
C -0.389620 2.965281 0.772115
C -0.297669 3.032805 0.778156
C -0.220588 3.009131 0.691252
C -0.166910 3.058367 0.545020
C -0.193014 3.117464 0.431167
C -0.181558 3.165147 0.432746
C 0.115543 3.147785 0.561370
C 0.413887 3.118416 0.632402
C 0.459645 3.080928 0.579058
C 0.523026 3.019367 0.489317
C 0.615538 3.028530 0.434752
C 0.637681 3.017911 0.378188
C 0.578512 3.133396 0.306928
C 0.346362 3.325356 0.178414
C 0.015291 3.372493 -0.079797
C -0.239698 3.404643 -0.273884
C -0.480658 3.503274 -0.415934
C -0.471010 3.400970 -0.458295
C -0.186426 3.317766 -0.355518
C 0.243414 3.100736 -0.178349
C 0.557607 2.892321 -0.028825
C 0.990926 2.777663 0.220774
C 1.467290 2.648120 0.433764
C 1.776385 2.486608 0.549246
C 1.925739 2.427929 0.603748
C 1.828941 2.463354 0.495185
C 1.480984 2.584711 0.192152
C 1.178711 2.723372 -0.118941
C 0.967230 2.805415 -0.375454
C 0.695372 2.845554 -0.611934
C 0.624112 2.969797 -0.808412
C 0.410954 3.079257 -1.034365
C 0.214532 3.122044 -1.284297
C 0.144952 3.097517 -1.439350
C 0.109822 3.006314 -1.552943
C -0.026669 2.923799 -1.685284
C -0.103490 2.976466 -1.829319
C -0.133530 2.928845 -1.930691
C 0.076393 2.924823 -1.930080
C 0.309287 2.892942 -1.916284
C 0.612141 2.834396 -1.774188
C 0.880500 2.772490 -1.786760
C 0.974547 2.810373 -1.953423
C 1.094210 2.723026 -1.980524
C 1.178498 2.620122 -1.940115
C 0.960575 2.539658 -2.130371
C 0.800762 2.409578 -2.181097
C 0.827530 2.345293 -2.234919
C 0.981983 2.238231 -2.074219
C 1.285612 2.086033 -1.805643
C 1.322268 1.991384 -1.823817
C 1.239699 1.958791 -1.926693
C 1.268453 1.864825 -1.852695
C 1.231526 1.846783 -1.758487
C 1.095450 1.785927 -1.710029
C 1.091341 1.805936 -1.698407
C 1.052764 1.773303 -1.622684
C 1.373058 1.777965 -1.380231
C 1.640022 1.767395 -1.222863
C 1.842239 1.707777 -1.175849
C 1.872616 1.669575 -1.348125
C 1.730930 1.723568 -1.508574
C 1.359036 1.726796 -1.798324
C 0.964596 1.780664 -2.020020
C 0.687252 1.713614 -2.191372
C 0.565648 1.707098 -2.417764
C 0.096653 1.764112 -2.604658
C -0.152169 1.817530 -2.559477
C -0.305377 1.797425 -2.625951
C -0.600247 1.849939 -2.633797
C -0.712104 1.883651 -2.674079
C -1.114434 1.955311 -2.787330
C -1.798430 2.017449 -2.776908
C -2.070928 2.085630 -2.708104
C -2.482735 2.207027 -2.505504
C -2.552658 2.478138 -1.584351
C -2.491232 2.680052 -0.668728
C -2.748536 2.892154 0.000086
C -3.056549 2.773788 -0.020161
C -3.037122 2.602099 -0.079580
C -2.839321 2.403857 -0.017001
C -2.100664 2.058106 -0.175035
C -1.693826 1.556153 -1.078352
C -1.403183 1.113267 -1.758006
C -0.794280 0.633819 -2.237714
C 0.225500 0.437094 -2.118611
C 1.129326 0.305207 -1.873202
C 1.788207 0.166494 -1.701055
C 2.264652 -0.078566 -1.697849
C 2.423419 -0.176803 -1.444120
C 3.178090 -0.277878 -1.358412
C 3.521063 -0.356731 -1.239731
C 3.356980 -0.371768 -0.977679
C 3.201404 -0.428494 -0.862387
C 3.142451 -0.517989 -0.864382
C 2.915540 -0.440063 -0.752708
C 2.890430 -0.503958 -0.932126
C 2.009614 -0.576189 -1.283241
C 1.603037 -0.644464 -1.594307
C 1.255967 -0.709579 -1.968532
C 0.884883 -0.754372 -2.261847
C 0.511953 -0.751296 -2.561645
C 0.111546 -0.803792 -2.893555
C -0.230094 -0.757503 -2.956482
C -0.241780 -0.766303 -2.891049
C -0.441844 -0.789396 -2.962043
C -0.504558 -0.853935 -3.023459
C -0.473663 -0.904202 -3.045351
C -0.558262 -0.941768 -2.958970
C -0.661883 -0.906681 -2.806328
C -0.627891 -0.978366 -2.766716
C -0.301951 -1.121312 -2.774893
C -0.064043 -1.200164 -2.632573
C 0.204088 -1.283868 -2.487835
C 0.344616 -1.346384 -2.348255
C 0.547346 -1.507903 -2.334661
C 0.791070 -1.677681 -2.342080
C 0.924681 -1.847644 -2.407826
C 0.911905 -1.922690 -2.257043
C 1.005067 -1.999578 -2.124425
C 1.143390 -2.014464 -1.992645
C 1.271278 -2.052057 -1.894754
C 1.266162 -1.974017 -1.735084
C 1.031208 -2.000477 -1.748343
C 0.884715 -1.994409 -1.742901
C 0.625646 -2.036118 -1.870052
C 0.463250 -2.044912 -2.024748
C 0.063817 -1.969321 -2.132686
C -0.275520 -1.991311 -2.213436
C -0.427807 -2.140696 -2.408515
C -0.036165 -2.196570 -2.267593
C 0.385099 -2.164507 -1.934055
C 0.839317 -1.925446 -1.438309
C 1.239583 -1.716093 -0.922138
C 1.530426 -1.562395 -0.474158
C 1.998615 -1.319555 0.001726
C 2.318368 -0.976678 0.610068
C 2.381474 -0.628603 1.103124
C 2.338083 -0.330651 1.464033
C 2.396805 -0.230771 1.653137
C 2.417414 -0.043830 1.843992
C 2.657995 0.104551 2.102851
C 2.745590 0.132321 2.189865
C 2.974900 0.151088 2.217983
C 3.125960 0.099728 2.259856
C 3.052732 -0.039107 2.162355
C 2.353414 -0.201814 1.720630
C 1.579758 -0.544012 1.140704
C 0.965176 -0.852944 0.591132
C 0.485850 -1.051595 0.310929
C 0.164663 -1.503019 0.028784
C -0.267588 -1.737012 -0.182432
C -0.432869 -1.885149 -0.284846
C -0.013837 -1.893178 -0.009217
C 0.424710 -2.020742 0.165720
C 0.677646 -2.024224 0.328491
C 0.621176 -2.141599 0.185272
C 0.293666 -2.001994 0.048684
C -0.028996 -1.983033 -0.269742
C -0.297457 -2.054712 -0.494549
C -0.592226 -2.282026 -0.790001
C -0.872484 -2.267929 -0.938983
C -0.985394 -2.457519 -1.074568
C -0.923871 -2.492867 -1.000913
C -0.859684 -2.653477 -0.946456
C -0.683529 -2.622600 -0.721163
C -0.562549 -2.690267 -0.557129
C -0.350546 -2.756843 -0.323847
C 0.048523 -2.740774 -0.003371
C 0.478822 -2.762053 0.331711
C 0.732965 -2.712874 0.597445
C 1.221610 -2.551296 0.899031
C 1.626478 -2.611578 1.074950
C 1.938755 -2.500097 1.294682
C 2.099633 -2.343089 1.395631
C 2.035248 -2.431316 1.357761
C 1.779919 -2.478313 1.282999
C 1.812455 -2.556509 1.206621
C 1.594464 -2.584717 1.245494
C 1.604318 -2.525261 1.370233
C 1.590443 -2.436295 1.493154
C 1.456455 -2.365927 1.559438
C 1.376526 -2.261059 1.709835
C 1.294751 -2.182790 1.809615
C 0.978734 -2.038335 1.854085
C 0.811569 -1.904388 1.820756
C 0.631174 -1.855749 1.823919
C 0.562732 -1.858395 1.825849
C 0.693103 -1.771666 2.011684
C 0.807687 -1.572096 2.172049
C 0.867021 -1.331848 2.316060
C 0.892675 -1.229295 2.453277
C 0.822926 -1.254127 2.663551
C 0.607141 -1.264355 2.696709
C 0.509743 -1.137221 2.777227
C 0.486990 -1.013606 2.845390
C 0.444418 -0.926024 2.931193
C 0.481207 -0.836097 3.002132
C 0.682150 -0.646971 3.209041
C 0.936132 -0.336122 3.352399
C 1.210950 -0.050078 3.523732
C 1.302082 0.050530 3.515712
C 1.157580 -0.003206 3.504195
C 0.885031 -0.215865 3.410132
C 0.483133 -0.360109 3.114564
C -0.148641 -0.707759 2.563450
C -0.720725 -0.999187 1.992403
C -1.279432 -1.366132 1.466975
C -1.760475 -1.676473 1.086755
C -2.048350 -1.919163 0.655370
C -2.138348 -2.015898 0.304576
C -2.140057 -2.200218 0.176467
C -2.008696 -2.222856 0.205647
C -2.086151 -2.276897 0.198138
C -2.025295 -2.259087 0.319332
C -1.780687 -2.263389 0.548196
C -1.705372 -2.314207 0.807232
C -1.762029 -2.321911 0.881278
C -1.983222 -2.208730 0.924855
C -1.953295 -2.141683 1.111385
C -1.810447 -2.180231 1.318429
C -1.845466 -2.142460 1.444111
C -1.961929 -2.099473 1.421122
C -2.029963 -2.053591 1.358114
C -1.992198 -2.027914 1.422855
C -1.901650 -2.013543 1.447319
C -2.082710 -1.979189 1.240303
C -2.179059 -1.896492 1.118560
C -2.237993 -1.858768 1.098888
C -2.284577 -1.763765 1.109663
C -2.277143 -1.612548 1.204525
C -2.305743 -1.463439 1.355511
C -2.135089 -1.261287 1.653169
C -1.760362 -1.001675 2.153941
C -1.453282 -0.822699 2.516425
C -1.325795 -0.654074 2.692453
C -1.363054 -0.602407 2.707160
C -1.447576 -0.492130 2.704039
C -1.459869 -0.415216 2.689361
C -1.457554 -0.399304 2.603679
C -1.638601 -0.418639 2.551316
C -1.651122 -0.388246 2.517016
C -1.552022 -0.339214 2.537914
C -1.459686 -0.156645 2.722286
C -1.262099 -0.086909 2.785012
C -1.302433 -0.003462 2.746228
C -1.382983 0.056680 2.738171
C -1.552171 0.010171 2.426960
C -1.981405 -0.033683 2.129340
C -2.356664 -0.029274 1.804880
C -2.601635 -0.170606 1.456491
C -2.888081 -0.199259 1.252969
C -3.066287 -0.182726 1.091179
C -3.256528 -0.180530 0.953499
C -3.341493 -0.079081 1.011452
C -3.213321 -0.017067 1.054080
C -3.192075 -0.033380 1.101875
C -3.298640 0.099138 1.082393
C -3.352769 0.237901 1.075131
C -3.200691 0.291499 1.205871
C -3.137335 0.433530 1.356929
C -3.033216 0.543061 1.491262
C -3.124547 0.719599 1.640545
C -3.040797 0.851208 1.779517
C -2.915279 0.940048 1.983753
C -2.854126 0.999004 2.136689
