268
chr10 3D structure from Hi-C (resolution 500000bp)
C 0.699874 3.018915 1.247360
C 0.420761 3.009873 1.089489
C 0.335624 3.091787 0.992482
C 0.392335 3.136965 0.987965
C 0.480276 3.093625 0.829471
C 0.465492 3.120687 0.691509
C 0.411747 3.192429 0.616519
C 0.396818 3.280096 0.560411
C 0.727641 3.231544 0.542469
C 1.025898 3.112366 0.516867
C 1.108623 3.102321 0.367236
C 1.113228 3.043968 0.247250
C 1.172012 3.057086 0.146758
C 1.128201 3.033799 -0.003364
C 1.060445 3.167282 -0.075508
C 0.776730 3.401421 -0.099807
C 0.369768 3.558917 -0.246392
C 0.096989 3.660298 -0.306235
C -0.098294 3.755974 -0.340998
C -0.103707 3.651261 -0.397443
C 0.228099 3.555106 -0.370062
C 0.666184 3.277765 -0.319750
C 1.066745 2.977658 -0.335461
C 1.547112 2.786576 -0.224065
C 1.949578 2.539792 -0.122378
C 2.126646 2.390800 -0.047906
C 2.284760 2.269148 -0.041796
C 2.209737 2.257635 -0.134609
C 1.907012 2.422698 -0.311844
C 1.636624 2.677649 -0.528836
C 1.397158 2.776842 -0.736345
C 1.108243 2.879691 -0.936917
C 0.976497 3.013698 -1.185045
C 0.673134 3.153174 -1.383231
C 0.373006 3.285705 -1.548068
C 0.115392 3.271677 -1.619591
C -0.086011 3.153998 -1.685269
C -0.327633 3.112689 -1.725653
C -0.504729 3.116588 -1.834913
C -0.513722 3.021917 -1.922275
C -0.222745 2.992025 -1.901884
C 0.014062 2.872071 -2.016479
C 0.366870 2.725340 -2.086016
C 0.571452 2.661714 -2.183554
C 0.634756 2.665597 -2.452919
C 0.911019 2.584027 -2.558961
C 0.979821 2.531162 -2.501979
C 0.565914 2.523958 -2.649422
C 0.348344 2.476574 -2.603673
C 0.302237 2.438527 -2.599841
C 0.449082 2.280487 -2.541444
C 0.773502 2.154174 -2.272254
C 0.622556 2.060350 -2.153503
C 0.551704 2.003720 -2.194692
C 0.602103 1.911680 -1.993363
C 0.603476 1.899039 -1.825258
C 0.481043 1.905517 -1.674638
C 0.576837 1.941192 -1.586003
C 0.601359 1.832317 -1.589350
C 1.023003 1.792370 -1.610106
C 1.305646 1.716262 -1.633196
C 1.620509 1.673827 -1.707211
C 1.610267 1.591738 -1.910194
C 1.438681 1.606849 -2.090532
C 0.861329 1.709705 -2.057456
C 0.462994 1.817200 -2.231181
C 0.093358 1.818225 -2.224004
C -0.452258 1.968349 -2.236064
C -1.002872 2.029651 -2.321489
C -1.238001 2.113302 -2.221029
C -1.420085 2.153788 -2.156491
C -1.654457 2.145353 -2.259880
C -1.904564 2.205928 -2.097546
C -2.304422 2.303337 -2.005174
C -2.520462 2.361354 -1.876202
C -2.768394 2.422026 -1.697025
C -3.064864 2.624694 -1.215629
C -2.664402 2.840454 -0.340878
C -2.150540 3.028108 0.556823
C -1.995833 3.266735 1.332361
C -2.267691 3.276725 1.460801
C -2.361692 3.069466 1.423205
C -2.173302 2.830098 1.339794
C -1.840929 2.471825 0.981622
C -2.154846 2.052853 0.121744
C -2.256504 1.581845 -0.672720
C -2.081463 1.047991 -1.418665
C -1.146145 0.651628 -1.845522
C -0.182312 0.406452 -1.881484
C 0.477008 0.201646 -2.009655
C 1.163430 -0.201952 -2.386056
C 1.661625 -0.393249 -2.414495
C 2.367207 -0.603193 -2.695129
C 2.762858 -0.738130 -2.744714
C 2.736054 -0.750161 -2.403398
C 2.598110 -0.783760 -2.342263
C 2.507797 -0.853588 -2.276282
C 2.288217 -0.750972 -2.054939
C 2.109941 -0.776577 -2.214368
C 1.400842 -0.749824 -2.218717
C 0.982175 -0.794055 -2.320276
C 0.578231 -0.809157 -2.570649
C 0.130179 -0.792113 -2.740974
C -0.323314 -0.725229 -2.806821
C -0.804764 -0.668877 -2.938414
C -1.157128 -0.651228 -2.842815
C -1.311833 -0.652983 -2.724427
C -1.445222 -0.625069 -2.811435
C -1.462386 -0.685082 -2.860913
C -1.463571 -0.758967 -2.842416
C -1.447715 -0.793915 -2.753101
C -1.404085 -0.886830 -2.652381
C -1.272469 -0.954694 -2.605553
C -1.090305 -1.040440 -2.707329
C -0.986189 -1.148228 -2.561248
C -0.832064 -1.241884 -2.449708
C -0.685364 -1.290668 -2.366584
C -0.506393 -1.481556 -2.478314
C -0.392589 -1.625240 -2.519495
C -0.434817 -1.789837 -2.702761
C -0.358767 -1.888379 -2.536151
C -0.219685 -1.926865 -2.471462
C -0.091351 -2.039880 -2.431692
C 0.072576 -2.116763 -2.380393
C 0.039967 -2.041364 -2.178760
C -0.250192 -1.920875 -2.099287
C -0.432025 -1.829404 -1.924969
C -0.785377 -1.811032 -1.968669
C -1.157387 -1.725317 -1.961641
C -1.594605 -1.552519 -1.913696
C -1.997755 -1.479060 -1.869833
C -2.254403 -1.555760 -1.974095
C -1.761036 -1.769045 -2.033540
C -1.118257 -1.829745 -1.891091
C -0.468728 -1.717874 -1.582532
C 0.290749 -1.681237 -1.369936
C 0.911928 -1.575160 -1.030390
C 1.620797 -1.393766 -0.718136
C 2.321974 -1.181277 -0.285598
C 2.614706 -0.782313 0.238894
C 2.810834 -0.589127 0.512843
C 3.030665 -0.497383 0.640107
C 3.213191 -0.415527 0.752820
C 3.516065 -0.400722 0.823680
C 3.617368 -0.470448 0.763029
C 3.804023 -0.541031 0.656602
C 3.943476 -0.733158 0.423420
C 3.841133 -0.882773 0.265238
C 3.286671 -1.235807 0.060890
C 2.553786 -1.667886 -0.117364
C 1.926995 -1.941364 -0.370280
C 1.440417 -2.145446 -0.435779
C 1.078557 -2.469309 -0.549999
C 0.654975 -2.619201 -0.439116
C 0.371431 -2.653175 -0.378582
C 0.522542 -2.517049 -0.210904
C 0.700582 -2.510014 -0.188813
C 0.710507 -2.412484 -0.085312
C 0.460243 -2.479162 -0.160493
C -0.004766 -2.341798 -0.166650
C -0.436018 -2.353077 -0.311887
C -0.800538 -2.423314 -0.413696
C -1.182688 -2.534164 -0.577734
C -1.460567 -2.435471 -0.595550
C -1.626494 -2.581524 -0.677239
C -1.576500 -2.537697 -0.558008
C -1.527831 -2.661205 -0.471231
C -1.377263 -2.539641 -0.335110
C -1.160813 -2.630849 -0.217656
C -0.914778 -2.704514 -0.026370
C -0.445687 -2.703547 0.153992
C 0.139084 -2.828367 0.256603
C 0.589119 -2.810045 0.326082
C 1.191672 -2.718715 0.484437
C 1.738109 -2.744346 0.575113
C 2.125833 -2.669644 0.634999
C 2.335998 -2.591827 0.658398
C 2.245123 -2.657524 0.684796
C 2.009926 -2.625843 0.777272
C 1.974166 -2.740206 0.875563
C 1.801455 -2.740975 0.895237
C 1.795011 -2.727121 0.991448
C 1.824681 -2.689370 1.132649
C 1.822827 -2.470465 1.212253
C 1.812155 -2.344902 1.366245
C 1.768735 -2.260952 1.494457
C 1.524336 -2.133728 1.534907
C 1.369419 -2.045775 1.557619
C 1.214422 -2.054820 1.578811
C 1.147333 -2.002585 1.662463
C 1.311107 -2.024330 1.791174
C 1.487684 -1.846457 1.861062
C 1.549720 -1.645435 1.952491
C 1.635980 -1.531768 2.047023
C 1.656823 -1.524057 2.261539
C 1.513366 -1.446749 2.359966
C 1.528469 -1.278722 2.397321
C 1.489667 -1.101526 2.498543
C 1.447308 -0.987768 2.596945
C 1.538493 -0.848241 2.645691
C 1.760848 -0.700418 2.809448
C 2.102520 -0.409007 2.873076
C 2.420653 -0.297834 2.964667
C 2.469652 -0.248456 2.985494
C 2.334035 -0.366728 2.980184
C 2.049108 -0.591881 2.987273
C 1.514922 -0.717979 2.814131
C 0.718548 -0.945439 2.499346
C -0.101094 -1.207979 2.133579
C -0.919298 -1.435040 1.844897
C -1.572063 -1.712569 1.666197
C -2.029065 -1.890619 1.395769
C -2.340741 -1.902856 1.059904
C -2.438845 -2.007864 0.953365
C -2.345461 -1.989465 0.937888
C -2.429071 -2.006379 0.953131
C -2.239531 -1.994943 1.033632
C -1.966176 -1.990454 1.158511
C -1.801659 -2.059173 1.378451
C -1.797375 -2.106043 1.564507
C -1.877741 -2.089345 1.740960
C -1.722144 -2.139054 1.887834
C -1.500445 -2.119705 2.102362
C -1.541598 -2.070544 2.234482
C -1.639210 -1.973413 2.209328
C -1.708685 -1.931419 2.177284
C -1.599321 -1.955907 2.162431
C -1.610451 -1.864972 1.997188
C -1.866763 -1.744212 1.896921
C -2.037189 -1.665121 1.724045
C -2.132777 -1.555645 1.638342
C -2.211517 -1.515928 1.689542
C -2.202989 -1.312680 1.767727
C -2.177001 -1.145716 1.935736
C -1.809876 -0.985137 2.300313
C -1.260275 -0.830471 2.624219
C -0.792171 -0.711373 2.911257
C -0.566213 -0.638311 3.131990
C -0.475628 -0.515767 3.229048
C -0.498944 -0.432819 3.235353
C -0.420051 -0.371317 3.186080
C -0.452465 -0.380716 3.096257
C -0.628898 -0.349104 3.067050
C -0.610585 -0.339987 3.006155
C -0.459684 -0.305790 2.956822
C -0.286862 -0.201810 3.048164
C -0.070343 -0.153032 3.053691
C -0.188564 -0.043965 3.070843
C -0.331751 -0.040003 3.066917
C -0.613601 -0.042102 2.862134
C -1.144789 0.054986 2.771102
C -1.664364 0.119089 2.648619
C -2.097144 0.108268 2.374888
C -2.421692 0.126671 2.317940
C -2.602723 0.132584 2.240704
C -2.800463 0.171616 2.182559
C -2.818685 0.231368 2.271178
C -2.682125 0.213474 2.290912
C -2.650080 0.299903 2.295499
C -2.773708 0.379115 2.308692
C -2.837677 0.513166 2.295992
C -2.630668 0.578277 2.366216
C -2.420454 0.763921 2.508966
C -2.354237 0.871133 2.610344
C -2.378069 1.068943 2.776644
C -2.211193 1.112630 2.889862
C -1.942998 1.186316 3.095074
C -1.815631 1.236970 3.249989
