397
chr3 3D structure from Hi-C (resolution 500000bp)
C -3.560745 -1.520535 -1.097350
C -3.546058 -1.599765 -1.083855
C -3.510070 -1.711529 -0.971636
C -3.521358 -1.777213 -0.856936
C -3.633786 -1.912176 -0.879219
C -3.502571 -1.928221 -0.539597
C -3.301344 -2.056352 -0.169258
C -3.201016 -2.208243 0.169726
C -3.249409 -2.325334 0.313814
C -3.279705 -2.387883 0.464990
C -3.252912 -2.398566 0.516897
C -3.313242 -2.447007 0.583166
C -3.455743 -2.424609 0.457873
C -3.646902 -2.361311 0.367051
C -3.530891 -2.241390 0.460226
C -3.328584 -2.133290 0.809488
C -3.004684 -2.004453 1.198351
C -2.655498 -1.897590 1.669515
C -2.408842 -1.820234 2.128866
C -2.158376 -1.836344 2.615499
C -1.872705 -1.821009 2.985648
C -1.842561 -1.823854 3.170481
C -1.648668 -1.788191 3.352959
C -1.704404 -1.821832 3.414170
C -1.865424 -1.821289 3.423036
C -1.794504 -1.809848 3.426720
C -1.691488 -1.726562 3.419876
C -1.696344 -1.781057 3.437984
C -1.780881 -1.980748 3.410994
C -1.894508 -1.941161 3.197572
C -2.113221 -1.941974 2.963981
C -2.232782 -1.979891 2.681841
C -2.401910 -1.969178 2.385495
C -2.723685 -1.903173 1.983922
C -2.997706 -1.758020 1.510183
C -3.253998 -1.572649 0.925530
C -3.623978 -1.607965 0.684842
C -3.742244 -1.545051 0.491876
C -3.941113 -1.409354 0.185541
C -4.155860 -1.280326 -0.118672
C -4.225591 -1.230814 -0.306488
C -4.305068 -1.111144 -0.402502
C -4.291472 -0.989459 -0.387109
C -4.126372 -0.894551 -0.355898
C -3.895850 -0.806700 -0.282332
C -3.830596 -0.791473 -0.228838
C -3.770054 -0.680019 -0.161501
C -3.689407 -0.557322 -0.069663
C -3.681058 -0.572159 0.119740
C -3.730699 -0.486629 0.128590
C -3.859936 -0.296688 -0.082018
C -4.116585 -0.198362 -0.225890
C -4.079158 -0.135750 -0.076355
C -4.094164 -0.198696 0.015905
C -4.171210 -0.173886 0.029804
C -4.116660 -0.083147 -0.026279
C -4.144538 -0.037896 0.063206
C -4.213825 -0.004726 0.189352
C -4.174926 0.065879 0.281936
C -4.268278 -0.049079 0.405020
C -4.229227 -0.039705 0.623754
C -3.962983 -0.143259 0.948785
C -3.808811 -0.224878 1.249517
C -3.456266 -0.274706 1.625467
C -3.322847 -0.341191 1.923684
C -3.348811 -0.285349 1.997311
C -3.279861 0.001768 1.825718
C -3.380958 0.247440 1.601708
C -3.638670 0.463338 1.356219
C -3.842632 0.679319 1.131785
C -3.957906 0.776516 1.022906
C -3.878108 0.764647 1.133328
C -3.659945 0.793060 1.341982
C -3.405074 0.651520 1.766728
C -3.144540 0.479369 2.226354
C -2.753583 0.319901 2.655149
C -2.527745 0.278936 2.996078
C -2.393721 0.282784 3.231336
C -2.376291 0.409129 3.299007
C -2.296688 0.438261 3.311494
C -2.368772 0.515822 3.356903
C -2.170727 0.520198 3.363623
C -2.051453 0.594541 3.438473
C -1.782246 0.534928 3.493038
C -1.552729 0.473689 3.626738
C -1.238714 0.383805 3.775736
C -1.074914 0.190390 4.058228
C -0.772295 0.125862 4.155799
C -0.556472 0.095199 4.303129
C -0.397124 0.045664 4.364134
C -0.275883 -0.043181 4.504520
C -0.038696 -0.114296 4.633535
C 0.230435 -0.246739 4.734440
C 0.478931 -0.326814 4.801235
C 0.611890 -0.587475 4.943327
C 0.660065 -0.899953 5.041721
C 0.769672 -1.143535 5.183898
C 0.877227 -0.900218 5.277924
C 0.799488 -0.430246 5.185149
C 0.559180 -0.026289 5.087092
C 0.415935 0.325269 5.024762
C 0.439718 0.737511 4.995817
C 0.430973 1.339372 4.965811
C 0.286516 1.897519 4.847192
C 0.042513 1.879796 4.595731
C -0.216745 1.740451 4.435987
C -0.355889 1.735152 4.229754
C -0.569087 1.872569 3.963331
C -0.829603 1.948490 3.603659
C -1.055675 1.981195 3.294218
C -1.135541 1.906268 3.145670
C -1.066353 1.984051 3.147042
C -0.868316 1.923300 3.207536
C -0.703205 1.831279 3.198098
C -0.600380 1.927225 3.188879
C -0.565689 2.110243 3.176106
C -0.590331 2.103999 3.060210
C -0.774271 2.149225 2.807125
C -0.924761 2.239286 2.578869
C -1.151857 2.293476 2.318154
C -1.375106 2.378903 2.141487
C -1.600411 2.311351 1.948162
C -1.839059 2.366436 1.762298
C -1.945978 2.617510 1.668372
C -2.005920 2.747357 1.675348
C -2.092842 2.675061 1.557676
C -2.284466 2.789095 1.388670
C -2.417624 2.898026 1.207668
C -2.448650 2.909569 1.129369
C -2.387496 2.825393 1.141150
C -2.344429 2.724788 1.168191
C -2.277541 2.701866 1.114874
C -2.266492 2.791392 1.125075
C -2.221129 2.856262 1.165400
C -2.183856 2.846195 1.188803
C -1.959642 2.816764 1.170828
C -1.965715 2.927836 1.055461
C -2.009421 3.043107 0.903025
C -2.147704 3.174758 0.760781
C -2.119873 3.280650 0.737624
C -1.896943 3.237679 0.779251
C -1.598624 3.200984 0.944479
C -1.583585 3.328421 1.073457
C -1.501119 3.182762 1.055691
C -1.549470 3.070145 0.980382
C -1.514733 3.031542 0.819045
C -1.686706 3.184608 0.603959
C -1.855373 3.304305 0.386029
C -2.056553 3.546568 0.111195
C -2.232563 3.642465 -0.257984
C -2.392974 3.708340 -0.472014
C -2.449512 3.663318 -0.635329
C -2.537860 3.666712 -0.741547
C -2.552149 3.480603 -0.826378
C -2.625050 3.317368 -0.969902
C -2.668092 3.235865 -1.183064
C -2.809800 3.071283 -1.363708
C -2.777705 3.014706 -1.473542
C -2.833428 2.963213 -1.628823
C -2.837661 2.771892 -1.690214
C -2.583730 2.712625 -1.540708
C -2.453076 2.937815 -1.608226
C -2.418747 2.906219 -1.727322
C -2.451712 2.752590 -1.914031
C -2.539282 2.666511 -2.105379
C -2.445126 2.699811 -2.136963
C -2.372520 2.708400 -2.209302
C -2.641581 2.640272 -2.655555
C -2.706701 2.472151 -2.704915
C -2.731228 2.454821 -2.787119
C -2.563285 2.626927 -2.799807
C -2.353391 2.667940 -2.633797
C -2.184865 2.767808 -2.516436
C -1.998648 2.816943 -2.351133
C -1.901408 2.858030 -2.430667
C -1.747677 2.864260 -2.534547
C -1.695870 2.767854 -2.634913
C -1.698050 2.572239 -2.802353
C -1.851413 2.364290 -3.313990
C -2.091898 1.962512 -3.824225
C -2.440447 1.291534 -4.321035
C -2.623218 0.580475 -4.440178
C -2.946571 -0.094338 -4.748113
C -3.149171 -0.619413 -4.983471
C -2.894424 -0.478232 -5.022970
C -2.444105 -0.140613 -4.506740
C -1.922773 0.327532 -4.093847
C -1.201048 1.298481 -3.553043
C -0.617191 2.067825 -3.262308
C -0.050631 2.735017 -2.974422
C 0.492379 3.386925 -2.782064
C 0.770515 3.664656 -2.434796
C 0.919013 3.785088 -2.305035
C 1.058757 3.761658 -2.100312
C 1.112095 3.605168 -2.046584
C 1.263704 3.656671 -1.900823
C 1.419174 3.666246 -1.595857
C 1.647474 3.640520 -1.008593
C 1.710968 3.391855 -0.797509
C 1.736259 3.393847 -0.852977
C 1.860551 3.373773 -0.726064
C 1.855232 3.260129 -1.012479
C 1.872729 3.207568 -1.165116
C 1.837983 3.281059 -1.475996
C 1.781586 3.305466 -1.927557
C 1.718088 3.362103 -2.154273
C 1.652967 3.227585 -2.279971
C 1.546840 3.184587 -2.616240
C 1.719392 3.281060 -2.465455
C 1.869341 3.362543 -2.171184
C 2.012996 3.401719 -2.016154
C 2.089838 3.354793 -1.939659
C 2.315427 3.361017 -1.738637
C 2.424660 3.164057 -1.547366
C 2.414230 2.985344 -1.505050
C 2.154627 2.807139 -1.642389
C 1.979113 2.686103 -2.123635
C 1.792539 2.464574 -2.399313
C 1.715155 2.334163 -2.576892
C 1.569025 2.163957 -2.894840
C 1.577800 2.187632 -3.022395
C 1.746872 2.287439 -2.671003
C 1.970094 2.330751 -2.165426
C 2.087512 2.195716 -1.546538
C 2.360947 2.206393 -0.843530
C 2.489937 2.205241 -0.284459
C 2.702607 2.119461 -0.039302
C 2.913871 2.212588 0.032520
C 2.921670 2.090726 -0.207997
C 2.920408 1.996153 -0.670471
C 3.030489 2.069734 -0.989051
C 2.987664 1.967807 -1.454283
C 3.018168 1.920367 -1.775259
C 3.025807 2.062257 -1.818303
C 2.979063 1.984415 -1.797113
C 3.019842 1.980313 -1.657931
C 3.153493 2.041680 -1.228656
C 3.319285 2.017313 -1.000588
C 3.415146 2.078780 -0.653130
C 3.549940 2.117302 -0.329315
C 3.496819 2.017393 0.133689
C 3.542172 1.983920 0.532780
C 3.498516 1.871891 0.965081
C 3.454801 1.623282 1.179183
C 3.355881 1.535041 1.594434
C 3.320371 1.481108 1.952199
C 3.228148 1.290754 2.260148
C 3.270303 0.983747 2.576873
C 3.313988 1.011263 2.818734
C 3.320773 0.962488 2.804161
C 3.318403 0.919034 2.883865
C 3.268830 0.769597 2.943122
C 3.351598 0.571286 3.036904
C 3.365173 0.411995 3.105317
C 3.307470 0.418954 3.023467
C 3.298010 0.070854 3.055027
C 3.468820 0.034176 3.031146
C 3.622083 0.137537 2.899492
C 3.757958 0.164356 2.710234
C 3.776597 0.249302 2.437619
C 3.768827 0.410808 2.176857
C 3.700550 0.503920 1.871475
C 3.740881 0.645325 1.525425
C 3.538309 0.548889 1.328633
C 3.326028 0.396378 1.271884
C 3.215128 0.324867 1.197596
C 3.097525 0.160586 1.142235
C 3.141266 -0.002661 1.107660
C 3.356412 -0.128985 1.065912
C 3.378967 -0.253804 1.039281
C 3.489787 -0.322583 1.071025
C 3.557173 -0.252864 0.868128
C 3.760529 -0.237010 0.733610
C 3.954401 -0.321402 0.711552
C 3.917261 -0.267441 0.684642
C 3.817972 -0.203087 0.642225
C 3.602021 -0.181122 0.528806
C 3.517157 -0.136063 0.386431
C 3.539579 -0.322114 0.476228
C 3.414753 -0.520917 0.533637
C 3.387018 -0.640691 0.546847
C 3.397270 -0.783389 0.624540
C 3.310616 -0.840660 0.502280
C 3.434200 -0.853245 0.362212
C 3.448287 -0.850531 0.103892
C 3.252072 -0.721219 -0.361221
C 3.099608 -0.485472 -0.995554
C 2.800036 -0.239007 -1.652601
C 2.629593 -0.126583 -2.271170
C 2.648953 -0.072755 -2.653207
C 2.504752 -0.074882 -3.015499
C 2.326400 -0.031168 -3.431115
C 2.197699 -0.051542 -3.688757
C 2.095902 -0.154278 -3.760738
C 2.108870 -0.203779 -3.738843
C 2.275643 -0.290448 -3.494283
C 2.381641 -0.488371 -3.153622
C 2.452394 -0.618212 -2.775151
C 2.754229 -0.812517 -2.331422
C 3.058546 -0.939909 -2.040770
C 3.206498 -0.969681 -1.872400
C 3.419531 -1.165986 -1.558406
C 3.401383 -1.225362 -1.622799
C 3.165612 -1.132975 -1.917004
C 2.989462 -1.065442 -2.204257
C 2.834295 -1.067286 -2.449344
C 2.641537 -1.112903 -2.743054
C 2.534692 -1.250950 -2.795643
C 2.351470 -1.260678 -2.936657
C 2.251034 -1.318850 -2.966963
C 2.418348 -1.514154 -2.785735
C 2.628021 -1.699796 -2.785233
C 2.494264 -1.690589 -2.832237
C 2.489855 -1.669531 -2.511617
C 2.417288 -1.671866 -2.285037
C 2.321330 -1.668314 -2.397221
C 2.337891 -1.737373 -2.359632
C 2.350394 -1.774207 -2.318605
C 2.286703 -1.840629 -2.251186
C 2.286368 -1.896026 -2.145273
C 2.191988 -1.971966 -2.285058
C 2.035234 -2.007722 -2.614061
C 1.870270 -1.995538 -2.754483
C 1.479704 -1.911311 -3.201241
C 1.095039 -1.823971 -3.533821
C 0.791548 -1.696623 -3.830979
C 0.511161 -1.707570 -4.174983
C 0.362367 -1.743028 -4.399873
C 0.381464 -1.739908 -4.337039
C 0.449538 -1.827190 -4.370566
C 0.463476 -1.949046 -4.262814
C 0.570208 -2.075723 -4.260164
C 0.650174 -2.221516 -4.086397
C 0.898401 -2.304852 -3.684254
C 1.134011 -2.515986 -3.382503
C 1.185791 -2.719664 -3.273447
C 1.369052 -2.846109 -2.862406
C 1.744783 -2.917549 -2.282320
C 1.949057 -2.985285 -1.841808
C 2.025636 -2.969968 -1.417836
C 2.145300 -3.088597 -1.150079
C 2.194167 -2.957472 -0.804778
C 2.245866 -2.883152 -0.570415
C 1.996135 -2.826647 -0.805745
C 1.695317 -2.875101 -1.250580
C 1.301591 -2.863425 -1.586700
C 1.044999 -2.954152 -2.074601
C 0.798647 -2.974751 -2.379166
C 0.440939 -3.106452 -2.800628
C 0.187886 -3.203927 -3.094897
C 0.204084 -3.384653 -3.060910
C 0.321802 -3.543075 -2.755664
C 0.333615 -3.623694 -2.706516
C 0.319206 -3.709254 -2.569341
C 0.381283 -3.771526 -2.404615
C 0.606026 -3.802086 -2.095736
C 0.787443 -3.889154 -1.747321
C 0.738973 -3.857447 -1.555945
C 0.605481 -3.882855 -1.653444
C 0.456332 -4.046284 -1.576642
C 0.447267 -4.086604 -1.436848
C 0.188530 -4.155722 -1.563270
C 0.039823 -4.290667 -1.490528
C 0.161929 -4.219746 -1.205450
C 0.470931 -4.262591 -0.788973
C 0.739693 -4.129453 -0.211831
C 1.201533 -3.918361 0.343343
C 1.556945 -3.746714 0.814450
C 1.884166 -3.699526 1.368284
C 2.088862 -3.555214 1.619755
C 2.038888 -3.590589 1.663870
C 1.846673 -3.573494 1.563711
C 1.724668 -3.575265 1.281203
C 1.632955 -3.675957 1.010088
C 1.378126 -3.833472 0.752598
C 1.310333 -3.855242 0.534093
C 1.234931 -3.831369 0.335334
C 1.146335 -3.872045 0.080841
C 1.055377 -3.867014 -0.197519
C 0.983347 -3.784554 -0.275658
C 0.716950 -3.823541 -0.456568
C 0.659664 -3.845317 -0.569883
C 0.484888 -3.943454 -0.640257
C 0.324085 -4.003584 -0.711921
C 0.331560 -3.892445 -0.550710
C 0.450653 -3.835682 -0.178548
C 0.517689 -3.915635 0.167373
C 0.792397 -3.817449 0.722261
C 0.990189 -3.835752 1.316126
C 1.259697 -3.674394 1.852407
C 1.498968 -3.581262 2.376411
C 1.600009 -3.613360 2.743399
C 1.504757 -3.781385 2.921811
C 1.084564 -4.133601 2.829644
C 0.991815 -4.224528 2.863004
C 0.882147 -4.210087 2.787677
C 0.626812 -4.337032 2.632742
