397
chr3 3D structure from Hi-C (resolution 500000bp)
C -3.495074 -1.849969 -0.937777
C -3.526636 -1.902635 -0.852544
C -3.505522 -1.951350 -0.795724
C -3.460629 -2.050701 -0.675048
C -3.555817 -2.145664 -0.706588
C -3.379092 -2.186296 -0.361232
C -3.210941 -2.218019 -0.026835
C -3.086188 -2.391095 0.276368
C -3.050845 -2.560671 0.410763
C -3.014859 -2.709306 0.588426
C -3.008880 -2.728665 0.670467
C -3.097574 -2.839644 0.753591
C -3.235284 -2.871525 0.611914
C -3.385859 -2.854128 0.563963
C -3.282993 -2.669016 0.656487
C -3.080641 -2.559844 0.974008
C -2.742585 -2.437293 1.346264
C -2.444573 -2.315344 1.740550
C -2.160635 -2.160156 2.177680
C -1.945068 -2.137165 2.682104
C -1.666368 -2.046407 3.024565
C -1.631646 -2.072485 3.270819
C -1.549709 -2.005016 3.376558
C -1.589334 -2.002735 3.430780
C -1.732300 -1.950222 3.465424
C -1.635740 -1.952433 3.501647
C -1.451144 -1.876350 3.561059
C -1.463370 -2.068376 3.567367
C -1.540057 -2.296257 3.476157
C -1.561858 -2.210645 3.302738
C -1.811521 -2.233087 3.062423
C -1.921808 -2.268209 2.815250
C -2.164001 -2.268307 2.527134
C -2.584436 -2.261712 2.097240
C -2.875944 -1.938815 1.529448
C -3.185129 -1.706122 0.915099
C -3.585188 -1.784795 0.649715
C -3.776016 -1.658162 0.400048
C -3.994913 -1.579016 -0.001617
C -4.202410 -1.490878 -0.332667
C -4.282731 -1.341996 -0.603035
C -4.350477 -1.324560 -0.631344
C -4.342400 -1.148569 -0.571828
C -4.177031 -1.063513 -0.512906
C -4.006728 -1.004010 -0.358365
C -3.971078 -0.976430 -0.213580
C -3.925093 -0.834207 -0.149703
C -3.849225 -0.764579 0.027887
C -3.790202 -0.805436 0.274703
C -3.834391 -0.783304 0.232709
C -3.983723 -0.581057 0.042317
C -4.142607 -0.492225 -0.176243
C -4.076369 -0.421105 -0.129398
C -4.130794 -0.416034 -0.010357
C -4.184664 -0.403775 0.048716
C -4.160647 -0.277505 0.030019
C -4.164505 -0.271074 0.356268
C -4.217892 -0.267873 0.528576
C -4.182946 -0.252569 0.740259
C -4.260852 -0.307871 0.988711
C -4.140243 -0.358353 1.202343
C -3.945425 -0.403349 1.437378
C -3.773702 -0.451176 1.666368
C -3.464320 -0.437667 1.825053
C -3.359040 -0.463545 2.035855
C -3.400178 -0.390328 2.107832
C -3.361770 -0.149939 1.838008
C -3.484816 0.058614 1.615578
C -3.685143 0.208013 1.351976
C -3.876495 0.395199 1.140501
C -3.992765 0.481128 1.085262
C -3.881997 0.434241 1.253608
C -3.679263 0.458648 1.434708
C -3.437241 0.296779 1.954328
C -3.160178 0.206955 2.364606
C -2.755235 0.148315 2.825334
C -2.502516 0.078351 3.155739
C -2.311916 0.106090 3.417857
C -2.282637 0.304493 3.480594
C -2.188166 0.378597 3.551181
C -2.194227 0.474733 3.551803
C -1.990216 0.475221 3.610430
C -1.936245 0.469417 3.737468
C -1.744020 0.413641 3.793666
C -1.536153 0.330782 3.895416
C -1.227642 0.149616 4.011382
C -1.079417 -0.028137 4.236134
C -0.817004 -0.044050 4.330196
C -0.636498 -0.106953 4.443373
C -0.419529 -0.154968 4.479447
C -0.255881 -0.143892 4.627485
C 0.011899 -0.198759 4.744939
C 0.224087 -0.287661 4.871635
C 0.494534 -0.377845 4.934478
C 0.732272 -0.619058 5.077214
C 0.881225 -0.624742 5.263813
C 1.010658 -0.444847 5.415075
C 1.034779 -0.243779 5.525779
C 0.809434 0.133020 5.497143
C 0.612693 0.601785 5.416133
C 0.532975 1.117783 5.303570
C 0.486279 1.703287 5.225016
C 0.429636 2.152284 5.052090
C 0.232265 2.390036 4.888229
C 0.062086 2.364136 4.606005
C -0.111266 2.329550 4.367372
C -0.178832 2.368658 4.082918
C -0.486919 2.361944 3.851845
C -0.772159 2.283656 3.532575
C -1.060246 2.084179 3.258723
C -1.126394 2.028002 3.123277
C -1.086688 2.062460 3.103522
C -0.892104 1.989670 3.173968
C -0.769124 1.825872 3.186226
C -0.699184 1.924533 3.151552
C -0.678097 2.075816 3.146062
C -0.721746 2.109576 3.077706
C -0.927581 2.085141 2.810815
C -1.184241 2.116738 2.572916
C -1.338791 2.206152 2.318816
C -1.538027 2.346286 2.175026
C -1.697221 2.294636 2.027835
C -2.020544 2.253267 1.880058
C -2.263318 2.449988 1.748934
C -2.316617 2.502165 1.766697
C -2.286736 2.506239 1.661393
C -2.578667 2.548006 1.465972
C -2.777943 2.582499 1.284576
C -2.885743 2.590179 1.172710
C -2.746068 2.530693 1.091207
C -2.604099 2.467027 1.053616
C -2.580450 2.546105 0.983128
C -2.647755 2.575493 0.943056
C -2.592843 2.682836 0.958844
C -2.529186 2.733948 0.951670
C -2.274979 2.679912 0.976948
C -2.303080 2.842706 0.907556
C -2.311184 2.986386 0.842734
C -2.288263 3.121862 0.797288
C -2.175109 3.315079 0.844782
C -1.922437 3.236772 0.932742
C -1.630777 3.158055 1.116017
C -1.583094 3.315234 1.168252
C -1.450066 3.216909 1.181335
C -1.424825 3.162104 1.111343
C -1.565917 2.987563 0.885708
C -1.745552 3.143247 0.665189
C -1.973211 3.262555 0.438185
C -2.290985 3.321204 0.096182
C -2.670508 3.227911 -0.312813
C -2.855756 3.239045 -0.579693
C -2.980924 3.168455 -0.753478
C -3.018217 3.230233 -0.919977
C -3.141101 2.937818 -1.050120
C -3.247828 2.818875 -1.171480
C -3.345789 2.841287 -1.338660
C -3.333311 2.764537 -1.500842
C -3.376491 2.602607 -1.627577
C -3.294359 2.612882 -1.814482
C -3.206766 2.488639 -1.874272
C -2.807659 2.560995 -1.698483
C -2.655401 2.581587 -1.942697
C -2.574259 2.481425 -2.094720
C -2.542592 2.500851 -2.212830
C -2.545931 2.650130 -2.340616
C -2.602468 2.595962 -2.358396
C -2.608301 2.529759 -2.404057
C -2.981985 2.317027 -2.862306
C -2.957228 2.356816 -2.731856
C -2.847533 2.644283 -2.548775
C -2.641377 2.958894 -2.289262
C -2.424395 3.032171 -2.067465
C -2.256403 3.044055 -2.000701
C -2.040862 3.161700 -1.861663
C -1.892406 3.299335 -1.936497
C -1.841250 3.425932 -1.953794
C -1.742887 3.417802 -2.074225
C -1.696861 3.401937 -2.221871
C -1.956691 2.969479 -2.792452
C -2.210959 2.676620 -3.223743
C -2.554817 2.153678 -3.757998
C -2.750785 1.409907 -3.847773
C -3.017239 0.443258 -4.219602
C -3.313924 -0.459882 -4.620881
C -3.240902 -0.771893 -4.964314
C -2.756610 -0.464669 -4.569329
C -2.251287 -0.192929 -4.352088
C -1.703199 0.398723 -4.116465
C -1.127518 1.209315 -3.927735
C -0.608907 1.978372 -3.751390
C -0.090332 2.756282 -3.653992
C 0.071676 2.834717 -3.607120
C 0.166427 3.035219 -3.536011
C 0.345807 3.227615 -3.195674
C 0.531756 3.270869 -2.742120
C 0.660262 3.335126 -2.478322
C 0.857975 3.394238 -2.140837
C 1.070791 3.443830 -1.561307
C 1.231607 3.442509 -1.049979
C 1.343072 3.484200 -0.954119
C 1.440784 3.470366 -0.859044
C 1.435886 3.519842 -1.044022
C 1.425710 3.381616 -1.284009
C 1.418722 3.536497 -1.503896
C 1.388396 3.568414 -1.866496
C 1.431066 3.600375 -2.136670
C 1.470774 3.404264 -2.348824
C 1.388623 3.386870 -2.655655
C 1.504763 3.420510 -2.635797
C 1.712513 3.595758 -2.406776
C 1.823789 3.450551 -2.482703
C 1.861127 3.353253 -2.463788
C 1.983756 3.501734 -2.172636
C 2.019246 3.403984 -1.867226
C 2.080421 3.236467 -1.789494
C 1.959588 2.965118 -1.939371
C 1.740550 2.796436 -2.351204
C 1.640554 2.745558 -2.467324
C 1.666291 2.645993 -2.570802
C 1.677938 2.431973 -2.857366
C 1.682053 2.495056 -2.935768
C 1.777479 2.628397 -2.558103
C 1.963187 2.689331 -2.084257
C 2.131419 2.597830 -1.405625
C 2.294270 2.568256 -0.749356
C 2.445922 2.533881 -0.292074
C 2.630332 2.518426 -0.014627
C 2.877630 2.576932 0.059832
C 2.900234 2.443108 -0.205268
C 2.902275 2.408575 -0.574237
C 3.052571 2.478411 -0.879533
C 3.051005 2.413337 -1.258010
C 3.039136 2.359765 -1.468685
C 2.981700 2.368367 -1.577701
C 2.911757 2.242686 -1.626496
C 2.976344 2.220925 -1.471723
C 3.050441 2.317090 -1.043297
C 3.080309 2.436965 -0.681728
C 3.176202 2.509532 -0.387784
C 3.276010 2.624548 -0.080484
C 3.236455 2.540389 0.370880
C 3.243183 2.512485 0.802227
C 3.253416 2.438440 1.176783
C 3.218597 2.195565 1.392982
C 3.229047 1.959484 1.667124
C 3.280430 1.807337 1.984536
C 3.201493 1.475330 2.327292
C 3.334064 1.314539 2.563209
C 3.398594 1.168364 2.835483
C 3.370301 0.978307 2.877053
C 3.419372 0.776110 2.868323
C 3.380059 0.572060 2.958727
C 3.414100 0.341462 3.092168
C 3.456490 0.243903 3.142546
C 3.377448 0.010042 3.096794
C 3.410494 -0.237905 3.059333
C 3.554455 -0.411390 3.054245
C 3.716546 -0.348318 3.007938
C 3.850237 -0.320886 2.843481
C 3.914620 -0.199575 2.566082
C 3.951911 -0.053436 2.254925
C 3.869411 0.108450 2.002487
C 3.907164 0.365481 1.676090
C 3.749746 0.521797 1.447346
C 3.607669 0.476980 1.334862
C 3.485441 0.501175 1.156533
C 3.320571 0.419777 1.127037
C 3.286997 0.458821 1.153656
C 3.482719 0.482346 1.053152
C 3.487027 0.405475 0.998356
C 3.594674 0.408475 0.977919
C 3.588376 0.473390 0.753842
C 3.810759 0.498953 0.581033
C 4.008325 0.439394 0.544287
C 4.053681 0.224535 0.505035
C 3.897163 0.106027 0.495341
C 3.701931 0.043543 0.379545
C 3.617529 -0.054805 0.338466
C 3.624720 -0.200465 0.456880
C 3.470494 -0.445602 0.666038
C 3.443094 -0.604901 0.710883
C 3.380523 -0.663060 0.699236
C 3.362451 -0.700916 0.602040
C 3.500134 -0.739340 0.466897
C 3.499969 -0.719493 0.193221
C 3.261434 -0.624803 -0.283568
C 3.082766 -0.397599 -1.011933
C 2.881806 -0.136951 -1.666179
C 2.730716 -0.008398 -2.269037
C 2.606945 0.064795 -2.774695
C 2.403242 0.092727 -3.140665
C 2.189174 0.124904 -3.600106
C 2.215853 0.034214 -3.832738
C 2.252615 -0.067379 -3.871739
C 2.051684 -0.164284 -3.887858
C 2.206304 -0.275237 -3.614548
C 2.492530 -0.435105 -3.219999
C 2.593371 -0.565579 -2.826786
C 2.964118 -0.765803 -2.286464
C 3.159638 -0.836659 -1.962963
C 3.265432 -0.922818 -1.798792
C 3.558254 -1.052941 -1.492920
C 3.569685 -1.046421 -1.585024
C 3.398020 -0.962667 -1.820691
C 3.264481 -0.897143 -2.098816
C 2.986442 -0.830206 -2.471973
C 2.633997 -0.793927 -2.834958
C 2.332831 -0.765291 -2.977824
C 2.175942 -0.792674 -3.179780
C 2.101791 -0.903211 -3.184008
C 2.217037 -1.097912 -3.001890
C 2.389521 -1.291382 -3.035458
C 2.449498 -1.341846 -3.024479
C 2.649982 -1.415407 -2.692344
C 2.720837 -1.528918 -2.430305
C 2.675482 -1.564488 -2.487626
C 2.678498 -1.613902 -2.481183
C 2.646895 -1.649746 -2.491351
C 2.596021 -1.693613 -2.455909
C 2.437122 -1.763942 -2.360355
C 2.317526 -1.828408 -2.487502
C 2.075017 -1.925302 -2.776761
C 1.917777 -1.987974 -2.842483
C 1.498037 -2.043948 -3.240107
C 1.167775 -2.013005 -3.515666
C 0.751903 -2.014266 -3.730041
C 0.461873 -2.140159 -3.999903
C 0.262264 -2.187583 -4.231341
C 0.421097 -2.138851 -4.189030
C 0.412077 -2.106042 -4.314711
C 0.517114 -2.069955 -4.285077
C 0.488589 -2.170920 -4.379249
C 0.710933 -2.151832 -4.300622
C 1.037759 -2.157133 -3.998925
C 1.268542 -2.289969 -3.793990
C 1.346440 -2.468832 -3.674389
C 1.575798 -2.658569 -3.272205
C 1.877067 -2.773939 -2.654104
C 2.134470 -2.853436 -2.154009
C 2.219921 -2.899554 -1.694784
C 2.318254 -2.935163 -1.389160
C 2.407177 -2.873434 -0.979049
C 2.420909 -2.796490 -0.711270
C 2.198442 -2.759801 -0.893212
C 1.876186 -2.863469 -1.295637
C 1.559766 -2.876598 -1.685107
C 1.184697 -3.047218 -2.124937
C 0.999612 -3.095876 -2.452092
C 0.649960 -3.208744 -2.862891
C 0.323334 -3.352577 -3.163493
C 0.278497 -3.509307 -3.158939
C 0.501751 -3.576887 -2.906598
C 0.540391 -3.676343 -2.827860
C 0.646887 -3.742434 -2.666937
C 0.681970 -3.790707 -2.577176
C 0.938937 -3.819847 -2.254411
C 1.255808 -3.858460 -1.895247
C 1.306799 -3.859493 -1.711596
C 0.996151 -3.923861 -1.807513
C 0.797167 -4.037149 -1.722685
C 0.830730 -4.052537 -1.654172
C 0.718921 -4.221124 -1.619049
C 0.723190 -4.357292 -1.536147
C 0.823888 -4.314412 -1.292662
C 0.982040 -4.365293 -0.868778
C 1.361929 -4.252714 -0.274683
C 1.787228 -4.029171 0.303083
C 2.028610 -3.846482 0.841315
C 2.227106 -3.736761 1.325489
C 2.315197 -3.547777 1.595852
C 2.257977 -3.541087 1.656048
C 2.172442 -3.469207 1.555787
C 2.033933 -3.460003 1.299368
C 1.804075 -3.605186 1.057843
C 1.628891 -3.801367 0.767112
C 1.484683 -3.821845 0.535970
C 1.333758 -3.876301 0.335770
C 1.125641 -3.938225 0.064258
C 1.054397 -3.945880 -0.154096
C 0.964982 -3.874074 -0.261598
C 0.827546 -3.831251 -0.484659
C 0.716768 -3.786595 -0.576377
C 0.588792 -3.887233 -0.689331
C 0.461115 -3.931167 -0.786559
C 0.574621 -3.842431 -0.583445
C 0.682002 -3.771551 -0.249847
C 0.810787 -3.799293 0.124465
C 1.196122 -3.715401 0.706027
C 1.426666 -3.723447 1.336660
C 1.686331 -3.533536 1.918288
C 1.880469 -3.457166 2.470978
C 1.963980 -3.524827 2.782821
C 1.922712 -3.676213 3.018340
C 1.466345 -4.094673 2.862850
C 1.296395 -4.217854 2.889186
C 1.171590 -4.250008 2.732958
C 0.960345 -4.418107 2.566489
