271
chr11 3D structure from Hi-C (resolution 500000bp)
C -3.143091 3.553035 -0.923398
C -3.236032 3.311753 -0.779527
C -3.321998 3.162816 -0.760460
C -3.267046 3.020798 -0.761589
C -3.280531 2.759530 -0.737266
C -3.298299 2.321046 -0.666117
C -3.285823 1.757273 -0.527298
C -3.211676 1.178736 -0.439729
C -3.069940 0.729505 -0.435423
C -3.049431 0.397022 -0.407510
C -3.158544 0.099994 -0.323016
C -3.204906 -0.232662 -0.246687
C -3.322944 -0.276408 -0.197666
C -3.292193 -0.162719 -0.251480
C -3.235712 0.089023 -0.419558
C -3.244646 0.436333 -0.574349
C -3.074951 0.584993 -0.697108
C -2.978668 0.643866 -0.828017
C -2.913084 0.789070 -0.903588
C -2.694176 0.749985 -0.970210
C -2.659744 0.763907 -0.964993
C -2.587643 0.605018 -0.933225
C -2.699627 0.242908 -0.788970
C -2.745743 0.009195 -0.726749
C -2.680877 -0.201078 -0.734377
C -2.716078 -0.427159 -0.781140
C -2.953106 -0.672490 -0.747920
C -3.069746 -0.958365 -0.739300
C -3.159541 -1.192472 -0.694448
C -3.125278 -1.401447 -0.639060
C -3.079659 -1.499447 -0.631754
C -3.089608 -1.333728 -0.667580
C -2.957959 -1.179535 -0.760382
C -2.720532 -0.832596 -0.937883
C -2.518951 -0.541768 -1.118182
C -2.504088 -0.303428 -1.256941
C -2.423767 0.002636 -1.522040
C -2.412677 0.067371 -1.600326
C -2.308693 -0.246939 -1.512223
C -2.324058 -0.677143 -1.309051
C -2.279739 -1.185983 -1.103963
C -2.364888 -1.667221 -0.870991
C -2.323040 -1.932473 -0.766823
C -2.190171 -2.282820 -0.647345
C -2.173525 -2.613908 -0.596296
C -2.174532 -2.809697 -0.583739
C -2.104379 -2.903327 -0.669304
C -2.071154 -3.045755 -0.740752
C -1.923755 -2.967815 -0.927387
C -1.803024 -2.983850 -1.009191
C -1.899315 -2.962515 -1.117231
C -1.889608 -2.854670 -1.192431
C -1.952260 -2.668522 -1.382078
C -2.055653 -2.439572 -1.679494
C -2.070292 -2.452989 -1.808213
C -2.076000 -2.526421 -1.861872
C -2.052933 -2.664486 -1.906833
C -1.931457 -2.572754 -1.994008
C -1.803887 -2.633861 -1.974027
C -1.676016 -2.656641 -2.016495
C -1.575440 -2.612918 -2.021612
C -1.520140 -2.234706 -2.170124
C -1.501748 -1.814010 -2.429648
C -1.516390 -1.256115 -2.545855
C -1.519989 -0.872169 -2.598802
C -1.556469 -0.367883 -2.733270
C -1.587917 -0.075390 -2.782199
C -1.452476 0.146564 -2.600512
C -1.435813 0.206186 -2.613474
C -1.368565 0.094983 -2.494336
C -1.294774 -0.241856 -2.435095
C -1.141119 -0.854160 -2.303068
C -1.002091 -1.474918 -2.205620
C -0.797265 -1.926319 -2.126519
C -0.696589 -2.387034 -2.205524
C -0.504110 -2.777947 -2.131493
C -0.374624 -3.042148 -2.009440
C -0.308366 -3.215202 -2.072530
C -0.232635 -3.126666 -2.136845
C -0.091924 -3.067077 -2.243547
C -0.077292 -2.915763 -2.309242
C -0.075825 -2.777223 -2.343067
C -0.069978 -2.559097 -2.397538
C -0.118635 -2.382191 -2.490761
C -0.104152 -2.069902 -2.374191
C -0.191186 -1.639168 -2.373107
C -0.366731 -1.105094 -2.364313
C -0.421842 -0.717395 -2.338847
C -0.535501 -0.252749 -2.227490
C -0.663595 0.253645 -2.254485
C -0.715941 0.740329 -2.379945
C -0.654039 0.982672 -2.685646
C -0.518254 1.034349 -2.902161
C -0.351848 0.781135 -3.086645
C 0.010587 0.439489 -3.321260
C 0.335565 -0.036544 -3.593844
C 0.649444 -0.609728 -3.620522
C 0.916486 -1.209588 -3.485089
C 1.126586 -1.624331 -3.501570
C 1.636773 -1.623300 -3.562354
C 0.878927 -1.430941 -2.621471
C 1.263810 -0.979553 -2.477526
C 1.786772 -0.495507 -2.340067
C 2.347741 -0.048940 -2.220727
C 1.633396 -0.060454 -1.386408
C 1.985335 0.104084 -1.386687
C 1.725070 -0.220673 -1.239963
C 2.730418 -0.568699 -2.037647
C 2.296324 -1.018680 -1.894575
C 1.898499 -1.548080 -1.802050
C 1.497194 -1.841105 -1.828478
C 2.210271 -1.550529 -2.544280
C 1.802766 -1.410237 -2.208636
C 1.646366 -1.200822 -1.950079
C 1.533569 -0.840248 -1.806610
C 1.525532 -0.452287 -1.825085
C 1.439757 0.056756 -1.883589
C 1.378174 0.443464 -1.913873
C 1.427863 0.775143 -1.954211
C 1.438626 1.093585 -2.052401
C 1.301533 1.548045 -2.167548
C 1.150050 1.946729 -2.172315
C 1.014231 2.306153 -2.147559
C 0.881113 2.584456 -2.079434
C 0.768650 2.834921 -2.057404
C 0.637616 3.082181 -2.054433
C 0.509386 3.270288 -2.086961
C 0.732105 3.397675 -2.153202
C 0.928416 3.473391 -2.279581
C 1.065088 3.589884 -2.220227
C 1.301040 3.725941 -2.168802
C 1.252211 3.905482 -2.048967
C 1.302795 3.981395 -1.942373
C 1.306103 4.028125 -1.713651
C 1.081529 3.998286 -1.474288
C 0.858264 4.026991 -1.215306
C 0.569034 3.944973 -1.037884
C 0.230072 3.844117 -0.883277
C 0.089973 3.688940 -0.682055
C 0.005041 3.582511 -0.481946
C -0.055894 3.548961 -0.378591
C -0.110404 3.619517 -0.288250
C -0.082804 3.582297 -0.235842
C 0.146002 3.664211 -0.193556
C 0.284171 3.706474 -0.154412
C 0.423127 3.680839 -0.119907
C 0.571421 3.596515 -0.107374
C 0.857497 3.521255 -0.024820
C 1.153724 3.395149 0.030727
C 1.361497 3.307252 0.104289
C 1.424976 3.072559 0.117353
C 1.571034 2.896784 0.171223
C 1.742015 2.760323 0.200203
C 1.792824 2.619772 0.191977
C 1.703447 2.226338 0.194119
C 1.643247 1.807917 0.205110
C 1.656507 1.258165 0.201246
C 1.746076 0.783414 0.159779
C 1.800183 0.317156 0.110012
C 1.961103 -0.167231 0.069013
C 2.011240 -0.629508 0.095818
C 2.239530 -0.903007 0.132506
C 2.436347 -0.981004 0.121715
C 2.500073 -0.862169 0.113820
C 2.480881 -0.824801 0.231367
C 2.523451 -0.870862 0.297067
C 2.503662 -0.928763 0.360583
C 2.777340 -0.959258 0.374718
C 2.859651 -0.813056 0.343185
C 2.769540 -0.697033 0.364080
C 2.786638 -0.764355 0.449262
C 2.930080 -0.783963 0.454820
C 2.993176 -0.787498 0.528924
C 2.978871 -0.574400 0.567165
C 2.861979 -0.582461 0.638151
C 2.858800 -0.937262 0.711996
C 2.969766 -1.347632 0.819948
C 2.952876 -1.547160 0.863717
C 2.801049 -1.906925 0.960443
C 2.621448 -2.146201 1.007532
C 2.462893 -2.453050 1.090109
C 2.219777 -2.537733 1.122077
C 2.008475 -2.452957 1.193759
C 1.821932 -2.394236 1.252580
C 1.693259 -2.190116 1.275272
C 1.729471 -1.846645 1.312037
C 1.753795 -1.405023 1.359303
C 1.564395 -1.325551 1.455905
C 1.659606 -1.030933 1.557346
C 1.698177 -0.743432 1.627284
C 1.631451 -0.931743 1.732250
C 1.615207 -1.276935 1.898165
C 1.494179 -1.527323 1.972886
C 1.352059 -1.882151 2.035104
C 1.538571 -1.967448 2.087874
C 1.480196 -2.264864 2.112860
C 1.298045 -2.557140 2.144245
C 1.245464 -2.505393 2.209294
C 1.182898 -2.371973 2.287425
C 1.117570 -2.302972 2.354533
C 1.146828 -2.186393 2.379645
C 1.057499 -1.990414 2.412336
C 0.957632 -1.767395 2.352336
C 0.976257 -1.730924 2.441354
C 0.941279 -1.603584 2.450513
C 0.889417 -1.578019 2.433306
C 0.947268 -1.527605 2.495581
C 0.990295 -1.506272 2.629705
C 1.140988 -1.566906 2.664707
C 1.262026 -1.626127 2.786802
C 1.431167 -1.587835 2.847287
C 1.561144 -1.417337 2.752636
C 1.847137 -1.086320 2.735920
C 1.948526 -0.645104 2.622145
C 1.999594 -0.317067 2.486825
C 1.902679 -0.185906 2.562756
C 1.910709 -0.063537 2.651951
C 1.968539 0.275329 2.645039
C 2.075948 0.462497 2.783437
C 1.940601 0.452763 2.796404
C 1.889531 0.454602 2.766710
C 1.828889 0.574999 2.826865
C 1.727291 0.708914 2.742459
C 1.575377 0.829356 2.650867
C 1.296176 0.844904 2.489680
C 1.115584 0.823317 2.346795
C 1.018767 0.801749 2.453099
C 0.869346 0.800023 2.573159
C 0.764342 0.800323 2.519940
C 0.731284 0.967201 2.468180
C 0.675375 1.189113 2.411515
C 0.561750 1.476962 2.439948
C 0.465417 1.814354 2.401718
C 0.315953 2.255787 2.181198
C 0.126469 2.590438 2.050148
C -0.085675 2.826846 1.997065
C -0.199508 2.907598 1.936388
C -0.277991 2.961119 1.938404
C -0.265629 2.899465 1.954340
C -0.395023 2.874907 2.068450
C -0.384123 2.693355 2.247608
C -0.311612 2.323078 2.481602
C -0.210665 2.044637 2.583628
C -0.202336 1.918885 2.633353
C -0.287064 1.582878 2.847150
C -0.396188 1.211808 3.077346
C -0.374912 1.041225 3.182833
C -0.451337 0.953157 3.095384
C -0.505193 0.947619 2.933464
C -0.573223 0.912197 2.980495
C -0.610875 0.721847 3.103542
C -0.557957 0.636406 3.042507
C -0.504716 0.507301 2.968291
C -0.471258 0.295357 2.857154
C -0.414550 0.186963 2.869941
C -0.472713 -0.039815 3.034124
C -0.548582 -0.238779 3.075963
C -0.627032 -0.103533 3.018388
C -0.640626 0.027584 2.958887
C -0.598946 0.205451 2.889834
C -0.678040 0.228002 2.930381
C -0.767404 0.139706 2.957380
C -0.742365 0.169296 2.897512
C -0.765344 0.264361 2.866744
C -0.796799 0.113941 2.868457
C -0.932747 0.242261 2.822447
C -1.136288 0.307502 2.810214
C -1.425746 0.516940 2.915273
C -1.509995 0.588918 2.936211
C -1.671018 0.779446 2.892299
C -1.781616 0.903087 2.889863
