271
chr11 3D structure from Hi-C (resolution 500000bp)
C -2.748382 3.317823 -0.933621
C -2.778642 3.168558 -0.861218
C -2.863290 3.070729 -0.776250
C -2.873648 2.944917 -0.781986
C -2.940887 2.706232 -0.735802
C -3.010709 2.357681 -0.564764
C -3.018883 1.795203 -0.434387
C -2.958988 1.278080 -0.410662
C -2.889125 0.884726 -0.394392
C -2.887904 0.523499 -0.423923
C -2.933173 0.281126 -0.391976
C -2.955481 -0.000682 -0.315768
C -3.039064 -0.105557 -0.303842
C -2.994478 0.031322 -0.366485
C -2.930289 0.279280 -0.508106
C -2.943545 0.504924 -0.645413
C -2.831674 0.633808 -0.695030
C -2.735382 0.628543 -0.745718
C -2.685357 0.777538 -0.880120
C -2.492569 0.800732 -0.985864
C -2.471020 0.781357 -1.032785
C -2.442850 0.627558 -0.998989
C -2.536413 0.352425 -0.980719
C -2.606554 0.159630 -0.955237
C -2.581013 -0.050373 -0.952193
C -2.630312 -0.293828 -0.849340
C -2.843803 -0.541087 -0.796131
C -2.964412 -0.786354 -0.766723
C -3.040521 -1.022151 -0.648503
C -3.049523 -1.209320 -0.446993
C -2.974595 -1.257347 -0.495693
C -2.969608 -1.055243 -0.565946
C -2.839305 -0.937206 -0.716170
C -2.623708 -0.630258 -0.849003
C -2.368726 -0.402121 -0.965435
C -2.283124 -0.212987 -1.169804
C -2.131430 -0.036341 -1.365298
C -2.088790 -0.111572 -1.279805
C -2.006347 -0.430985 -1.148607
C -2.046250 -0.791090 -0.964363
C -2.028609 -1.255152 -0.830212
C -2.173717 -1.646573 -0.642395
C -2.205692 -1.914624 -0.488638
C -2.138844 -2.197583 -0.400819
C -2.093253 -2.457124 -0.371783
C -2.111737 -2.608560 -0.350195
C -2.016893 -2.683920 -0.393679
C -2.015366 -2.835186 -0.376760
C -1.861160 -2.811690 -0.495006
C -1.752589 -2.771163 -0.561530
C -1.819408 -2.760066 -0.630871
C -1.856539 -2.615011 -0.767588
C -1.912656 -2.491142 -0.937326
C -1.999448 -2.454774 -1.101665
C -1.947656 -2.473830 -1.218236
C -1.986882 -2.533056 -1.316768
C -1.962041 -2.651361 -1.416405
C -1.906851 -2.566589 -1.512842
C -1.884914 -2.545613 -1.640880
C -1.782453 -2.491215 -1.766697
C -1.644625 -2.271536 -1.942264
C -1.589848 -1.934994 -2.079278
C -1.575988 -1.573872 -2.352280
C -1.538935 -1.146119 -2.500633
C -1.494875 -0.786522 -2.559201
C -1.383086 -0.450143 -2.603956
C -1.373045 -0.241252 -2.605734
C -1.302505 -0.027953 -2.459010
C -1.289799 0.063624 -2.524084
C -1.226767 0.035271 -2.379722
C -1.178688 -0.248927 -2.235750
C -1.041913 -0.827314 -2.111187
C -0.929334 -1.280300 -2.088326
C -0.798905 -1.648124 -2.080717
C -0.736803 -2.086208 -2.102194
C -0.606765 -2.397826 -2.087603
C -0.473627 -2.685659 -1.983488
C -0.418799 -2.792329 -2.120826
C -0.358923 -2.699833 -2.192753
C -0.381172 -2.597416 -2.311909
C -0.341862 -2.569491 -2.254824
C -0.261752 -2.503261 -2.270241
C -0.295550 -2.391625 -2.221637
C -0.278338 -2.196470 -2.317745
C -0.274784 -1.906867 -2.249109
C -0.313601 -1.512577 -2.287662
C -0.340790 -1.163466 -2.128714
C -0.398402 -0.716619 -2.142564
C -0.555425 -0.203366 -2.066656
C -0.555620 0.284960 -2.100986
C -0.597633 0.670677 -2.286697
C -0.646725 0.989438 -2.476910
C -0.551481 1.047086 -2.670101
C -0.300773 0.779669 -2.830940
C 0.061765 0.332338 -3.014453
C 0.334559 -0.328994 -3.050449
C 0.507461 -0.905680 -3.034907
C 0.681026 -1.394199 -2.871111
C 1.085373 -1.932675 -2.839168
C 1.578210 -2.082221 -2.844064
C 0.788024 -1.809405 -2.037482
C 1.124170 -1.402030 -1.988981
C 1.630785 -0.874508 -2.104196
C 2.182920 -0.438103 -2.076316
C 1.514122 -0.373993 -1.304749
C 1.634453 -0.086617 -1.440398
C 1.363086 -0.193503 -1.357794
C 2.296539 -0.523821 -2.063364
C 1.936341 -0.836555 -1.896985
C 1.595755 -1.211286 -1.783407
C 1.221003 -1.565239 -1.757635
C 1.942062 -1.400168 -2.396568
C 1.648034 -1.368269 -2.006858
C 1.527069 -1.228718 -1.762734
C 1.397212 -0.925555 -1.620471
C 1.378656 -0.534233 -1.671620
C 1.295331 -0.108484 -1.710482
C 1.242465 0.325639 -1.774852
C 1.272460 0.642446 -1.800544
C 1.155379 0.993229 -1.837783
C 1.052138 1.425955 -1.939304
C 1.037182 1.731741 -2.012424
C 0.918624 2.018319 -1.972694
C 0.796783 2.268557 -1.926431
C 0.696610 2.533138 -1.926132
C 0.646079 2.700248 -1.996669
C 0.868089 2.750142 -2.094128
C 1.114429 2.801897 -2.169517
C 1.234620 2.940639 -2.189872
C 1.422442 3.037986 -2.150694
C 1.637820 3.152459 -2.162992
C 1.566683 3.312460 -2.078951
C 1.590158 3.407889 -1.980070
C 1.478104 3.501186 -1.799827
C 1.221044 3.547451 -1.595072
C 1.062360 3.545415 -1.405537
C 0.750991 3.509826 -1.246715
C 0.489325 3.451253 -1.012848
C 0.427966 3.322301 -0.744154
C 0.302963 3.244683 -0.558159
C 0.201578 3.238443 -0.495878
C 0.254959 3.333544 -0.422502
C 0.209339 3.322627 -0.365277
C 0.208769 3.410816 -0.291918
C 0.369454 3.447833 -0.335039
C 0.526281 3.406071 -0.361898
C 0.615898 3.352210 -0.353644
C 0.933815 3.228423 -0.256169
C 1.151717 3.047610 -0.166820
C 1.382330 2.928121 -0.100777
C 1.622496 2.702723 -0.099164
C 1.651510 2.565492 -0.032603
C 1.787308 2.433265 -0.024895
C 1.957033 2.282596 -0.011264
C 1.796917 1.974623 0.042290
C 1.658406 1.609545 0.084508
C 1.496493 1.112439 0.144886
C 1.509727 0.574608 0.161236
C 1.641803 0.184619 0.150601
C 1.720516 -0.345589 0.152661
C 1.727674 -0.781538 0.219161
C 1.864333 -1.133355 0.213070
C 2.057220 -1.215060 0.174378
C 2.221242 -1.057311 0.128035
C 2.284510 -0.937802 0.146439
C 2.277069 -1.000621 0.176186
C 2.362554 -0.903163 0.251988
C 2.569527 -0.874639 0.169854
C 2.720872 -0.649430 0.168902
C 2.638789 -0.520165 0.180139
C 2.678485 -0.587932 0.255204
C 2.812645 -0.599927 0.308742
C 2.810877 -0.710991 0.374180
C 2.726640 -0.656463 0.414499
C 2.569364 -0.809292 0.547676
C 2.553728 -1.117999 0.636264
C 2.763181 -1.401200 0.799414
C 2.722122 -1.672145 0.864565
C 2.572068 -2.011611 0.987760
C 2.472969 -2.151676 1.092407
C 2.292019 -2.376438 1.163632
C 2.164353 -2.358488 1.244395
C 1.972817 -2.264875 1.338865
C 1.846851 -2.166628 1.349409
C 1.767232 -1.914448 1.356617
C 1.806156 -1.599414 1.405388
C 1.839460 -1.226529 1.427197
C 2.024803 -0.889931 1.477208
C 2.145687 -0.555844 1.475319
C 2.184504 -0.290054 1.497769
C 2.215991 -0.405928 1.600555
C 2.340622 -0.582908 1.733733
C 2.190573 -0.838096 1.744499
C 2.042527 -1.111794 1.783487
C 1.891564 -1.428035 1.871169
C 1.758551 -1.776549 1.976464
C 1.600852 -2.125176 2.006872
C 1.342756 -2.270500 2.054499
C 1.210814 -2.279424 2.077518
C 1.209465 -2.174115 2.163066
C 1.205638 -2.091304 2.224435
C 1.209340 -1.845487 2.269319
C 1.157057 -1.588952 2.217404
C 1.159427 -1.473984 2.344844
C 1.068096 -1.359340 2.383805
C 0.995057 -1.322195 2.430814
C 0.907814 -1.313510 2.498845
C 0.828779 -1.377470 2.542810
C 0.684691 -1.593297 2.575782
C 0.720294 -1.677245 2.688914
C 0.596907 -1.810990 2.652996
C 0.747606 -1.643219 2.615383
C 0.903176 -1.383738 2.624470
C 1.131206 -0.918063 2.477560
C 1.309376 -0.547098 2.450343
C 1.315474 -0.414863 2.545047
C 1.246412 -0.362069 2.645721
C 1.536679 0.180094 2.700367
C 1.205246 0.117579 2.777960
C 1.075781 0.127807 2.778035
C 0.982332 0.132663 2.815151
C 0.962237 0.257263 2.846189
C 0.942114 0.494173 2.749416
C 0.948363 0.708861 2.608058
C 0.748468 0.634513 2.453491
C 0.971534 0.850250 2.337862
C 0.712456 0.677345 2.376036
C 0.590463 0.665794 2.417089
C 0.460639 0.683474 2.332643
C 0.442147 0.830943 2.264181
C 0.370596 1.006411 2.238232
C 0.315449 1.328524 2.208502
C 0.212075 1.682589 2.071857
C 0.317279 2.293527 1.820304
C 0.320877 2.605866 1.688437
C 0.237518 2.838459 1.674351
C 0.163082 2.940711 1.610974
C 0.128658 3.013406 1.567024
C 0.065740 2.931588 1.614856
C 0.000054 2.898737 1.766384
C -0.125373 2.696076 1.972580
C -0.324344 2.395774 2.203536
C -0.370297 2.127127 2.293768
C -0.359569 2.006406 2.322784
C -0.547421 1.735538 2.510116
C -0.595966 1.456235 2.743220
C -0.621348 1.273876 2.826966
C -0.519305 1.177029 2.822770
C -0.456858 1.199173 2.689592
C -0.458839 1.258379 2.676029
C -0.470732 1.125260 2.818939
C -0.335444 1.012107 2.827482
C -0.365739 0.816617 2.773352
C -0.235374 0.609355 2.709828
C -0.240228 0.504987 2.680162
C -0.290103 0.247851 2.854637
C -0.328044 -0.017602 2.951429
C -0.345172 0.024341 2.915680
C -0.432661 0.135986 2.809090
C -0.431675 0.223463 2.695836
C -0.560594 0.274690 2.732514
C -0.671094 0.158953 2.752237
C -0.723325 0.202639 2.638336
C -0.808105 0.255032 2.614977
C -0.916836 0.154922 2.575668
C -1.031959 0.193198 2.587075
C -1.142459 0.320650 2.594360
C -1.412464 0.557131 2.605754
C -1.491865 0.690095 2.609108
C -1.580925 0.808355 2.600353
C -1.684712 0.952953 2.554056
