380
chr4 3D structure from Hi-C (resolution 500000bp)
C -1.887017 -0.455235 -4.313168
C -1.725697 -0.515137 -4.317174
C -1.623994 -0.578854 -4.331674
C -1.490331 -0.573478 -4.351904
C -1.298002 -0.551053 -4.407140
C -1.107393 -0.421383 -4.385529
C -0.889236 -0.158365 -4.356477
C -0.754034 0.068904 -4.332773
C -0.719003 0.274038 -4.308498
C -0.616494 0.505837 -4.270193
C -0.588682 0.620874 -4.257899
C -0.503457 0.682473 -4.213784
C -0.618462 0.713251 -4.208816
C -0.580846 0.640312 -4.236674
C -0.574892 0.722827 -4.190667
C -0.780117 0.857456 -4.154545
C -0.790577 0.998922 -4.113271
C -0.656484 1.191635 -3.931004
C -0.600654 1.408551 -3.839556
C -0.432247 1.580904 -3.744989
C -0.532765 1.857941 -3.628889
C -0.566998 2.136214 -3.454383
C -0.350868 2.388536 -3.281260
C -0.493131 2.544964 -3.204103
C -0.725681 2.723225 -3.231722
C -0.843057 2.861570 -3.165873
C -0.873446 2.897461 -3.142638
C -0.740937 2.881582 -3.103172
C -0.512298 2.684537 -3.252576
C -0.351559 2.590966 -3.278880
C -0.130273 2.664139 -3.186688
C 0.045732 2.713376 -3.135361
C 0.136726 2.777486 -3.100830
C 0.226738 2.916492 -2.958722
C 0.205508 3.124360 -2.777194
C 0.013380 3.450763 -2.473560
C -0.075436 3.684038 -2.275172
C -0.042168 3.774098 -2.188557
C 0.032736 3.830818 -2.098567
C 0.176705 3.931183 -1.888138
C 0.183700 4.047766 -1.753453
C 0.369381 3.979969 -1.773758
C 0.535892 3.981093 -1.707216
C 0.632900 3.953802 -1.610037
C 0.628165 4.027241 -1.409683
C 0.735154 3.960470 -1.466427
C 0.813324 3.728079 -1.699284
C 0.948940 3.439475 -1.963198
C 1.035377 3.296613 -2.048040
C 1.238787 2.960123 -2.313896
C 1.487074 2.694339 -2.608176
C 1.744937 2.488957 -2.829374
C 1.794192 2.583068 -2.621046
C 1.824472 2.743608 -2.403847
C 1.786962 3.056609 -1.964189
C 1.760202 3.304125 -1.632717
C 1.718360 3.625482 -1.216927
C 1.731283 3.780549 -1.017359
C 1.707862 3.838259 -0.889762
C 1.781666 3.768952 -0.862093
C 1.914530 3.792648 -0.723235
C 2.071462 3.646447 -0.791696
C 2.199597 3.546464 -0.771291
C 2.260531 3.513881 -0.729748
C 2.252732 3.593065 -0.405812
C 2.316015 3.618313 -0.142364
C 2.310159 3.725285 0.274530
C 2.305952 3.592619 0.215367
C 2.350491 3.507099 0.203908
C 2.299612 3.191620 -0.172647
C 2.342831 2.860825 -0.560428
C 2.363120 2.583036 -0.943446
C 2.261351 2.114896 -1.555856
C 2.153568 1.566411 -2.353901
C 2.016003 1.175297 -2.742630
C 1.808152 0.704431 -3.270653
C 1.692570 0.420254 -3.476019
C 1.562843 0.126706 -3.643033
C 1.446777 -0.205916 -3.906145
C 1.564859 -0.158251 -3.797455
C 1.780011 -0.044963 -3.716989
C 1.984964 0.084924 -3.596856
C 2.273472 0.324709 -3.308594
C 2.684731 0.744790 -2.747387
C 3.074403 1.102288 -2.308290
C 3.381916 1.511407 -1.880886
C 3.539947 1.809801 -1.408932
C 3.607419 2.092752 -0.855642
C 3.632343 2.401463 -0.349079
C 3.632350 2.682446 0.125852
C 3.532425 2.755498 0.170358
C 3.418199 2.716463 0.035528
C 3.285805 2.401892 -0.335650
C 3.061249 2.087413 -0.767259
C 2.862307 1.739867 -1.327316
C 2.031943 1.081644 -1.975756
C 1.124092 0.334346 -2.605907
C 0.183164 -0.371457 -3.074195
C -0.065434 -0.068704 -2.479522
C -0.778490 -0.483466 -2.548883
C -1.143193 -0.875232 -2.765363
C -0.887347 -0.894002 -2.546708
C -0.096816 -0.665485 -2.293680
C 0.781017 -0.503913 -2.229266
C 1.586490 -0.207651 -2.062601
C 1.853848 -0.816367 -2.718432
C 2.728554 -0.467388 -2.421838
C 3.281033 -0.205558 -2.058539
C 3.176861 -0.363226 -2.118163
C 3.215358 -0.483198 -2.145001
C 3.188865 -0.458698 -1.975876
C 3.348821 -0.440264 -1.783815
C 3.486690 -0.400978 -1.596861
C 3.539869 -0.324665 -1.395748
C 3.652355 -0.198344 -1.142985
C 3.854504 -0.096670 -0.853561
C 3.962488 -0.033060 -0.555226
C 4.112536 0.093121 -0.253582
C 4.175420 0.090114 -0.015222
C 4.130989 0.156133 0.200050
C 4.107824 0.281556 0.460503
C 4.077886 0.357177 0.663996
C 3.974554 0.437195 0.840838
C 3.977576 0.536133 1.070743
C 3.956143 0.553628 1.268970
C 3.942649 0.646136 1.401504
C 3.930089 0.535092 1.533158
C 3.854545 0.297772 1.515948
C 3.882530 0.038873 1.451773
C 3.939001 -0.178799 1.454959
C 3.904886 -0.361035 1.471261
C 3.830271 -0.622023 1.301846
C 3.663019 -0.902033 1.057559
C 3.606740 -0.709225 1.201439
C 3.512426 -0.234278 1.436720
C 3.402724 0.153756 1.626094
C 3.297237 0.056900 1.622033
C 3.356939 -0.063801 1.437103
C 3.444573 -0.067295 1.176548
C 3.624337 -0.121439 1.337617
C 3.641716 -0.520543 1.011880
C 3.782099 -1.029940 0.945653
C 3.904484 -1.563081 0.517475
C 3.935366 -1.678138 0.258557
C 3.802595 -1.747428 0.089568
C 3.670791 -1.854322 0.100232
C 3.517311 -1.931441 -0.226916
C 3.310099 -1.983135 -0.471317
C 2.948106 -2.208073 -1.223290
C 2.564066 -2.253698 -1.472033
C 2.279682 -2.195865 -1.718044
C 2.016379 -2.227841 -1.979641
C 1.710778 -2.243056 -2.280057
C 1.492446 -2.305861 -2.440435
C 1.317049 -2.400923 -2.735286
C 1.433373 -2.546092 -2.663712
C 1.597684 -2.695149 -2.564171
C 1.656228 -2.778842 -2.599054
C 1.624130 -2.920836 -2.621943
C 1.746651 -3.048342 -2.448495
C 1.875622 -3.073324 -2.330696
C 2.031851 -3.058379 -2.147969
C 1.773081 -3.008233 -2.166189
C 1.420647 -3.034294 -2.292974
C 1.464395 -3.063308 -1.989899
C 1.751621 -2.939539 -1.395129
C 1.926059 -2.842447 -0.957348
C 1.897090 -2.775869 -0.690921
C 1.794708 -2.801835 -0.511007
C 1.881213 -2.909875 -0.333573
C 1.813524 -2.913160 -0.373092
C 1.617823 -2.903774 -0.478014
C 1.309012 -2.984830 -0.708743
C 1.113116 -3.021094 -0.835262
C 1.117156 -3.162382 -0.856225
C 1.129686 -3.249273 -0.785634
C 1.282300 -3.327479 -0.623775
C 1.587243 -3.436638 -0.136292
C 1.681292 -3.640129 0.139787
C 1.726276 -3.761601 0.226178
C 1.723863 -3.979899 0.104261
C 1.779212 -4.044778 0.214689
C 1.688382 -4.189196 0.271366
C 1.457482 -4.183939 0.278772
C 1.257055 -4.168778 0.111615
C 1.068700 -4.111933 -0.042633
C 0.936688 -4.035907 -0.093506
C 0.696262 -3.941778 -0.156020
C 0.105273 -3.867139 -0.623715
C -0.269858 -3.728870 -1.007261
C -0.544668 -3.670109 -1.303578
C -0.844192 -3.629272 -1.451495
C -0.445809 -3.382903 -0.997185
C -0.636789 -3.420054 -1.260734
C -0.776151 -3.352071 -1.248534
C -0.691351 -3.388430 -1.091763
C -0.576641 -3.389288 -0.859979
C -0.576582 -3.363283 -0.731846
C -0.538940 -3.391124 -0.587759
C -1.214341 -3.672913 -1.054351
C -1.160844 -3.686370 -0.810945
C -1.103271 -3.709111 -0.626619
C -1.149079 -3.734419 -0.485990
C -1.131300 -3.869804 -0.303531
C -1.000636 -3.925902 -0.020432
C -0.992589 -3.958883 0.209942
C -0.991931 -3.933665 0.384188
C -1.070847 -3.915618 0.580088
C -1.128251 -3.961409 0.736002
C -1.073733 -3.983736 0.999242
C -0.653646 -3.719002 1.331455
C -0.273267 -3.510511 1.604850
C 0.193009 -3.362777 1.818653
C 0.560338 -3.318334 2.017160
C 0.853637 -3.180462 2.139094
C 1.045677 -3.190287 2.310486
C 1.207849 -3.044177 2.330965
C 0.941469 -3.098210 2.212973
C 0.808811 -3.145355 2.213365
C 0.716597 -3.107428 2.340261
C 0.738733 -2.958679 2.471189
C 0.533194 -2.989310 2.522341
C 0.398442 -2.890980 2.536757
C 0.269995 -2.870446 2.616464
C 0.159542 -2.882266 2.637091
C -0.002839 -2.848612 2.684844
C -0.152342 -2.827291 2.645368
C -0.309667 -2.879130 2.639837
C -0.279922 -2.791698 2.734214
C -0.161985 -2.602231 2.957132
C -0.000219 -2.449167 3.128090
C 0.114751 -2.281526 3.417895
C 0.353426 -2.109059 3.555909
C 0.545134 -1.919291 3.674631
C 0.713227 -1.718319 3.746774
C 0.835694 -1.581217 3.774121
C 0.896020 -1.469610 3.698523
C 0.959055 -1.333291 3.793136
C 0.928177 -1.158597 3.754332
C 0.644480 -1.182357 3.539282
C 0.362432 -1.159318 3.376566
C 0.413572 -1.056300 3.330964
C 0.321344 -0.994121 3.269010
C 0.330448 -0.911689 3.143392
C 0.460971 -0.803035 3.053007
C 0.709045 -0.696491 3.075602
C 1.033782 -0.377782 3.251039
C 1.296119 -0.169131 3.397650
C 1.251227 -0.012269 3.455649
C 1.466059 0.257164 3.603307
C 1.604541 0.594291 3.779396
C 1.588640 0.822410 3.785069
C 1.492745 0.971421 3.790217
C 1.339693 0.973125 3.839741
C 1.091584 1.058425 3.735856
C 0.878351 1.034928 3.745008
C 0.800429 1.185540 3.713112
C 0.653360 1.191650 3.698187
C 0.469614 1.220652 3.711869
C 0.422358 1.401881 3.661469
C 0.425814 1.705858 3.576688
C 0.461404 1.700303 3.680677
C 0.452209 1.733823 3.676901
C 0.291803 1.596543 3.790366
C 0.121998 1.443974 3.894198
C -0.031576 1.244786 3.990394
C -0.349729 0.846264 4.077916
C -0.696093 0.319696 4.149193
C -0.897921 0.225302 4.197074
C -1.072803 -0.028678 4.214885
C -1.344188 -0.297451 4.120960
C -1.499871 -0.515257 3.960924
C -1.715724 -0.794113 3.803156
C -1.819669 -0.957454 3.570616
C -1.947954 -1.020308 3.352652
C -2.109250 -1.329958 2.990764
C -2.251866 -1.454717 2.609678
C -2.417786 -1.603446 2.358593
C -2.657544 -1.815735 2.078540
C -2.855058 -1.943764 1.766947
C -3.025372 -2.074499 1.554386
C -3.185953 -2.179802 1.386824
C -3.306454 -2.288247 1.418355
C -3.457379 -2.350196 1.271718
C -3.488939 -2.466013 0.965569
C -3.522883 -2.455968 0.663088
C -3.552666 -2.410655 0.365321
C -3.584966 -2.337433 0.127574
C -3.550113 -2.280099 -0.047640
C -3.524935 -2.092988 -0.255771
C -3.495371 -1.927917 -0.205980
C -3.547884 -1.821638 -0.132961
C -3.546314 -1.665465 0.273316
C -3.429383 -1.503293 0.773799
C -3.376607 -1.281770 1.235593
C -3.311772 -1.039480 1.598726
C -3.353330 -0.823557 1.888375
C -3.280702 -0.688066 2.120926
C -3.167087 -0.526047 2.337984
C -3.111582 -0.456563 2.247531
C -3.095069 -0.414888 2.044687
C -3.178424 -0.459957 1.838864
C -3.319494 -0.617486 1.567511
C -3.345425 -0.757206 1.381309
C -3.445413 -0.805723 1.229486
C -3.528911 -0.671750 1.273137
C -3.478216 -0.529007 1.418763
C -3.489848 -0.331149 1.678436
C -3.366345 -0.078539 1.947135
C -3.281679 0.230812 2.185827
C -2.915119 0.802348 2.404003
C -2.693759 1.195618 2.747072
C -2.568633 1.419647 2.821306
C -2.455741 1.614382 2.891771
C -2.405427 1.757184 2.908900
C -2.331164 1.763845 2.872139
C -1.965925 2.059471 2.932493
C -1.873031 2.071942 2.974462
C -1.788081 2.098166 2.938149
C -1.544160 2.285492 2.995751
C -1.423977 2.458060 3.011672
C -1.318049 2.583283 2.999496
C -1.203001 2.871442 2.935469
C -1.334171 2.792478 2.861431
C -1.580869 2.659697 2.715018
C -1.512548 2.913788 2.590464
C -1.671527 2.880686 2.474096
C -1.846592 2.635999 2.263531
C -1.835506 2.736783 2.079556
C -1.945257 2.727114 1.951736
C -2.063926 2.747136 1.791785
C -1.984102 2.993771 1.712133
C -2.092019 3.035007 1.552463
C -2.096919 3.149146 1.363005
C -2.118234 3.272151 1.334698
C -2.247549 3.110976 1.147630
C -2.389019 2.898079 1.082391
C -2.433317 2.927015 1.028397
C -2.638373 2.732858 0.987842
C -2.768402 2.688901 0.789285
C -2.834363 2.675191 0.682886
C -2.860827 2.835464 0.584785
C -2.933504 2.847489 0.672539
C -3.009477 2.846742 0.652321
C -3.124415 2.756818 0.634378
C -3.235650 2.678445 0.608149
C -3.343005 2.405651 0.750548
C -3.503210 2.191221 0.514336
C -3.633412 2.065965 0.210939
C -3.725353 1.906447 0.097087
C -3.750966 1.926954 -0.066070
C -3.714142 1.928272 -0.180877
C -3.696655 1.971665 -0.427566
C -3.709912 2.089317 -0.640471
C -3.659147 2.197725 -0.540260
C -3.593406 2.152651 -0.381323
C -3.570581 2.288567 -0.463481
C -3.567777 2.227387 -0.427244
C -3.644515 2.117485 -0.525013
C -3.711295 1.904147 -0.512758
C -3.819307 1.572836 -0.480017
C -3.904414 1.302837 -0.524987
C -4.012430 1.077893 -0.625884
C -4.016111 0.823600 -0.660000
C -3.981323 0.651147 -0.783849
C -4.008259 0.372113 -0.826287
C -3.898930 0.175586 -0.865757
C -3.801908 0.080860 -0.943352
C -3.699024 0.012274 -0.893619
C -3.623971 0.054233 -0.910867
C -3.654804 0.058654 -1.194748
C -3.668360 0.161292 -1.409692
C -3.671838 0.269918 -1.579641
C -3.737262 0.313001 -1.771375
C -3.784105 0.279756 -1.980984
C -3.861288 0.155558 -2.195171
C -3.229177 0.695866 -1.728224
C -3.119699 0.762694 -1.590115
C -2.974032 0.752494 -1.440286
C -2.710425 0.830883 -1.243634
