381
chr4 3D structure from Hi-C (resolution 500000bp)
C -3.673895 2.548215 -0.980368
C -3.676826 2.565234 -0.789405
C -3.656349 2.631903 -0.605077
C -3.666571 2.600047 -0.473698
C -3.691676 2.580485 -0.168612
C -3.681250 2.535854 0.019260
C -3.706195 2.332385 0.237942
C -3.759687 2.099529 0.236493
C -3.804581 1.870465 0.263817
C -3.837495 1.668339 0.329569
C -3.844702 1.564016 0.409126
C -3.853466 1.392815 0.456420
C -3.918310 1.278759 0.473397
C -3.923303 1.265416 0.512738
C -3.925483 1.203117 0.606045
C -3.934595 1.175435 0.284601
C -3.936819 1.022897 0.316033
C -3.870987 0.774759 0.281166
C -3.810368 0.626058 0.275448
C -3.764369 0.453913 0.290051
C -3.762437 0.257834 0.023250
C -3.758085 0.102439 -0.232226
C -3.743901 -0.130020 -0.152369
C -3.809333 -0.218552 -0.481468
C -3.933698 -0.316838 -0.742437
C -4.021640 -0.384419 -0.972344
C -4.026618 -0.387831 -1.112727
C -4.035509 -0.402275 -0.964871
C -4.051943 -0.341463 -0.661414
C -4.049569 -0.320046 -0.425246
C -4.027524 -0.429034 -0.272746
C -4.010007 -0.462894 -0.156741
C -4.017181 -0.540654 0.029614
C -3.987504 -0.734376 0.091179
C -3.961387 -0.942297 0.003436
C -3.888833 -1.227292 -0.311472
C -3.867070 -1.363136 -0.591162
C -3.802637 -1.480148 -0.690954
C -3.693328 -1.659607 -0.731990
C -3.600678 -1.827034 -0.896371
C -3.621179 -1.920231 -0.949837
C -3.555811 -1.973531 -0.861778
C -3.560165 -2.048670 -0.647233
C -3.492615 -2.202011 -0.430526
C -3.440104 -2.376525 -0.370185
C -3.473931 -2.316246 -0.143430
C -3.512889 -2.222855 0.046398
C -3.466095 -2.083058 0.257553
C -3.521294 -1.936832 0.502951
C -3.477111 -1.715109 0.792323
C -3.440820 -1.644506 1.071467
C -3.415633 -1.572595 1.349067
C -3.353423 -1.684986 1.332151
C -3.206828 -1.844060 1.342739
C -3.065820 -2.199771 1.191700
C -2.898637 -2.553286 0.972419
C -2.730600 -2.957934 0.694981
C -2.638887 -3.074295 0.515802
C -2.566166 -3.115644 0.445902
C -2.467330 -3.200002 0.428554
C -2.342275 -3.394632 0.359954
C -2.289871 -3.361310 0.439933
C -2.192086 -3.347003 0.604525
C -2.142918 -3.335558 0.762468
C -1.972724 -3.530668 0.773863
C -1.807478 -3.666349 0.778360
C -1.509872 -3.879834 0.768190
C -1.515286 -3.728304 0.958146
C -1.536430 -3.649741 1.136158
C -1.617341 -3.326769 1.263978
C -1.701282 -2.991758 1.492068
C -1.873553 -2.568386 1.724416
C -2.135153 -1.998087 1.931585
C -2.506631 -1.232828 2.177445
C -2.649185 -0.760366 2.211614
C -2.771035 -0.132703 2.328837
C -2.860204 0.292176 2.390060
C -2.904491 0.624192 2.398253
C -2.950126 0.985247 2.464145
C -2.854249 0.958680 2.521188
C -2.864169 0.866517 2.629625
C -2.776101 0.701675 2.789514
C -2.725978 0.354630 2.806226
C -2.432375 -0.465484 2.685338
C -2.117887 -1.158212 2.570161
C -1.934814 -1.746281 2.547681
C -1.834016 -2.147973 2.564857
C -1.633425 -2.552892 2.535687
C -1.445318 -2.950020 2.435057
C -1.225093 -3.301449 2.403192
C -1.385351 -3.040700 2.622227
C -1.590635 -2.721324 2.804980
C -1.663818 -2.513006 2.953016
C -1.728242 -2.152331 2.862543
C -1.841524 -1.814297 2.836754
C -2.220568 -1.093960 2.126736
C -2.517414 -0.328231 1.315042
C -1.918477 -0.650520 0.994701
C -2.136716 -0.265916 0.073967
C -1.750235 -0.731227 -0.314875
C -1.664390 -0.596148 -0.021340
C -1.546919 -0.515033 0.105600
C -1.233428 -0.742897 0.908440
C -1.029964 -0.901754 1.871007
C -1.550323 -0.247779 2.164725
C -1.267285 -0.351503 3.167558
C -1.523848 0.230729 3.622420
C -1.382745 0.113549 3.455157
C -1.275484 0.083746 3.451165
C -1.181628 0.013495 3.555094
C -0.982655 -0.200015 3.486973
C -0.800273 -0.398150 3.488065
C -0.608055 -0.784182 3.433758
C -0.443012 -0.977161 3.355369
C -0.314150 -1.314069 3.341553
C -0.158175 -1.667077 3.301545
C 0.010131 -1.830777 3.258646
C 0.160396 -2.138701 3.172415
C 0.345791 -2.358221 3.094513
C 0.519725 -2.433011 2.975346
C 0.699664 -2.641497 2.811243
C 0.818881 -2.721167 2.779144
C 0.922224 -2.660965 2.715833
C 1.084962 -2.776372 2.622257
C 1.188309 -2.664290 2.670240
C 1.278162 -2.625062 2.742417
C 1.404279 -2.529966 2.812097
C 1.413257 -2.139068 2.977922
C 1.559415 -1.964685 2.993721
C 1.590792 -1.814718 3.131647
C 1.633708 -1.684968 3.161528
C 1.608515 -1.500256 3.195032
C 1.429764 -1.182605 3.248801
C 1.318555 -1.088535 3.423518
C 0.692538 -0.589636 2.549401
C 0.796865 -0.762550 2.400268
C 0.961273 -0.791739 2.206891
C 1.114573 -0.735355 2.198636
C 1.360988 -0.798021 2.146929
C 1.746203 -0.929466 2.057465
C 1.887053 -0.821947 1.912397
C 2.763955 -1.463929 2.684377
C 2.823014 -1.306732 2.734542
C 2.742963 -1.187033 2.932794
C 2.512419 -0.976406 3.024658
C 2.247687 -0.791702 3.170364
C 2.096581 -0.641740 3.245663
C 1.883822 -0.378943 3.282523
C 1.460382 0.042555 3.413736
C 0.997763 0.506886 3.593747
C 0.858013 0.657451 3.424918
C 0.700117 0.751030 3.405155
C 0.658002 0.825283 3.443277
C 0.677281 0.881617 3.358423
C 0.817038 0.888827 3.419170
C 1.079446 0.814176 3.452637
C 1.448448 0.729349 3.404696
C 1.736883 0.759760 3.456794
C 2.201058 0.661364 3.354271
C 2.524371 0.618101 3.153885
C 2.607538 0.659964 3.123057
C 2.453187 0.750780 3.032711
C 2.204606 0.960069 2.948696
C 1.922379 1.151594 2.989938
C 1.677937 1.287427 2.995155
C 1.652390 1.418749 2.900090
C 1.658795 1.573541 2.830082
C 1.484103 1.670154 2.893385
C 1.614973 1.607532 2.752307
C 1.924792 1.565885 2.674001
C 1.799886 1.645019 2.636824
C 1.814304 1.669261 2.554104
C 1.589065 1.765258 2.617519
C 1.408551 1.835977 2.681209
C 1.367222 2.001766 2.711374
C 1.381374 2.177876 2.759046
C 1.299233 2.352183 2.751249
C 1.689903 2.383505 2.603308
C 1.916701 2.477625 2.517867
C 2.043123 2.564240 2.449528
C 1.645689 2.759691 2.450835
C 1.295369 2.878303 2.429304
C 1.053780 3.020917 2.453267
C 0.838327 3.016363 2.455755
C 0.660432 3.046430 2.437892
C 0.306168 3.111252 2.438340
C 0.103413 3.134167 2.360398
C 0.283304 3.172098 2.241318
C 0.231152 3.224839 2.076827
C 0.014065 3.274085 1.952044
C -0.122077 3.439370 1.762747
C -0.419048 3.567890 1.625955
C -0.715992 3.725704 1.507264
C -0.973088 3.876812 1.540708
C -0.974406 3.786106 1.456309
C -0.747427 3.775395 1.429474
C -0.403295 3.688895 1.328742
C -0.093662 3.608805 1.341717
C 0.246043 3.573416 1.311093
C 0.687071 3.533300 1.310720
C 1.019611 3.484100 1.178352
C 1.162790 3.484871 1.094571
C 1.252917 3.534707 0.942724
C 1.205713 3.668868 0.865247
C 0.989381 3.677742 0.734796
C 0.714525 3.733613 0.622754
C 0.432209 3.735777 0.444642
C 0.062379 3.751942 0.352826
C -0.230971 3.833193 0.200571
C -0.333710 3.850334 0.053283
C -0.568290 3.842756 -0.071090
C -0.786446 3.843184 -0.249054
C -0.966036 3.750782 -0.446862
C -1.090816 3.680037 -0.580453
C -0.873370 3.565384 -0.615363
C -0.940346 3.526077 -0.821420
C -1.001001 3.358703 -0.825008
C -0.867967 3.172755 -0.877340
C -0.759001 3.106233 -1.024294
C -0.590197 3.149268 -1.039337
C -0.332752 3.211875 -1.085122
C -0.440666 3.293890 -1.308240
C -0.285068 3.256831 -1.263103
C 0.017645 3.303118 -1.274632
C 0.187768 3.401038 -1.302572
C 0.474737 3.468477 -1.171646
C 0.754019 3.440905 -1.120712
C 0.774897 3.356023 -1.118201
C 0.871371 3.304233 -1.098242
C 0.965728 3.329773 -1.220844
C 0.850673 3.348310 -1.376232
C 0.670400 3.316930 -1.599200
C 0.352387 3.234364 -1.902894
C 0.142254 3.188930 -2.141098
C 0.206035 3.159974 -2.223765
C 0.339615 3.114992 -2.263178
C 0.488915 3.044256 -2.150895
C 0.521641 3.062396 -2.277699
C 0.898392 2.906314 -2.164082
C 1.267963 2.813097 -1.875822
C 1.581160 2.661575 -1.631441
C 1.858554 2.604626 -1.419313
C 2.008806 2.565003 -1.282752
C 2.098820 2.475808 -1.130700
C 2.278230 2.310966 -1.082698
C 2.234692 2.388117 -1.244304
C 2.343469 2.436259 -1.419218
C 2.375335 2.523174 -1.583100
C 2.362050 2.487177 -1.792945
C 2.500536 2.473701 -1.756952
C 2.726956 2.484886 -1.896010
C 2.864776 2.499182 -1.825079
C 3.049165 2.459850 -1.588938
C 3.185897 2.417200 -1.370822
C 3.294986 2.212270 -1.173552
C 3.342340 2.052435 -0.952140
C 3.416497 1.932364 -0.891968
C 3.479523 1.786526 -0.686294
C 3.581516 1.649421 -0.485216
C 3.737620 1.393903 -0.266117
C 3.892858 1.165665 -0.127922
C 3.997821 1.064096 -0.156295
C 4.031134 1.014900 -0.296694
C 4.051084 0.838368 -0.358441
C 4.075820 0.673339 -0.314501
C 4.120411 0.430949 -0.245784
C 4.088771 0.238475 -0.258387
C 4.033654 -0.070533 -0.270254
C 4.072859 -0.333446 -0.169941
C 4.177658 -0.553784 -0.009518
C 4.143209 -0.709303 0.001409
C 4.013662 -0.818678 -0.122446
C 3.945459 -0.903129 -0.295596
C 3.796317 -0.815912 -0.495859
C 3.571661 -0.677865 -0.691705
C 3.360443 -0.571043 -0.722936
C 3.177061 -0.574610 -0.880288
C 3.084696 -0.619849 -0.988615
C 3.058217 -0.857913 -1.077048
C 2.962754 -1.107035 -1.057173
C 2.920219 -1.397803 -1.044434
C 2.956769 -1.670834 -0.982256
C 3.052870 -2.021880 -0.929464
C 3.136742 -2.272444 -0.780127
C 3.098410 -2.530031 -0.623885
C 3.052525 -2.604956 -0.541729
C 2.310614 -2.041322 -0.884215
C 2.361615 -1.972099 -0.816013
C 2.357812 -1.877211 -0.930533
C 2.274869 -1.732518 -1.134566
C 2.251044 -1.366775 -1.429988
C 2.260623 -1.179595 -1.701326
C 2.286795 -0.976891 -1.933980
C 2.955926 -1.288228 -1.794318
C 2.977158 -1.187023 -2.056275
C 2.983821 -1.062826 -2.200101
C 3.055144 -0.875558 -2.375099
C 2.957286 -0.866290 -2.335901
C 2.940517 -0.614786 -2.394323
C 2.758203 -0.394432 -2.395609
C 2.690693 -0.323121 -2.379365
C 2.586949 -0.133147 -2.461494
C 2.468135 -0.117469 -2.515950
C 2.368877 -0.174878 -2.578613
C 2.221504 -0.291406 -2.716866
C 2.095435 -0.405399 -2.873291
C 2.085629 -0.468033 -3.061090
C 2.018089 -0.500210 -3.276585
C 1.895834 -0.550034 -3.428603
C 1.844956 -0.408518 -3.530373
C 1.727057 -0.214525 -3.656668
C 1.736304 0.040356 -3.758404
C 1.580001 0.314527 -3.808450
C 1.487410 0.445951 -3.823060
C 1.414591 0.648070 -3.843033
C 1.234647 0.795533 -3.787191
C 0.995223 0.962979 -3.836993
C 0.767443 1.040369 -3.862662
C 0.593552 0.994395 -3.881934
C 0.389702 1.003007 -3.893027
C 0.102913 1.151631 -3.933522
C -0.187564 1.219893 -3.931594
C -0.370957 1.202716 -3.972210
C -0.411401 1.067647 -3.955173
C -0.444429 0.969269 -3.874497
C -0.709859 0.981356 -3.866165
C -0.725512 0.857115 -3.850949
C -0.521083 0.604922 -3.724856
C -0.498110 0.333841 -3.758644
C -0.555124 0.144211 -3.739462
C -0.708420 0.055927 -3.706600
C -0.965168 -0.021929 -3.748498
C -1.007837 -0.218263 -3.747396
C -1.067230 -0.327330 -3.778544
C -1.138557 -0.387076 -3.835905
C -1.187971 -0.382223 -3.759252
C -0.966322 -0.476404 -3.696389
C -0.771333 -0.659247 -3.723220
C -0.540487 -0.774580 -3.685683
C -0.597218 -0.923501 -3.650430
C -0.706477 -1.040071 -3.585810
C -0.824876 -1.163905 -3.636039
C -0.726701 -1.312910 -3.653632
C -0.923134 -1.377217 -3.714434
C -1.070311 -1.436346 -3.640904
C -1.146204 -1.592248 -3.604569
C -0.852745 -1.649767 -3.538349
C -0.816889 -1.850413 -3.467456
C -0.875129 -2.063322 -3.358298
C -0.822264 -2.127674 -3.310164
C -0.741266 -2.281805 -3.232492
C -0.631303 -2.382063 -3.182012
C -0.612468 -2.540538 -3.084617
C -0.665344 -2.757999 -3.001006
C -0.504955 -2.858522 -2.918744
C -0.337277 -2.840275 -2.868652
C -0.294021 -2.951296 -2.830767
C -0.131697 -2.954196 -2.828824
C 0.016738 -3.028082 -2.825324
C 0.278720 -2.979059 -2.857429
C 0.465292 -2.928481 -2.819117
C 0.684368 -2.897004 -2.768408
C 0.881509 -2.925344 -2.724251
C 0.990982 -2.887449 -2.643926
C 1.065245 -2.885113 -2.495237
C 1.186815 -2.816664 -2.415862
C 1.220654 -2.739934 -2.300745
C 1.278658 -2.590798 -2.350836
C 1.238595 -2.466600 -2.367247
C 1.151125 -2.480226 -2.298327
C 1.188269 -2.716007 -2.075971
C 1.058741 -2.920388 -1.995485
C 0.926808 -3.180089 -1.799384
C 0.858349 -3.433875 -1.663588
C 0.784763 -3.768282 -1.455946
C 0.832817 -4.027568 -1.291379
C 0.947703 -4.237212 -0.922741
C 0.978550 -4.303047 -0.667301
C 1.086749 -4.343866 -0.527900
C 1.174793 -4.367642 -0.431928
C 1.249096 -4.425963 -0.231691
