267
chr12 3D structure from Hi-C (resolution 500000bp)
C -3.170442 1.760488 -2.498528
C -3.219570 1.826163 -2.474695
C -3.180884 1.766197 -2.506487
C -3.093724 1.796965 -2.489592
C -2.865069 1.635903 -2.722175
C -2.850636 1.764303 -2.672516
C -2.778802 1.878929 -2.660485
C -2.673780 1.926945 -2.694650
C -2.483716 1.951208 -2.675883
C -2.298171 1.852226 -2.813324
C -2.222276 1.643046 -3.073244
C -2.156422 1.531287 -3.221406
C -1.944954 1.542534 -3.263512
C -1.867093 1.494677 -3.473137
C -1.731382 1.494753 -3.638974
C -1.675209 1.431833 -3.794822
C -1.555353 1.596580 -3.814285
C -1.320182 1.925173 -3.739802
C -1.447141 2.357909 -3.349444
C -1.201833 2.371115 -3.574351
C -0.999334 2.372225 -3.453157
C -0.837810 2.171501 -3.571883
C -0.642912 2.157277 -3.631344
C -0.649203 2.325032 -3.464918
C -0.726049 2.414239 -3.269903
C -0.395103 2.325918 -3.386121
C -0.487699 2.488767 -2.976767
C -0.476074 2.819184 -2.723511
C -0.491329 3.213816 -2.270668
C -0.474251 3.564873 -1.843797
C -0.393982 3.730084 -1.611004
C -0.392759 3.894448 -1.310825
C -0.467222 4.081545 -0.972920
C -0.428800 4.247529 -0.718939
C -0.317851 4.293113 -0.440785
C -0.131973 4.347363 -0.254964
C -0.053761 4.379906 -0.188243
C 0.030731 4.403949 0.003503
C 0.274265 4.349326 -0.077304
C 0.564459 4.188899 -0.262327
C 0.740189 4.113488 -0.493730
C 0.899211 3.972249 -0.767846
C 1.104426 3.759624 -1.116856
C 1.435347 3.625872 -1.353584
C 1.645068 3.572075 -1.725029
C 1.823673 3.429020 -1.943947
C 1.870941 3.330036 -2.190477
C 1.916149 3.144933 -2.290239
C 1.865778 3.003928 -2.494049
C 1.778806 2.815039 -2.593884
C 1.566256 2.500208 -2.818439
C 1.483226 2.150668 -2.922131
C 1.475574 1.954978 -2.985834
C 1.690488 1.927781 -2.960578
C 1.803668 2.063091 -2.773484
C 1.915009 2.270913 -2.435365
C 1.973073 2.534218 -2.070379
C 2.091934 2.928166 -1.602271
C 2.262266 3.075132 -1.372482
C 2.248833 3.377182 -0.918932
C 1.977816 3.316214 -0.654848
C 1.873474 3.345077 -0.408682
C 1.912150 3.267050 -0.244789
C 1.897664 3.392369 0.056851
C 1.888213 3.416111 0.356689
C 1.746171 3.653715 0.852872
C 1.277559 3.760292 1.086160
C 0.753272 4.087650 1.480928
C 0.164497 4.195213 1.709374
C -0.438519 4.349781 2.088568
C -0.873709 4.335541 2.338316
C -1.204268 4.330526 2.552979
C -1.279702 4.295224 2.702459
C -0.573198 4.083464 2.616585
C 0.282325 3.778075 2.399691
C 1.210115 3.456549 2.097446
C 2.066613 3.176649 1.644922
C 2.697726 2.795841 1.131385
C 3.305674 2.454224 0.572686
C 3.755291 2.030559 -0.075023
C 3.733750 1.706937 -0.399315
C 3.593618 1.397482 -0.672530
C 3.536701 1.180101 -0.961300
C 3.474501 0.937639 -1.168386
C 3.531180 0.694271 -1.419741
C 3.404965 0.508568 -1.458231
C 3.376815 0.345808 -1.622616
C 3.323259 0.144140 -1.856950
C 3.363433 0.062864 -1.996070
C 3.234632 -0.150802 -2.166686
C 3.122602 -0.380175 -2.447811
C 2.882576 -0.493169 -2.604812
C 2.650545 -0.682338 -2.902865
C 2.274124 -0.828493 -3.126534
C 1.935486 -1.000383 -3.379602
C 1.572961 -1.191874 -3.670188
C 1.179386 -1.425459 -3.820569
C 0.673237 -1.658099 -3.833690
C 0.316187 -1.885155 -3.862275
C 0.022845 -2.090263 -3.974803
C -0.207085 -2.248262 -3.912019
C -0.390817 -2.256116 -3.837421
C -0.538967 -2.281745 -3.617122
C -0.627964 -2.125113 -3.648881
C -0.585605 -1.947463 -3.674356
C -0.428789 -1.876483 -3.705781
C -0.159431 -1.862325 -3.548662
C 0.176987 -1.886142 -3.463962
C 0.499514 -1.972396 -3.387738
C 0.678654 -2.186495 -3.405755
C 0.877526 -2.430200 -3.122885
C 0.964029 -2.658391 -2.985155
C 1.069027 -2.632278 -2.840359
C 1.304831 -2.444223 -2.588145
C 1.575068 -2.370299 -2.376728
C 1.954730 -2.321074 -2.157746
C 2.513304 -1.922492 -1.799415
C 3.081834 -1.616009 -1.516769
C 3.768236 -1.221533 -1.069312
C 4.209025 -0.967176 -0.663245
C 4.395558 -0.931307 -0.545386
C 4.382911 -0.943025 -0.325535
C 4.231110 -0.945523 -0.141720
C 4.174008 -1.071606 -0.032419
C 4.010773 -1.272807 -0.039657
C 3.710884 -1.655652 -0.214994
C 3.318356 -2.040436 -0.422500
C 3.167152 -2.437093 -0.517327
C 3.020280 -2.703914 -0.613803
C 2.804603 -2.920546 -0.669825
C 2.595477 -3.056271 -0.695185
C 2.397995 -3.075721 -0.591014
C 2.267771 -3.104601 -0.466868
C 2.277073 -3.224291 -0.381733
C 2.051842 -3.220245 -0.326526
C 1.886264 -3.052120 -0.277737
C 1.991996 -3.029066 -0.058854
C 2.054369 -2.991378 0.160635
C 2.165109 -2.779186 0.347119
C 2.368192 -2.405002 0.606897
C 2.504375 -2.126614 0.846025
C 2.847106 -1.783427 1.171312
C 3.171461 -1.210284 1.601934
C 3.378651 -0.622125 1.810200
C 3.578712 -0.221550 1.926225
C 3.675645 -0.162933 2.088575
C 3.662540 -0.284226 2.282446
C 3.811005 -0.246791 2.474341
C 3.631016 -0.447233 2.434766
C 3.425930 -0.974705 2.337617
C 3.259623 -1.297592 2.347446
C 3.048637 -1.638524 2.366211
C 2.952181 -1.562430 2.374412
C 2.810904 -1.405755 2.413851
C 2.642935 -1.127806 2.607127
C 2.674368 -0.705959 2.850120
C 2.736148 -0.253008 3.058423
C 2.656515 -0.177549 3.278030
C 2.518665 -0.028188 3.379766
C 2.432703 -0.012284 3.546100
C 2.363142 0.054135 3.612476
C 2.211478 0.087675 3.633923
C 1.975731 0.236158 3.655664
C 1.769576 0.181080 3.647990
C 1.655239 0.461614 3.654962
C 1.558307 0.900270 3.794982
C 1.416034 1.096979 3.831708
C 1.180815 1.264106 3.950758
C 1.030643 1.298532 4.027923
C 0.812598 1.288272 4.159737
C 0.554337 1.446529 4.350120
C 0.348597 1.304495 4.427136
C 0.117678 1.008210 4.490783
C -0.072762 0.697195 4.540720
C -0.048853 0.332905 4.509222
C -0.027160 -0.131589 4.418237
C 0.123132 -0.763837 4.190966
C 0.303475 -1.243380 4.074037
C 0.362758 -1.534678 4.038829
C 0.502582 -1.835762 3.900503
C 0.564046 -1.920009 3.730152
C 0.604624 -2.177654 3.432922
C 0.567072 -2.305731 3.205669
C 0.513362 -2.398568 3.085871
C 0.431933 -2.691378 2.803575
C 0.384674 -2.897937 2.493037
C 0.261219 -3.076740 2.232017
C 0.095964 -3.415990 2.042811
C -0.135341 -3.426088 1.940309
C -0.362328 -3.456926 1.931562
C -0.553209 -3.368639 2.053334
C -0.729159 -3.098976 2.207392
C -0.924137 -2.822485 2.447076
C -1.075651 -2.602894 2.630545
C -1.154989 -2.484980 2.785475
C -1.130575 -2.390416 2.889752
C -1.094387 -2.067150 3.068374
C -1.219723 -1.994622 3.142896
C -1.292640 -2.070540 3.189253
C -1.204390 -2.459502 2.817668
C -1.135304 -2.736917 2.466583
C -1.133857 -2.942721 2.103049
C -1.152529 -3.262786 1.815030
C -1.136392 -3.761733 1.381106
C -1.052596 -3.886714 0.917832
C -1.057264 -4.068724 0.346602
C -1.180810 -3.904350 0.137533
C -1.299104 -3.790015 0.073528
C -1.470273 -3.499316 0.166520
C -1.668490 -3.211047 0.194829
C -1.857979 -2.958871 0.179215
C -2.102217 -2.902175 0.182426
C -2.295204 -2.775522 0.350651
C -2.490123 -2.835060 0.398022
C -2.646196 -2.865644 0.275285
C -2.709613 -2.929449 0.047641
C -2.835094 -2.945368 -0.180653
C -2.905383 -2.982850 -0.503525
C -2.821037 -3.050453 -0.742856
C -2.776021 -3.170592 -1.104159
C -2.757318 -3.090568 -1.460289
C -2.905241 -3.022649 -1.619406
C -3.074629 -2.934808 -1.525610
C -3.194810 -2.769775 -1.415978
C -3.324546 -2.473956 -0.892863
C -3.532944 -2.023426 -0.279704
C -3.656282 -1.524732 0.357606
C -3.722753 -1.157630 1.117622
C -3.670193 -0.882955 1.684108
C -3.630293 -0.814185 1.883780
C -3.692015 -0.709400 2.171040
C -3.655228 -0.716940 2.070439
C -3.612033 -0.811904 1.868720
C -3.714180 -0.937998 1.593978
C -3.827585 -0.899661 1.412596
C -3.889004 -1.004404 1.311671
C -3.922858 -0.847357 1.107405
C -3.891894 -0.903159 0.688843
C -3.885189 -1.003585 0.260537
C -3.923552 -1.049119 -0.322102
C -3.877790 -1.105696 -0.706773
C -3.789961 -1.321502 -1.304933
C -3.842677 -1.209827 -1.793094
C -3.856630 -1.219517 -1.997394
C -3.951688 -0.988450 -1.962125
C -4.051127 -0.712580 -1.684100
C -4.060687 -0.637189 -1.337845
C -3.890732 -0.362052 -0.719704
C -3.813719 0.040730 0.140349
C -3.590635 0.410586 0.892509
C -3.404802 0.715137 1.516706
C -3.096262 0.872777 2.137552
C -2.860111 1.084439 2.609183
C -2.768616 1.354860 3.040045
C -2.783064 1.403462 3.035644
C -2.886855 1.451844 2.895408
C -2.974377 1.380174 2.802012
C -3.056505 1.449771 2.694717
C -3.115966 1.356311 2.398498
C -3.323681 1.255324 2.098425
C -3.450548 1.182976 1.773084
C -3.660035 1.233217 1.518093
C -3.734799 1.337147 1.237617
C -3.832137 1.496442 0.970081
C -3.897534 1.424223 0.740248
C -4.066982 1.547081 0.635794
C -4.127663 1.713018 0.493996
