267
chr12 3D structure from Hi-C (resolution 500000bp)
C -2.543433 -0.181642 -3.767694
C -2.669963 0.123505 -3.668186
C -2.741038 0.283620 -3.564804
C -2.742414 0.416030 -3.502567
C -2.647450 0.659569 -3.325864
C -2.722777 0.974417 -3.182376
C -2.770748 1.206554 -3.176369
C -2.688542 1.409830 -3.105181
C -2.540534 1.367447 -3.104561
C -2.402579 1.314177 -3.164442
C -2.361940 1.264789 -3.307702
C -2.403098 1.387539 -3.311321
C -2.277147 1.439042 -3.319119
C -2.388401 1.677816 -3.120395
C -2.458491 1.881080 -3.027124
C -2.357653 2.059399 -3.052644
C -2.186032 2.217304 -3.122375
C -1.932881 2.390721 -3.117790
C -1.456247 2.205867 -3.458810
C -1.184060 2.027309 -3.789436
C -0.805951 1.726151 -4.053724
C -0.433840 1.454103 -4.344294
C -0.236904 1.308572 -4.452187
C -0.034817 1.273148 -4.483232
C 0.097477 1.378763 -4.442289
C 0.181915 1.583167 -4.259133
C 0.292240 1.833436 -3.934387
C 0.569443 2.120003 -3.817207
C 0.860397 2.353456 -3.643943
C 1.152476 2.587245 -3.386165
C 1.446896 2.848374 -3.083602
C 1.745683 3.064690 -2.494084
C 1.950527 3.299369 -1.929684
C 2.163064 3.481217 -1.580546
C 2.230013 3.614710 -1.215321
C 2.255401 3.820357 -0.775172
C 2.319121 3.943215 -0.637207
C 2.233163 4.024427 -0.590335
C 2.175994 3.982003 -0.856894
C 2.054348 3.913029 -0.940743
C 1.808648 4.004838 -1.039431
C 1.671060 3.971105 -1.135768
C 1.464770 3.951033 -1.347387
C 1.126382 4.098888 -1.220366
C 0.712169 4.230773 -1.085856
C 0.387066 4.245765 -1.046816
C 0.166464 4.245913 -1.250001
C 0.156948 4.011420 -1.435296
C 0.065592 3.945652 -1.475779
C -0.096634 3.782741 -1.554249
C -0.195714 3.489609 -1.785332
C -0.020612 3.084730 -1.978742
C 0.080187 2.930448 -2.099956
C -0.155768 3.075495 -1.952471
C -0.099194 3.255951 -1.639128
C -0.290777 3.320953 -1.572494
C -0.134459 3.496503 -1.211527
C 0.030286 3.727045 -0.838904
C -0.014864 4.005080 -0.605168
C -0.239767 4.192083 -0.294233
C 0.005205 3.798905 -0.415118
C -0.224033 3.744033 -0.331625
C -0.009963 3.708947 -0.111092
C 0.057017 3.747667 0.116673
C 0.054852 3.784534 0.340619
C 0.016183 3.866078 0.698204
C -0.019198 3.907615 1.008064
C -0.487204 4.282630 1.454981
C -0.827923 4.353518 1.674243
C -1.248580 4.467642 2.002508
C -1.597664 4.430881 2.243430
C -1.748840 4.356127 2.459562
C -1.571299 4.317829 2.602621
C -0.892133 4.140873 2.526514
C 0.049578 3.779802 2.089393
C 1.001797 3.525494 1.775808
C 1.916123 3.290628 1.311784
C 2.521420 2.877293 0.631532
C 3.124147 2.555634 0.078732
C 3.499211 2.162748 -0.333515
C 3.511102 1.890820 -0.729895
C 3.315834 1.630607 -0.805861
C 3.287472 1.432958 -1.040276
C 3.230678 1.138172 -1.307584
C 3.266699 1.016984 -1.438358
C 3.168623 0.759639 -1.676814
C 3.178227 0.573780 -2.055619
C 3.110395 0.289559 -2.333024
C 3.147320 0.221362 -2.474855
C 3.013488 -0.026332 -2.676588
C 2.847674 -0.221012 -2.909240
C 2.662914 -0.450813 -3.033818
C 2.431573 -0.611394 -3.195983
C 2.062295 -0.902124 -3.373011
C 1.655114 -1.109765 -3.533072
C 1.348648 -1.430625 -3.712918
C 0.910860 -1.658865 -3.830360
C 0.441088 -1.869551 -3.787373
C 0.063448 -2.022042 -3.850675
C -0.231173 -2.227475 -3.942866
C -0.547443 -2.308404 -3.839116
C -0.705122 -2.344665 -3.686411
C -0.861642 -2.199689 -3.464538
C -0.893528 -2.399897 -3.328788
C -0.823567 -2.564728 -3.194044
C -0.725259 -2.663502 -3.122503
C -0.445983 -2.520658 -3.040592
C -0.007203 -2.569631 -3.003246
C 0.313294 -2.700592 -2.965595
C 0.493157 -3.004258 -2.996810
C 0.715162 -2.963303 -2.906876
C 0.816591 -2.962334 -2.866574
C 0.994920 -2.915478 -2.770696
C 1.249528 -2.799111 -2.484676
C 1.615156 -2.446756 -2.263576
C 2.145004 -1.968528 -2.063642
C 2.668753 -1.624405 -1.864543
C 3.274941 -1.135952 -1.505944
C 3.953516 -0.730932 -1.222201
C 4.455859 -0.386032 -0.842240
C 4.625844 -0.336049 -0.719081
C 4.534141 -0.470007 -0.617459
C 4.311901 -0.777483 -0.578919
C 4.332749 -0.770447 -0.499205
C 4.110282 -1.158776 -0.664703
C 3.842513 -1.495531 -0.783612
C 3.497870 -1.860429 -0.994359
C 3.323786 -2.316058 -1.007060
C 3.201709 -2.642846 -1.033591
C 3.141252 -2.790123 -0.964761
C 2.903725 -2.961387 -0.883514
C 2.798688 -2.930292 -0.695489
C 2.649192 -2.968360 -0.477362
C 2.560301 -3.090638 -0.442444
C 2.366874 -3.094720 -0.471011
C 2.249283 -2.898609 -0.348914
C 2.284461 -2.853640 -0.155936
C 2.379083 -2.794800 0.024137
C 2.506613 -2.537084 0.227746
C 2.717511 -2.178173 0.362367
C 2.920302 -1.765122 0.678478
C 3.256159 -1.336788 1.006347
C 3.608808 -0.985526 1.259649
C 3.749393 -0.518145 1.452855
C 3.880020 -0.006492 1.694454
C 3.918114 0.211361 1.845617
C 3.899710 0.357487 2.049601
C 4.041015 0.404713 2.249395
C 3.933421 0.158356 2.229348
C 3.646217 -0.226676 2.200508
C 3.443331 -0.633870 2.168957
C 3.311742 -1.033481 2.163541
C 3.195152 -1.398310 2.203604
C 3.125424 -1.611774 2.267597
C 2.935230 -1.703093 2.430547
C 2.853248 -1.593617 2.748800
C 2.914711 -1.702699 2.834468
C 2.930036 -1.694918 3.021413
C 2.827668 -1.564272 3.149741
C 2.775092 -1.340119 3.282825
C 2.685344 -1.067410 3.372539
C 2.615130 -0.747428 3.314126
C 2.409502 -0.371202 3.338567
C 2.283274 0.145688 3.417641
C 2.167890 0.648260 3.505068
C 2.143989 1.021996 3.571004
C 1.993184 1.245168 3.613515
C 1.825613 1.451624 3.666825
C 1.669864 1.555194 3.793123
C 1.578501 1.620713 3.903446
C 1.283328 1.728372 4.180359
C 1.020282 1.637417 4.291230
C 0.735508 1.354011 4.380321
C 0.508832 1.128969 4.478825
C 0.366236 0.749882 4.542892
C 0.269918 0.376900 4.543418
C 0.323352 -0.112054 4.382247
C 0.487118 -0.406512 4.244370
C 0.614480 -0.682807 4.213614
C 0.711269 -0.912624 4.114317
C 0.799489 -1.201098 3.915645
C 0.878759 -1.619542 3.528112
C 0.930931 -1.964800 3.182533
C 0.769493 -2.250554 2.855455
C 0.654351 -2.681774 2.649918
C 0.479266 -3.098704 2.254093
C 0.349184 -3.389553 1.938361
C 0.296256 -3.645032 1.648624
C 0.126767 -3.617075 1.684539
C -0.086367 -3.724340 1.709628
C -0.094885 -3.660242 1.958726
C -0.242065 -3.412846 2.135632
C -0.345022 -3.102853 2.503250
C -0.371782 -3.003857 2.659572
C -0.493564 -2.859207 2.916259
C -0.544702 -2.691055 3.069996
C -0.521243 -2.415414 3.226847
C -0.654445 -2.428492 3.219590
C -0.742569 -2.465258 3.220631
C -0.813947 -2.598489 3.088123
C -0.952890 -2.660197 2.855466
C -1.037513 -2.863439 2.517278
C -1.101802 -3.210724 2.220603
C -1.156138 -3.607888 1.777840
C -1.196090 -3.604051 1.371112
C -1.335561 -3.814699 0.839354
C -1.389792 -3.865118 0.456620
C -1.527458 -3.823131 0.394391
C -1.709482 -3.554125 0.502969
C -1.828744 -3.256970 0.528418
C -2.003392 -2.987076 0.671114
C -2.211472 -2.928452 0.854795
C -2.322017 -2.812353 0.964859
C -2.510589 -2.803814 0.910631
C -2.577908 -2.861450 0.697448
C -2.654629 -2.901107 0.415961
C -2.823761 -2.952314 0.135895
C -2.951564 -2.982468 -0.257008
C -3.026336 -2.919121 -0.637382
C -3.168981 -2.875203 -0.926110
C -3.270080 -2.804085 -1.225260
C -3.392141 -2.828258 -1.295345
C -3.523548 -2.822547 -1.199145
C -3.598833 -2.752505 -1.057734
C -3.738778 -2.521811 -0.653162
C -3.746651 -2.271238 -0.027733
C -3.609462 -1.962480 0.605375
C -3.513021 -1.670318 1.320530
C -3.524976 -1.353258 1.872002
C -3.520640 -1.184375 2.099449
C -3.519620 -1.157015 2.365186
C -3.452857 -1.095278 2.415967
C -3.487485 -1.059537 2.232074
C -3.657069 -1.026059 2.022506
C -3.812419 -1.000166 1.810180
C -3.879385 -0.878263 1.740672
C -3.884591 -0.829064 1.530787
C -3.954633 -0.684777 1.143132
C -3.976488 -0.726662 0.736660
C -4.076456 -0.803891 0.211196
C -4.147248 -0.821707 -0.186367
C -4.199874 -0.785200 -0.573276
C -4.311507 -0.688116 -0.991488
C -4.331336 -0.629676 -1.172485
C -4.427201 -0.349073 -1.162181
C -4.534839 -0.146079 -0.937887
C -4.462345 0.015081 -0.651108
C -4.210440 0.094782 -0.245813
C -3.918091 0.256799 0.431346
C -3.651632 0.509501 1.060571
C -3.403146 0.779678 1.716158
C -3.026196 0.831930 2.353002
C -2.744740 1.041069 2.841728
C -2.564561 1.219103 3.279473
C -2.545166 1.347179 3.365715
C -2.574611 1.427057 3.298594
C -2.601508 1.367982 3.249515
C -2.731842 1.479228 3.157628
C -2.833038 1.429269 2.945537
C -3.006189 1.321932 2.634090
C -3.186641 1.242722 2.282234
C -3.348363 1.293278 2.006553
C -3.559958 1.376555 1.589143
C -3.697976 1.498916 1.268454
C -3.769115 1.415393 1.000906
C -3.930497 1.509669 0.730730
C -3.994425 1.677294 0.538770
