102
chr22 3D structure from Hi-C (resolution 500000bp)
C -1.495121 3.251956 -2.935938
C -1.040907 3.382008 -2.858176
C -0.593016 3.467377 -2.742160
C -0.160807 3.472269 -2.647692
C 0.649426 3.478982 -2.572976
C 1.425672 3.324900 -2.523364
C 2.107306 2.993823 -2.466713
C 2.703348 2.497723 -2.392138
C 3.199614 1.818822 -2.310972
C 3.529975 0.978288 -2.265489
C 3.677445 0.149895 -2.296323
C 3.647758 -0.472212 -2.439276
C 3.436060 -0.918927 -2.637406
C 3.004509 -1.218345 -2.888644
C 2.363725 -1.378460 -3.185792
C 1.558297 -1.428779 -3.505081
C 0.723817 -1.428049 -3.782729
C -0.003269 -1.509537 -3.939047
C -0.507408 -1.790129 -3.903135
C -0.738164 -2.174664 -3.715932
C -0.650264 -2.539175 -3.500617
C -0.342856 -2.820277 -3.327456
C 0.091590 -2.581536 -3.297484
C 0.511889 -2.108112 -3.355820
C 0.747995 -1.476860 -3.481970
C 0.679833 -0.788688 -3.640641
C 0.289389 -0.124627 -3.804570
C -0.374982 0.402497 -3.873806
C -1.163979 0.692199 -3.802198
C -1.921240 0.336807 -3.483671
C -2.529848 -0.131380 -2.969370
C -2.836094 -0.464536 -2.287638
C -2.877541 -0.656390 -1.623509
C -3.006094 -0.598374 -1.129344
C -3.073694 -0.425412 -0.759257
C -2.823459 -0.220727 -0.326726
C -2.490083 0.177408 -0.028539
C -2.229659 0.749609 0.081734
C -1.998178 1.168332 0.147170
C -1.990000 1.666527 0.083659
C -1.494923 1.856080 0.308423
C -0.928550 2.099033 0.579633
C -0.676219 2.529776 0.665002
C -0.628956 2.906474 0.765969
C -0.577056 3.065215 0.951947
C -0.669106 3.068383 1.035698
C -0.759478 2.737924 1.284952
C -1.085942 2.486379 1.365978
C -1.394966 2.117373 1.426851
C -1.616596 1.621895 1.590880
C -1.725890 1.128328 1.696368
C -1.911288 0.566053 1.703759
C -2.089801 0.197141 1.726893
C -2.206047 -0.045386 1.752862
C -2.288333 -0.201983 1.777746
C -2.206550 -0.055873 1.931475
C -2.035245 0.108423 2.005449
C -1.873444 0.319116 2.164900
C -1.571373 0.560159 2.352216
C -1.221689 0.788959 2.507913
C -0.888659 0.932761 2.609121
C -0.635165 0.921561 2.690290
C -0.587996 0.535483 2.649273
C -0.656331 0.124638 2.697406
C -0.646640 -0.251716 2.682763
C -0.759349 -0.624465 2.602611
C -0.939414 -1.040303 2.529763
C -0.883242 -1.192851 2.485443
C -0.612458 -1.263328 2.637874
C -0.302924 -1.083528 2.674357
C 0.041515 -0.903350 2.651160
C 0.357699 -0.670714 2.608230
C 0.742599 -0.251754 2.567815
C 1.276353 0.229598 2.510291
C 1.739417 0.576886 2.347051
C 1.953057 0.882433 2.069606
C 2.256361 1.044713 1.896647
C 2.500051 1.217648 1.713225
C 2.733951 1.226740 1.536107
C 2.942546 1.136271 1.419173
C 2.958361 0.914553 1.374566
C 2.969328 0.615156 1.418678
C 2.868006 0.454212 1.387648
C 2.581090 0.218773 1.410381
C 2.285146 -0.121242 1.463516
C 1.968611 -0.435679 1.565939
C 1.599396 -0.787608 1.663682
C 1.384923 -1.107886 1.662607
C 1.133325 -1.374427 1.666885
C 1.032518 -1.779578 1.646281
C 0.833119 -1.990790 1.567174
C 0.565038 -2.202635 1.469173
C 0.239164 -2.436746 1.276043
C 0.014426 -2.589809 1.106828
C -0.256277 -2.780711 0.935087
C -0.590695 -2.993606 0.725260
C -0.853148 -2.938505 0.673341
C -0.693852 -3.093033 0.573661
C -0.289784 -3.003871 0.456179
C -0.139030 -2.944954 0.432814
C 0.031114 -2.949038 0.383691
C 0.226726 -2.816269 0.389691
