102
chr22 3D structure from Hi-C (resolution 500000bp)
C -1.651071 3.281521 -2.871970
C -1.204637 3.405420 -2.823261
C -0.759523 3.479285 -2.748340
C -0.328759 3.481909 -2.683260
C 0.472903 3.504411 -2.626099
C 1.261128 3.369321 -2.584049
C 1.983490 3.061034 -2.523401
C 2.634730 2.584793 -2.428614
C 3.176807 1.909498 -2.317388
C 3.541236 1.122725 -2.273877
C 3.711429 0.405792 -2.351460
C 3.697475 -0.103557 -2.520448
C 3.509416 -0.457272 -2.735697
C 3.108819 -0.718572 -3.014747
C 2.492831 -0.872839 -3.352694
C 1.716911 -0.893227 -3.714724
C 0.904836 -0.899803 -3.995496
C 0.182311 -1.053366 -4.110546
C -0.333723 -1.421351 -4.066691
C -0.609063 -1.900619 -3.914044
C -0.584267 -2.377947 -3.653279
C -0.297413 -2.770895 -3.399432
C 0.112273 -2.985959 -3.249414
C 0.487234 -2.559231 -3.276149
C 0.725403 -1.952960 -3.364400
C 0.670802 -1.284074 -3.486424
C 0.306855 -0.632925 -3.603165
C -0.346168 -0.087807 -3.696893
C -1.164177 0.300770 -3.708254
C -1.963015 0.450747 -3.521819
C -2.560471 -0.001853 -3.020796
C -2.933364 -0.324797 -2.379342
C -2.942562 -0.461669 -1.685520
C -3.077413 -0.396421 -1.181034
C -3.097599 -0.052806 -0.819195
C -2.818188 0.253282 -0.271323
C -2.551742 0.725780 0.148734
C -2.306057 1.328630 0.412574
C -2.014507 1.709785 0.576713
C -1.951598 2.145941 0.537401
C -1.453691 2.305372 0.807246
C -0.962416 2.424713 1.074618
C -0.637839 2.755727 1.068425
C -0.430499 2.988659 1.106209
C -0.338893 3.097733 1.179015
C -0.395086 3.076921 1.251268
C -0.522246 2.653763 1.385719
C -0.817432 2.345674 1.364379
C -1.126432 1.926472 1.414208
C -1.475211 1.354163 1.538926
C -1.627504 0.800344 1.581577
C -1.812479 0.189601 1.506972
C -2.064489 -0.249380 1.392338
C -2.229126 -0.428963 1.419259
C -2.326590 -0.440356 1.521726
C -2.223927 -0.446346 1.728103
C -2.058555 -0.287678 1.869979
C -1.922781 -0.067836 2.064825
C -1.666799 0.135524 2.333447
C -1.339730 0.370950 2.643374
C -1.011467 0.470425 2.811460
C -0.767186 0.287383 2.855247
C -0.720789 0.004292 2.755440
C -0.811319 -0.408853 2.650078
C -0.933237 -0.890889 2.491918
C -1.091748 -1.259398 2.263669
C -1.302147 -1.655879 2.013079
C -1.250489 -1.831057 1.948840
C -1.049873 -1.896630 2.082712
C -0.785725 -1.654937 2.126702
C -0.416467 -1.317182 2.229414
C 0.016509 -0.902321 2.349684
C 0.470092 -0.404849 2.488609
C 1.004959 0.142861 2.568020
C 1.465048 0.584816 2.498897
C 1.716952 0.971600 2.273607
C 2.011385 1.209241 2.088205
C 2.276559 1.331245 1.896571
C 2.468030 1.367847 1.734114
C 2.698094 1.311424 1.548469
C 2.846665 1.119882 1.460187
C 2.882533 0.840040 1.459369
C 2.788060 0.709478 1.430625
C 2.652979 0.402772 1.524528
C 2.352401 0.090509 1.525816
C 2.111589 -0.217739 1.536246
C 1.785449 -0.528516 1.657252
C 1.572469 -0.847874 1.717609
C 1.311300 -1.134101 1.693267
C 1.252584 -1.503133 1.646284
C 1.030590 -1.683063 1.554519
C 0.842068 -1.941576 1.460397
C 0.504946 -2.204880 1.297808
C 0.210442 -2.460419 1.079530
C -0.177607 -2.646447 0.865202
C -0.429995 -2.811605 0.727062
C -0.573374 -2.774821 0.697184
C -0.373167 -2.939427 0.601637
C 0.024050 -2.946622 0.561838
C 0.212529 -2.931209 0.593653
C 0.462117 -2.875336 0.633500
C 0.896794 -2.760448 0.702131
