181
chr16 3D structure from Hi-C (resolution 500000bp)
C -3.803357 -0.339301 -0.613024
C -3.800192 -0.475954 -0.689937
C -3.738835 -0.547589 -0.749785
C -3.619100 -0.509718 -0.816150
C -3.429324 -0.400613 -0.949623
C -3.289166 -0.339005 -1.052505
C -3.023976 -0.370615 -1.116666
C -2.505576 -0.115254 -1.136912
C -1.865792 0.352928 -1.090293
C -1.274678 0.881013 -1.078016
C -0.792060 1.321468 -1.018095
C -0.291969 1.775495 -0.939412
C 0.253912 2.122017 -0.919780
C 0.618815 2.475940 -0.909691
C 0.543221 2.437794 -0.951939
C 0.363610 2.329048 -1.020633
C 0.244545 2.173559 -1.085261
C 0.056829 2.011904 -1.205969
C -0.292667 1.705027 -1.291113
C -0.755076 1.332358 -1.473801
C -1.176829 0.974460 -1.645212
C -1.228252 0.927900 -1.722277
C -1.233099 0.908422 -1.815695
C -1.205759 0.986667 -1.888116
C -1.125041 1.049495 -1.907926
C -1.151039 1.135263 -1.978101
C -1.303582 1.657332 -1.264208
C -1.490772 2.154078 -0.552376
C -1.944288 2.477386 -0.003576
C -2.488781 2.767528 0.426860
C -3.076674 2.996131 0.762220
C -3.248092 2.814550 0.759418
C -3.110899 2.937255 0.719558
C -2.844548 2.921942 -0.006432
C -2.652645 2.662903 -0.765393
C -2.163389 2.363178 -1.401440
C -1.617809 2.004117 -1.945848
C -1.014950 1.621880 -2.391853
C -0.898012 1.565047 -2.554747
C -0.986583 1.366925 -2.744823
C -1.042078 0.785459 -2.877577
C -0.936638 0.511371 -2.964565
C -0.881625 0.474322 -3.074109
C -0.962216 0.313579 -3.110912
C -1.124568 0.024316 -3.114909
C -0.990489 -0.003175 -3.101096
C -0.835856 -0.141990 -3.008158
C -0.588588 -0.009417 -2.857661
C -0.278778 0.213185 -2.675491
C -0.064632 0.389475 -2.533785
C 0.192072 0.627870 -2.428212
C 0.224286 0.698156 -2.360609
C 0.153379 0.657595 -2.259606
C 0.015774 0.602695 -2.215490
C -0.349384 0.417621 -2.272375
C -0.881188 0.055455 -2.352909
C -1.441923 -0.419854 -2.360483
C -1.982623 -0.761198 -2.385655
C -2.209893 -0.876382 -2.354551
C -2.381170 -0.850856 -2.217281
C -2.250300 -0.481429 -1.933689
C -2.071418 0.332044 -1.377223
C -1.773667 1.212577 -0.698660
C -1.483230 2.133742 -0.034652
C -1.062983 3.020938 0.314752
C -0.532708 3.847137 0.647510
C 0.011972 4.256730 0.890500
C 0.394610 4.330539 0.997840
C 0.915431 4.063449 0.808875
C 1.361695 3.947741 0.705667
C 1.592572 3.806653 0.914732
C 1.696079 3.540238 1.547869
C 1.565986 3.241922 2.230354
C 1.268908 3.045734 2.933328
C 0.938497 2.797004 3.708097
C 0.569897 2.362297 4.542697
C 0.192158 1.661891 5.147182
C -0.051046 0.852749 5.365461
C -0.364445 0.077218 5.443753
C -0.792267 -0.574052 5.399251
C -1.313668 -1.045470 5.245580
C -1.896843 -1.326483 4.997959
C -2.512403 -1.383823 4.673843
C -3.094205 -1.194941 4.338379
C -3.540247 -0.808282 4.090729
C -3.765236 -0.316851 3.979780
C -3.768736 0.231568 3.961990
C -3.574615 0.838197 3.988835
C -3.198064 1.465784 4.048608
C -2.215241 1.910075 3.755854
C -1.416495 1.810331 3.076282
C -0.624516 1.517937 2.262662
C 0.137104 1.307973 1.405606
C 0.715749 1.003088 0.523694
C 1.251867 0.630882 -0.308255
C 1.739561 0.223449 -1.073551
C 1.633264 -0.199494 -1.429340
C 1.626007 -0.303120 -1.417171
C 1.589623 -0.260542 -1.257890
C 1.613280 -0.172189 -1.073257
C 1.784414 -0.027483 -0.954066
C 1.934746 0.057949 -0.827148
C 2.002429 0.050985 -0.784678
C 2.042146 -0.112909 -0.848994
C 2.180373 -0.141568 -0.828657
C 2.362802 -0.083980 -0.825832
C 2.448185 -0.125816 -0.872234
C 2.449783 -0.231452 -0.857235
C 2.496895 -0.378825 -0.929218
C 2.374070 -0.581555 -0.980520
C 2.188827 -0.653994 -0.975185
C 1.931109 -0.840347 -1.036275
C 1.693842 -1.055190 -1.104547
C 1.469428 -1.302061 -1.142529
C 1.416444 -1.426577 -1.147664
C 1.402141 -1.271830 -0.979237
C 1.647525 -0.989167 -0.697960
C 2.074978 -0.680391 -0.351392
C 2.554552 -0.290859 -0.016924
C 2.950845 0.009657 0.246320
C 3.246582 0.167602 0.505780
C 3.406062 0.257149 0.698902
C 3.413284 0.237246 0.811047
C 3.367075 0.138465 0.890753
C 3.296092 0.081928 0.964766
C 3.230964 0.102961 1.062116
C 3.133404 0.059785 1.205064
C 3.040387 0.124202 1.211623
C 2.898581 0.162505 1.185250
C 2.681121 -0.010540 1.012937
C 2.300435 -0.314012 0.698174
C 1.772878 -0.652833 0.339755
C 1.190039 -1.124944 0.031410
C 0.664943 -1.579242 -0.286976
C 0.243609 -2.011585 -0.540712
C -0.128772 -2.494050 -0.786649
C -0.409044 -2.856497 -0.907898
C -0.559320 -3.056083 -0.943977
C -0.402184 -3.177153 -0.835631
C -0.052741 -3.179246 -0.756333
C 0.151395 -3.130414 -0.727475
C 0.432120 -3.029320 -0.657414
C 0.695756 -2.892093 -0.530293
C 1.051430 -2.695491 -0.401261
C 1.523008 -2.422134 -0.222089
C 1.712668 -2.210669 -0.178615
C 1.655640 -2.179095 -0.171464
C 1.687286 -2.149374 -0.094027
C 1.706874 -2.168854 0.085856
C 1.833694 -2.077351 0.336926
C 1.884991 -2.092316 0.523501
C 1.830362 -2.144284 0.609465
C 1.882724 -2.075375 0.727393
C 2.012665 -1.885326 0.868579
C 2.157908 -1.692345 1.042129
C 2.121109 -1.492616 1.092759
C 2.033487 -1.418252 1.103553
C 1.927504 -1.276192 1.132421
C 1.810218 -1.278766 1.141435
C 1.604187 -1.374376 1.105282
C 1.417207 -1.514339 1.065031
C 1.309647 -1.531989 1.036944
C 1.249446 -1.506938 1.033379
C 1.172247 -1.388099 0.985013
C 1.020307 -1.378077 0.897834
C 0.840373 -1.368929 0.837606
C 0.669988 -1.372485 0.767724
C 0.474139 -1.385829 0.770261
C 0.175178 -1.571116 0.672613
C -0.028089 -1.685822 0.668146
C -0.226829 -1.793105 0.707975
C -0.425371 -1.863931 0.679623
C -0.634083 -1.895211 0.658005
C -0.775456 -1.928803 0.806727
C -0.965174 -1.977188 0.786014
C -1.167004 -2.013727 0.775762
C -1.477615 -2.163570 0.623445
C -1.880487 -2.456832 0.649257
C -2.075163 -2.629525 0.652007
C -2.228933 -2.768037 0.717259
C -2.421062 -2.881464 0.619480
