181
chr16 3D structure from Hi-C (resolution 500000bp)
C -3.931961 -0.439916 -0.300159
C -3.950695 -0.607868 -0.370915
C -3.937001 -0.658031 -0.467047
C -3.821588 -0.659075 -0.533598
C -3.603679 -0.631106 -0.644083
C -3.515759 -0.576541 -0.798238
C -3.293319 -0.564875 -0.901939
C -2.791299 -0.273482 -0.919952
C -2.175119 0.295520 -0.924423
C -1.565693 0.858892 -0.914524
C -0.997782 1.364416 -0.891764
C -0.499694 1.915905 -0.813622
C 0.070266 2.319166 -0.813781
C 0.455036 2.686551 -0.854648
C 0.398789 2.670073 -0.900850
C 0.260865 2.519715 -0.972563
C 0.162129 2.343015 -1.097243
C -0.126506 2.148802 -1.189230
C -0.512041 1.761485 -1.336300
C -0.994053 1.358901 -1.488855
C -1.464424 1.038209 -1.586949
C -1.549966 0.968003 -1.688496
C -1.556316 0.944421 -1.775182
C -1.588554 1.012462 -1.726068
C -1.530706 1.098828 -1.736536
C -1.573137 1.249262 -1.724661
C -1.746126 1.605067 -0.913889
C -1.955182 1.901718 -0.157940
C -2.405935 2.172755 0.462262
C -2.937050 2.452734 0.971712
C -3.474367 2.684196 1.338103
C -3.598744 2.538794 1.272374
C -3.380466 2.631993 1.160744
C -3.074895 2.804585 0.316009
C -2.830749 2.742582 -0.533191
C -2.347453 2.495337 -1.257468
C -1.834032 2.153664 -1.906055
C -1.242662 1.817778 -2.481211
C -1.187443 1.768820 -2.635280
C -1.323287 1.557976 -2.792868
C -1.391274 0.939510 -2.937014
C -1.346905 0.630461 -2.982258
C -1.288559 0.587717 -3.089913
C -1.361236 0.401171 -3.118489
C -1.505235 0.080598 -3.106180
C -1.370954 -0.025076 -3.066204
C -1.215299 -0.126776 -2.994606
C -0.933658 0.007672 -2.871290
C -0.524384 0.295966 -2.740931
C -0.298103 0.476170 -2.591877
C -0.046382 0.712560 -2.481864
C 0.019055 0.807470 -2.392792
C -0.024372 0.816849 -2.287013
C -0.173231 0.719705 -2.243587
C -0.558769 0.501892 -2.235975
C -1.109851 0.036181 -2.336583
C -1.653141 -0.467787 -2.321453
C -2.171100 -0.905217 -2.281200
C -2.427678 -1.082921 -2.204292
C -2.563693 -1.019138 -2.035831
C -2.397372 -0.622374 -1.706815
C -2.244485 0.252303 -1.168110
C -1.997132 1.154749 -0.432945
C -1.801263 2.095213 0.265337
C -1.356126 3.076189 0.747151
C -0.889251 3.951646 1.108434
C -0.384518 4.425502 1.359556
C -0.034563 4.525971 1.399389
C 0.555899 4.272938 1.247060
C 1.027140 4.134036 1.245883
C 1.387174 3.966008 1.498349
C 1.497099 3.652319 2.017424
C 1.485657 3.259301 2.674681
C 1.307354 2.883212 3.366031
C 1.110831 2.542119 4.202423
C 0.837969 1.984373 5.016821
C 0.606972 1.221420 5.509462
C 0.457246 0.375804 5.658505
C 0.224221 -0.433563 5.690072
C -0.146428 -1.113886 5.622087
C -0.649017 -1.627459 5.472911
C -1.259929 -1.953093 5.247102
C -1.941519 -2.043950 4.967518
C -2.599237 -1.883118 4.707724
C -3.100660 -1.519121 4.555187
C -3.365280 -1.028522 4.518899
C -3.411633 -0.440639 4.542197
C -3.271468 0.249803 4.579028
C -2.942543 0.986754 4.628484
C -2.016778 1.606588 4.277039
C -1.287426 1.670729 3.637560
C -0.643958 1.626853 2.989556
C 0.048125 1.586109 2.008918
C 0.527177 1.356355 1.081275
C 0.995813 1.057251 0.241181
C 1.441980 0.648042 -0.589247
C 1.334174 0.208730 -0.999123
C 1.345885 0.071146 -1.153961
C 1.410508 0.024496 -1.287471
C 1.443890 0.081862 -1.125140
C 1.642736 0.264958 -1.035528
C 1.854850 0.358089 -1.031847
C 1.970903 0.395022 -1.038072
C 2.040483 0.293512 -1.112474
C 2.203950 0.301931 -1.126549
C 2.420484 0.377430 -1.150976
C 2.511585 0.311988 -1.197388
C 2.517411 0.222488 -1.220202
C 2.562291 0.055233 -1.337106
C 2.429284 -0.125894 -1.349397
C 2.257533 -0.288284 -1.346094
C 1.994110 -0.506468 -1.395062
C 1.719731 -0.759222 -1.462189
C 1.538897 -0.996686 -1.538133
C 1.526990 -1.167640 -1.556411
C 1.559231 -1.104644 -1.388194
C 1.842803 -0.911734 -1.195296
C 2.242507 -0.512435 -0.888775
C 2.721191 -0.057856 -0.532457
C 3.096854 0.261437 -0.240214
C 3.373974 0.480861 0.029328
C 3.526053 0.627368 0.253414
C 3.513812 0.569704 0.429476
C 3.468771 0.545621 0.550020
C 3.409138 0.472590 0.669682
C 3.365699 0.402066 0.782451
C 3.288870 0.334520 0.882728
C 3.216342 0.310296 0.946315
C 3.066049 0.302613 0.889652
C 2.813431 0.245227 0.729735
C 2.389093 -0.080592 0.458523
C 1.856203 -0.518949 0.136321
C 1.261588 -1.009058 -0.208249
C 0.750188 -1.500634 -0.523348
C 0.285933 -1.941342 -0.810279
C -0.108352 -2.465968 -1.057632
C -0.347175 -2.863811 -1.159242
C -0.399883 -3.144460 -1.122406
C -0.181197 -3.222246 -1.118472
C 0.194215 -3.219229 -1.091329
C 0.405475 -3.125317 -1.102803
C 0.676744 -3.043471 -1.042123
C 0.963834 -2.914323 -0.953916
C 1.275635 -2.705150 -0.889047
C 1.683180 -2.401656 -0.801459
C 1.850250 -2.301043 -0.697044
C 1.750299 -2.265906 -0.607180
C 1.787276 -2.276807 -0.508526
C 1.842114 -2.256126 -0.397002
C 2.040663 -2.137461 -0.173990
C 2.125494 -2.155123 0.062528
C 2.101982 -2.195399 0.142566
C 2.160206 -2.051005 0.269582
C 2.362119 -1.871912 0.409660
C 2.555627 -1.681824 0.587655
C 2.621581 -1.542804 0.747338
C 2.484726 -1.480983 0.834074
C 2.411441 -1.348123 0.884569
C 2.240356 -1.325889 0.891089
C 2.042512 -1.398895 0.840818
C 1.816444 -1.512111 0.777359
C 1.676730 -1.531528 0.813165
C 1.537392 -1.499012 0.810550
C 1.463949 -1.396181 0.776221
C 1.298258 -1.410306 0.692745
C 1.141135 -1.387638 0.676458
C 0.927738 -1.457621 0.650521
C 0.746088 -1.507145 0.678341
C 0.403714 -1.656403 0.537304
C 0.178130 -1.796867 0.513871
C -0.063263 -1.979204 0.525795
C -0.266821 -2.076180 0.531651
C -0.489080 -2.202919 0.522591
C -0.609495 -2.249349 0.668293
C -0.817426 -2.341422 0.658076
C -1.001504 -2.432273 0.668952
C -1.312741 -2.568141 0.558399
C -1.628739 -2.845908 0.674383
C -1.839627 -3.017520 0.652292
C -1.971363 -3.134071 0.718754
C -2.148880 -3.252071 0.648536
