363
chr5 3D structure from Hi-C (resolution 500000bp)
C -4.186108 0.995009 0.059373
C -4.088477 0.601857 0.214946
C -4.042656 0.270427 0.292059
C -3.934498 -0.032446 0.387432
C -3.867077 -0.461430 0.446222
C -3.788676 -0.928150 0.482621
C -3.684422 -1.313297 0.606673
C -3.675656 -1.454174 0.677188
C -3.675081 -1.345277 0.758343
C -3.668832 -1.169176 0.795546
C -3.696351 -0.903517 0.776426
C -3.703619 -0.836786 0.892025
C -3.617894 -0.688798 0.989218
C -3.488493 -0.629804 1.142121
C -3.430029 -0.718241 1.146423
C -3.472842 -0.779948 0.990564
C -3.439041 -0.861038 1.074846
C -3.472157 -0.841829 1.126803
C -3.389055 -0.670346 1.096668
C -3.403180 -0.686068 1.135193
C -3.406686 -0.847010 1.040184
C -3.427289 -1.060216 0.923774
C -3.284767 -1.385931 0.969098
C -3.153747 -1.521753 1.007448
C -3.003175 -1.780016 1.034621
C -2.992845 -1.727355 1.110086
C -2.996821 -1.636934 1.133482
C -2.996558 -1.593295 1.231109
C -2.912435 -1.509625 1.427283
C -2.917029 -1.365624 1.607137
C -2.921699 -1.279459 1.624839
C -2.889100 -1.179557 1.664417
C -2.876250 -1.606355 1.606048
C -2.795510 -1.869687 1.654574
C -2.708755 -1.851208 1.766714
C -2.616149 -1.914391 1.791744
C -2.474692 -2.061519 1.737877
C -2.396494 -2.335971 1.691864
C -2.315327 -2.618579 1.672120
C -2.201197 -2.757159 1.633909
C -2.099865 -2.965877 1.498523
C -1.954638 -3.189442 1.390956
C -1.785973 -3.159964 1.460357
C -1.702000 -3.017608 1.643000
C -1.652636 -2.984150 1.838410
C -1.594783 -2.932041 1.980599
C -1.501818 -2.728767 2.227789
C -1.457273 -2.524270 2.454445
C -1.395980 -2.365634 2.623664
C -1.403717 -2.464610 2.696992
C -1.321148 -2.551431 2.702510
C -1.184527 -2.626155 2.644755
C -1.084795 -2.597381 2.696636
C -1.039422 -2.509663 2.770818
C -0.910517 -2.683429 2.719018
C -0.920166 -2.808844 2.627724
C -0.967376 -2.587974 2.630567
C -1.085875 -2.487033 2.655997
C -1.264335 -2.208991 2.743863
C -1.438639 -1.968606 2.717799
C -1.607282 -1.709594 2.597149
C -1.867166 -1.070302 2.524136
C -2.080158 -0.618597 2.602445
C -2.261492 -0.400755 2.562068
C -2.451634 -0.038794 2.443501
C -2.640820 0.365934 2.283114
C -2.707208 0.584100 2.221711
C -2.788111 0.724914 2.177203
C -2.789862 0.667479 2.259865
C -2.767347 0.798137 2.179556
C -2.755842 0.999712 2.128164
C -2.711660 1.175751 2.085458
C -2.515869 1.036616 2.136203
C -2.460441 0.981060 2.231988
C -2.379694 0.931109 2.395884
C -2.302265 0.953455 2.532539
C -2.170625 0.754415 2.688568
C -1.997176 0.511455 2.783684
C -1.900137 0.295147 3.034931
C -1.772945 0.137509 3.209647
C -1.680986 0.069299 3.242802
C -1.493993 -0.073168 3.293291
C -1.392794 -0.149988 3.294043
C -1.499437 0.134730 3.154793
C -1.486629 0.203873 3.272220
C -1.307161 0.015977 3.204319
C -1.207666 -0.100265 3.205899
C -1.015085 -0.444502 3.290848
C -0.842100 -0.809734 3.297059
C -0.526421 -1.413126 3.161815
C 0.019947 -2.289427 3.063808
C 0.418880 -2.998407 2.703785
C 0.707454 -3.567396 2.350405
C 0.890549 -4.081575 1.886460
C 0.739826 -4.432143 1.228916
C 0.438186 -4.663565 0.562741
C -0.298735 -3.714570 0.098431
C -0.378844 -3.345279 0.431446
C -0.558287 -2.612506 0.743962
C -0.610728 -1.988881 1.120027
C -0.584143 -1.363398 1.583622
C -0.281710 -0.818472 2.196132
C 0.073310 -0.130348 2.768224
C 0.812083 -0.526559 3.340269
C 0.700627 -0.127282 3.199968
C 0.630568 0.039094 3.035576
C 0.478555 0.280516 2.887867
C 0.137276 0.763282 2.644885
C -0.153874 1.379476 2.413389
C -0.335240 1.706614 2.245611
C -0.566852 2.073251 2.052388
C -0.707602 2.264289 1.903018
C -0.666038 2.247055 2.023210
C -0.600998 2.234712 2.121949
C -0.442045 2.115091 2.272042
C -0.227717 1.897929 2.413572
C -0.132498 1.796556 2.602591
C -0.031049 1.802237 2.720486
C 0.065861 1.789506 2.803394
C 0.082521 1.874514 2.670190
C 0.060510 1.934169 2.593614
C 0.128030 1.871703 2.444166
C 0.158080 1.735917 2.414136
C 0.292386 1.567231 2.474525
C 0.457745 1.370530 2.654858
C 0.612289 1.224867 2.748405
C 0.756440 1.294482 2.836818
C 0.855426 1.472279 2.807185
C 0.895618 1.715258 2.787979
C 0.772248 2.070659 2.719455
C 0.637123 2.331799 2.489572
C 0.420339 2.631471 2.208854
C 0.315995 2.896974 1.998690
C 0.057129 3.011315 1.819081
C -0.109601 3.096321 1.713873
C -0.456462 3.204207 1.508677
C -0.965058 3.232749 1.108918
C -1.001599 2.156257 0.809284
C -0.938971 0.971924 0.512818
C -0.931257 -0.159791 0.273131
C -0.846964 -0.175459 0.162392
C -0.865573 -0.174731 0.026441
C -0.676434 -0.341558 0.036146
C -0.279290 -0.404770 0.205754
C -0.288778 0.764001 0.288032
C -0.377820 1.952938 0.362023
C -0.481085 3.187306 0.344060
C -0.695448 3.295811 0.278967
C -0.822797 3.354638 0.221110
C -0.916797 3.524503 0.142301
C -0.858337 3.603690 0.106118
C -0.913999 3.628738 0.095780
C -0.830905 3.678204 0.032819
C -0.728757 3.732588 0.038574
C -0.489578 3.717398 -0.000896
C -0.231499 3.722979 0.055251
C -0.003167 3.620195 0.127818
C 0.136270 3.630540 0.091914
C 0.376170 3.628404 0.120916
C 0.533436 3.562292 0.218784
C 0.648395 3.454246 0.330182
C 0.962423 3.270406 0.616314
C 1.184777 2.959226 0.842607
C 1.403031 2.813535 1.010281
C 1.726461 2.536781 1.370478
C 1.985658 2.257827 1.652095
C 2.209536 1.962973 1.902414
C 2.393086 1.569013 2.119774
C 2.423664 1.170408 2.163361
C 2.549541 0.902750 2.253470
C 2.662352 0.645431 2.369906
C 2.651292 0.675604 2.230332
C 2.720689 0.493939 2.310592
C 2.746529 0.420087 2.379067
C 2.804809 0.729378 2.281458
C 2.754284 1.191879 2.062211
C 2.685322 1.644639 1.799116
C 2.765685 1.916270 1.622835
C 2.858036 1.840581 1.649816
C 2.852574 1.993129 1.440028
C 2.884297 1.932043 1.317876
C 2.982748 1.510466 1.369165
C 3.106811 0.979576 1.576338
C 3.190974 0.563135 1.692823
C 3.180380 0.340296 1.728753
C 3.136926 0.275279 1.652326
C 2.972442 0.355132 1.540264
C 2.876679 0.659968 1.339717
C 2.665875 1.096494 1.031460
C 2.543410 1.577984 0.723474
C 2.406889 1.884127 0.487985
C 2.390110 2.079301 0.305154
C 2.289532 1.914921 0.290746
C 2.370549 1.503374 0.479466
C 2.404605 0.859226 0.659202
C 2.514927 0.221378 0.962643
C 2.638316 -0.351023 1.191732
C 2.824048 -0.797223 1.380472
C 2.764319 -0.943390 1.390896
C 2.895628 -1.156333 1.438276
C 2.980993 -1.206176 1.322676
C 2.987275 -1.000255 1.185663
C 2.964775 -0.710670 0.980933
C 2.940069 -0.467018 0.779487
C 2.956750 -0.471042 0.667443
C 3.084920 -0.781518 0.757117
C 3.111262 -0.754149 0.593185
C 3.135704 -0.897264 0.534421
C 3.211051 -1.123533 0.541740
C 3.350848 -1.382844 0.631419
C 3.386186 -1.592694 0.639213
C 3.340955 -1.330122 0.508689
C 3.255435 -1.024066 0.335660
C 3.299739 -0.609421 0.225382
C 3.265422 0.030729 -0.002881
C 3.209945 0.637466 -0.242815
C 3.155446 0.924959 -0.419826
C 3.179091 1.019050 -0.440389
C 3.187310 0.922228 -0.415263
C 3.058371 0.957349 -0.491116
C 2.884651 1.028502 -0.573683
C 2.720890 0.963404 -0.606573
C 2.550147 0.929384 -0.622172
C 2.464507 0.880297 -0.717792
C 2.432225 0.873544 -0.823541
C 2.493840 0.759860 -0.968596
C 2.588513 0.405632 -0.898504
C 2.641817 0.203843 -0.891011
C 2.769349 0.103904 -0.925043
C 2.780264 -0.048680 -0.900244
C 2.738889 0.027862 -0.910533
C 2.741804 -0.078843 -0.886924
C 2.635491 -0.383291 -0.788002
C 2.643532 -0.442745 -0.824415
C 2.717795 -0.625780 -0.787701
C 2.739787 -0.597004 -0.862247
C 2.858912 -0.832989 -0.902980
C 2.939271 -1.318671 -0.861351
C 2.912931 -1.399867 -0.928527
C 2.924045 -1.280253 -1.017993
C 3.003012 -1.304831 -1.144545
C 2.994802 -1.373769 -1.255365
C 2.898248 -1.541060 -1.260692
C 2.951287 -1.494709 -1.368341
C 2.968894 -1.185280 -1.566961
C 2.973767 -1.015974 -1.762959
C 2.938457 -0.646401 -1.976181
C 2.886415 -0.409527 -2.119359
C 2.799854 -0.395315 -2.147270
C 2.776453 -0.461704 -2.075634
C 2.649771 -0.224547 -2.123748
C 2.548668 -0.168712 -2.138335
C 2.462773 -0.082219 -2.062261
C 2.452705 -0.308454 -2.028787
C 2.332385 -0.568990 -1.870426
C 2.261915 -0.699374 -1.842132
C 2.272481 -0.974562 -1.836103
C 2.256189 -1.520760 -1.700614
C 2.225340 -1.834203 -1.633254
C 2.217177 -1.607067 -1.731658
C 2.073493 -1.226640 -1.741815
C 1.959621 -0.654884 -1.879746
C 1.804642 0.038975 -2.007102
C 1.550215 0.787712 -2.177586
C 1.337797 1.539976 -2.345983
C 1.083332 2.337933 -2.467561
C 0.771490 2.559338 -2.448783
C 0.577417 2.602041 -2.471524
C 0.420935 2.607673 -2.516302
C 0.231654 2.375733 -2.447669
C 0.189566 1.988959 -2.352598
C 0.106060 1.835211 -2.343107
C 0.082928 1.717241 -2.395551
C -0.066797 1.704790 -2.423825
C -0.172737 1.784361 -2.370267
C -0.330277 1.908856 -2.316228
C -0.402187 2.216471 -2.412857
C -0.480975 2.549248 -2.547103
C -0.788301 2.167359 -2.633155
C -1.077993 1.562025 -2.603964
C -0.907426 1.283605 -2.658901
C -0.745284 1.067590 -2.768590
C -0.476042 0.818052 -2.916935
C -0.245572 0.537698 -2.971030
C -0.045093 0.290571 -2.916346
C 0.471986 0.396937 -2.899575
C 0.870730 0.390105 -2.805325
C 1.021333 -0.008688 -2.764036
C 1.107245 -0.351125 -2.811034
C 1.052568 -0.528835 -2.670661
C 1.027709 -0.919942 -2.697202
C 1.027225 -1.187932 -2.756567
C 0.969678 -1.402886 -2.756413
C 0.928026 -1.370660 -2.831238
C 0.884012 -1.239689 -2.956998
C 0.791144 -1.057166 -2.994821
C 0.737979 -0.898778 -3.159184
C 0.606357 -0.465738 -3.202135
C 0.390723 -0.115457 -3.281317
C 0.228905 0.344933 -3.341793
C 0.185611 0.672596 -3.494890
C 0.087562 0.626307 -3.408469
C -0.193106 0.209109 -3.244044
C -0.231625 -0.187455 -3.116127
C -0.212475 -0.598322 -3.004487
C -0.071711 -0.759750 -2.919401
C -0.029017 -0.976248 -2.989574
C -0.116826 -1.278148 -2.969932
C -0.116389 -1.352127 -3.018059
C 0.060262 -1.179766 -3.195241
C 0.116365 -1.058151 -3.296947
C 0.151337 -0.835971 -3.417571
C 0.067145 -0.741139 -3.439691
C -0.045451 -0.695427 -3.435312
C -0.067892 -0.482388 -3.451566
C -0.157610 -0.220078 -3.526659
C -0.205710 -0.034704 -3.515709
C -0.288643 0.100046 -3.491011
C -0.311134 -0.060173 -3.394167
C -0.451798 -0.503623 -3.382461
C -0.437991 -0.844874 -3.279529
C -0.479414 -1.305833 -3.155829
C -0.493091 -1.779559 -2.980840
C -0.439691 -2.038638 -2.905052
C -0.338126 -2.345722 -2.788722
C -0.301076 -2.710294 -2.688350
C -0.040168 -2.823717 -2.589845
C 0.063718 -2.812308 -2.524175
C 0.149181 -2.761630 -2.452389
C 0.230827 -2.752848 -2.453276
C 0.241133 -2.835988 -2.370429
C 0.192609 -3.007882 -2.386457
C 0.016691 -2.791406 -2.507962
C -0.174715 -2.414954 -2.624660
C -0.329892 -2.137493 -2.740387
C -0.459867 -1.842479 -2.841902
C -0.630338 -1.400121 -2.885868
C -0.761654 -0.927485 -2.953098
C -0.992685 -0.482248 -3.062436
C -1.182893 -0.266241 -3.090237
C -1.354236 -0.079244 -3.141629
C -1.463929 0.240327 -3.061767
C -1.547401 0.544492 -3.059945
C -1.670210 0.709350 -3.084263
C -1.779616 0.857856 -3.082184
C -1.843802 0.975446 -3.020615
C -1.804621 1.023552 -3.000945
C -1.846298 0.958972 -2.951206
C -1.945160 0.872551 -2.972841
C -2.142999 0.906826 -2.966429
C -2.249516 0.970520 -2.932288
C -2.396390 1.062748 -2.892096
C -2.669129 1.172063 -2.824659
C -2.767907 1.293453 -2.769365
C -2.896645 1.155227 -2.731530
C -3.023307 0.895958 -2.708105
C -2.981708 0.803556 -2.646845
C -3.025353 0.621608 -2.595580
C -3.049015 0.353181 -2.621223
C -3.016888 0.186466 -2.667072
C -3.066149 0.080823 -2.665606
C -3.083962 0.234505 -2.642983
C -3.033092 0.471336 -2.626002
