363
chr5 3D structure from Hi-C (resolution 500000bp)
C -3.987734 1.072010 -0.569449
C -3.915724 0.699002 -0.435743
C -3.892843 0.329493 -0.349236
C -3.826806 0.069046 -0.262582
C -3.824908 -0.373243 -0.188168
C -3.746859 -0.789635 -0.058136
C -3.678084 -1.159915 0.039333
C -3.664342 -1.368164 0.090905
C -3.662319 -1.287466 0.162280
C -3.619087 -1.055919 0.191240
C -3.604955 -0.870966 0.207131
C -3.613289 -0.786241 0.250067
C -3.595358 -0.606191 0.325026
C -3.521882 -0.549805 0.524490
C -3.491090 -0.570973 0.552339
C -3.539781 -0.493921 0.522007
C -3.566455 -0.584488 0.616988
C -3.621213 -0.565996 0.606752
C -3.524925 -0.392751 0.684456
C -3.557867 -0.361545 0.703424
C -3.587579 -0.419231 0.731739
C -3.585043 -0.631033 0.554925
C -3.499097 -1.027062 0.512801
C -3.409890 -1.170761 0.584789
C -3.303805 -1.360519 0.669454
C -3.314137 -1.289116 0.627581
C -3.272607 -1.244514 0.669097
C -3.222744 -1.307974 0.620006
C -3.192027 -1.243100 0.856536
C -3.157863 -1.162906 1.020931
C -3.114719 -1.090367 0.993969
C -3.088716 -1.029097 1.042942
C -3.071119 -1.521873 0.995313
C -2.980541 -1.836177 0.965547
C -2.879843 -1.932634 0.962434
C -2.766585 -1.968251 0.946551
C -2.620905 -2.130237 0.890692
C -2.509448 -2.409381 0.839761
C -2.396420 -2.665171 0.842393
C -2.292915 -2.777161 0.848406
C -2.185336 -2.964912 0.805402
C -2.096301 -3.070692 0.879525
C -1.994168 -3.040724 0.987035
C -1.926026 -2.980063 1.126108
C -1.833884 -3.035971 1.262272
C -1.863713 -3.009625 1.323314
C -1.796595 -2.855798 1.589121
C -1.828291 -2.666526 1.779071
C -1.778985 -2.533103 1.867178
C -1.741984 -2.668235 1.928272
C -1.715907 -2.710109 1.982397
C -1.724556 -2.610725 2.107044
C -1.657805 -2.563123 2.223323
C -1.630883 -2.486760 2.285769
C -1.631419 -2.457049 2.429143
C -1.655137 -2.376417 2.601744
C -1.664326 -2.185885 2.642664
C -1.781663 -1.973187 2.713351
C -1.900206 -1.808970 2.710571
C -1.977129 -1.594260 2.678720
C -2.142993 -1.252486 2.583542
C -2.223154 -0.800311 2.342097
C -2.401076 -0.455030 2.185594
C -2.603655 -0.153096 2.125608
C -2.681941 0.235558 2.018686
C -2.838047 0.653345 1.897825
C -2.898764 0.906950 1.794750
C -2.918907 1.027803 1.755419
C -2.876391 0.915534 1.853625
C -2.778330 0.937432 1.891526
C -2.709962 1.046414 1.896660
C -2.713198 1.141226 1.802537
C -2.551990 1.034628 1.808805
C -2.523511 0.878644 1.939164
C -2.494123 0.727076 2.098907
C -2.514471 0.759516 2.228474
C -2.461970 0.584308 2.316410
C -2.375529 0.371588 2.379298
C -2.298564 0.166437 2.660698
C -2.275829 0.057770 2.856409
C -2.197812 0.102385 2.905314
C -2.057821 0.030448 2.937649
C -1.960520 -0.054842 2.924348
C -1.986892 0.258344 2.760920
C -1.902643 0.228462 2.893179
C -1.766305 -0.009319 2.848484
C -1.615613 -0.216426 2.865310
C -1.375535 -0.678833 2.902166
C -1.157062 -1.050810 2.915625
C -0.800289 -1.581033 2.889900
C -0.322940 -2.473531 2.873324
C 0.025885 -3.069245 2.552502
C 0.350625 -3.591367 2.244304
C 0.579875 -4.063286 1.821107
C 0.486821 -4.314772 1.239894
C 0.305609 -4.545352 0.603644
C -0.325096 -3.582604 0.053978
C -0.416290 -3.205309 0.387451
C -0.596625 -2.587117 0.656899
C -0.710664 -2.063022 0.964737
C -0.757410 -1.556709 1.393620
C -0.527221 -1.084248 2.014553
C -0.329117 -0.412428 2.561511
C 0.204688 -0.798717 3.233118
C 0.081954 -0.447866 3.033876
C 0.058670 -0.248120 2.931781
C -0.055939 0.089184 2.809524
C -0.240249 0.624486 2.650259
C -0.445023 1.188999 2.564655
C -0.434561 1.459792 2.528387
C -0.537724 1.760325 2.273665
C -0.561928 1.898507 2.269731
C -0.585561 1.911582 2.342202
C -0.478642 1.813544 2.458870
C -0.286403 1.599453 2.582121
C -0.141734 1.416789 2.619335
C -0.103450 1.244331 2.761633
C -0.021722 1.164423 2.929428
C 0.012696 1.227425 2.915301
C 0.076023 1.315207 2.885339
C 0.069756 1.360825 2.878903
C 0.062000 1.400796 2.729057
C 0.112060 1.221395 2.687439
C 0.190328 1.060928 2.698901
C 0.326844 0.766353 2.859844
C 0.467576 0.433826 2.927213
C 0.567309 0.437965 2.971227
C 0.628127 0.612976 2.901258
C 0.586433 0.875561 2.825755
C 0.404323 1.315935 2.668112
C 0.243800 1.684347 2.473630
C 0.104561 2.137010 2.215312
C -0.001859 2.537155 2.060537
C -0.147909 2.732790 1.879468
C -0.347730 2.848088 1.706180
C -0.609470 2.952990 1.546717
C -0.994079 3.025629 1.179740
C -0.979160 1.989132 0.842860
C -0.942739 0.879080 0.501754
C -0.916159 -0.172735 0.226201
C -0.962976 -0.189141 0.115045
C -0.957225 -0.153568 0.054353
C -0.718858 -0.320908 0.072540
C -0.343503 -0.460098 0.250646
C -0.371392 0.629781 0.394352
C -0.498606 1.753201 0.476510
C -0.617840 2.947139 0.530734
C -0.656629 3.085486 0.468739
C -0.673938 3.180362 0.396303
C -0.814989 3.345270 0.330485
C -0.774696 3.476037 0.291451
C -0.743001 3.586545 0.270741
C -0.611663 3.681959 0.283659
C -0.473088 3.714298 0.270703
C -0.304606 3.645583 0.222930
C -0.082889 3.623861 0.244289
C 0.131687 3.559254 0.249613
C 0.312898 3.541626 0.281878
C 0.481990 3.492013 0.313698
C 0.592929 3.427920 0.392136
C 0.711611 3.316625 0.522317
C 0.907064 3.219326 0.750847
C 1.089196 2.954595 0.963663
C 1.272036 2.779531 1.176274
C 1.426132 2.442276 1.558558
C 1.611652 1.950297 1.896400
C 1.785184 1.544312 2.166926
C 1.891658 1.051788 2.324957
C 1.974374 0.665199 2.421126
C 2.050629 0.424210 2.571083
C 2.158541 0.239233 2.666908
C 2.236691 0.392341 2.460207
C 2.315570 0.534892 2.478663
C 2.431723 0.634423 2.434705
C 2.495399 1.037512 2.414509
C 2.501930 1.414086 2.208217
C 2.473901 1.816907 1.989281
C 2.515818 2.029484 1.956813
C 2.540823 1.933394 2.048581
C 2.528737 2.026109 1.849293
C 2.483805 1.830755 1.798096
C 2.458621 1.339351 1.860986
C 2.545551 0.920052 2.065765
C 2.613200 0.414787 2.182557
C 2.635175 0.196362 2.137286
C 2.646629 0.085092 2.071090
C 2.563097 0.129768 1.941075
C 2.549829 0.470535 1.754875
C 2.521444 1.000690 1.422373
C 2.420868 1.343950 1.130685
C 2.315852 1.737673 0.833573
C 2.384406 1.819104 0.715221
C 2.316113 1.732562 0.659711
C 2.483662 1.464332 0.772417
C 2.677569 1.185762 0.852393
C 2.844440 0.658694 1.084819
C 2.924194 0.151991 1.249950
C 3.083575 -0.360723 1.465355
C 2.989151 -0.373382 1.381430
C 3.164040 -0.518317 1.395803
C 3.160958 -0.679930 1.352214
C 2.983084 -0.789208 1.279061
C 2.915354 -0.477287 1.031110
C 2.910020 -0.145739 0.831526
C 2.906313 -0.089922 0.743876
C 2.935519 -0.534913 0.805322
C 2.889069 -0.591383 0.737153
C 2.844614 -0.781661 0.760262
C 2.897936 -1.002669 0.804575
C 2.959477 -1.431328 0.940542
C 3.053153 -1.643936 0.977421
C 3.057114 -1.451301 0.857161
C 3.078388 -1.087000 0.747846
C 3.163252 -0.796259 0.644890
C 3.242452 -0.247054 0.384149
C 3.229265 0.332061 0.118757
C 3.240957 0.656941 -0.045541
C 3.155314 0.482084 -0.050009
C 3.101692 0.345311 -0.039231
C 2.974138 0.457155 -0.114415
C 2.796536 0.603179 -0.211171
C 2.656361 0.606822 -0.257676
C 2.523274 0.544790 -0.274594
C 2.444024 0.486754 -0.304212
C 2.360230 0.464942 -0.368438
C 2.319984 0.212443 -0.386314
C 2.311730 -0.264755 -0.333711
C 2.341407 -0.495914 -0.340995
C 2.363197 -0.600275 -0.347203
C 2.377480 -0.764362 -0.311933
C 2.307670 -0.675743 -0.373618
C 2.402415 -0.596372 -0.427451
C 2.452221 -0.670971 -0.462004
C 2.465774 -0.647430 -0.502169
C 2.558372 -0.780446 -0.493236
C 2.565556 -0.663907 -0.606780
C 2.631175 -0.890965 -0.610767
C 2.686499 -1.372569 -0.579250
C 2.692783 -1.476035 -0.610907
C 2.729380 -1.324827 -0.716208
C 2.864798 -1.333156 -0.796626
C 2.861977 -1.365029 -0.941516
C 2.840404 -1.562587 -0.903287
C 2.934454 -1.465929 -1.028497
C 3.040357 -1.061520 -1.188796
C 3.075773 -0.769442 -1.383958
C 3.064228 -0.383248 -1.524074
C 3.080949 -0.095867 -1.679093
C 2.985004 -0.089741 -1.678507
C 2.968466 -0.155200 -1.703666
C 2.850335 0.063994 -1.726259
C 2.748065 0.095699 -1.780262
C 2.666282 0.141473 -1.724415
C 2.695876 -0.069228 -1.720377
C 2.536048 -0.344664 -1.608863
C 2.524362 -0.432234 -1.599587
C 2.556945 -0.650190 -1.628752
C 2.568882 -1.166519 -1.571237
C 2.509365 -1.530680 -1.486259
C 2.502733 -1.325874 -1.564030
C 2.294384 -0.947787 -1.574244
C 2.162441 -0.358930 -1.670786
C 1.941492 0.303057 -1.751330
C 1.654012 0.985482 -1.820341
C 1.393950 1.733088 -1.963022
C 1.117634 2.570848 -2.043387
C 0.819038 2.764136 -2.048061
C 0.621777 2.770675 -2.099607
C 0.431598 2.702335 -2.191444
C 0.374972 2.404412 -2.162239
C 0.371227 2.086750 -2.131931
C 0.363572 1.928793 -2.156776
C 0.316740 1.772274 -2.267980
C 0.216120 1.775049 -2.304553
C 0.179613 1.876697 -2.275756
C 0.104214 2.053650 -2.211969
C -0.103906 2.377500 -2.294432
C -0.053093 2.658002 -2.390841
C 0.032219 2.020810 -2.329549
C 0.164482 1.237410 -2.231756
C 0.326826 0.921100 -2.281498
C 0.494827 0.644383 -2.347863
C 0.812324 0.341154 -2.489716
C 1.127992 0.135208 -2.498512
C 1.206751 -0.122977 -2.462091
C 1.291894 0.202598 -2.543957
C 1.386817 0.419193 -2.556550
C 1.489015 0.040985 -2.491023
C 1.562850 -0.258811 -2.555125
C 1.477467 -0.390939 -2.427026
C 1.456420 -0.835200 -2.511482
C 1.420107 -1.129766 -2.537834
C 1.355727 -1.280655 -2.583178
C 1.331603 -1.305457 -2.667711
C 1.306563 -1.133257 -2.803951
C 1.213394 -0.928934 -2.875459
C 1.161693 -0.723196 -3.023666
C 1.067038 -0.268743 -3.037454
C 0.962648 0.087090 -3.167689
C 0.839014 0.546248 -3.204478
C 0.727538 0.823537 -3.301410
C 0.650280 0.787454 -3.237504
C 0.552986 0.293401 -3.056928
C 0.561366 -0.160202 -2.959500
C 0.596240 -0.584200 -2.916345
C 0.607265 -0.753702 -2.809548
C 0.665852 -0.964143 -2.865372
C 0.609433 -1.200002 -2.834720
C 0.532871 -1.286696 -2.871627
C 0.493874 -0.985778 -3.082680
C 0.451131 -0.838656 -3.169230
C 0.416157 -0.593956 -3.230469
C 0.372586 -0.452687 -3.242234
C 0.259465 -0.436875 -3.249325
C 0.239652 -0.129181 -3.277769
C 0.177283 0.205723 -3.326647
C 0.115118 0.373917 -3.306268
C 0.062757 0.508893 -3.258265
C 0.020069 0.298264 -3.197760
C -0.173565 -0.136728 -3.243955
C -0.225249 -0.501983 -3.115384
C -0.342140 -1.028022 -3.026060
C -0.409247 -1.539957 -2.936048
C -0.400510 -1.802240 -2.881428
C -0.344916 -2.081432 -2.864920
C -0.395831 -2.367177 -2.817532
C -0.144979 -2.447262 -2.736133
C -0.051150 -2.396752 -2.741353
C 0.077969 -2.341692 -2.762174
C 0.171881 -2.364727 -2.756811
C 0.108403 -2.418834 -2.728706
C 0.021023 -2.561859 -2.768290
C -0.046847 -2.364408 -2.853823
C -0.188854 -2.008386 -2.915325
C -0.308085 -1.726148 -3.036271
C -0.440415 -1.418388 -3.032822
C -0.519052 -0.948228 -3.075475
C -0.510143 -0.623653 -3.080495
C -0.621251 -0.306925 -3.107742
C -0.784731 -0.104430 -3.163527
C -0.933290 0.025634 -3.214083
C -1.022470 0.279925 -3.128340
C -1.097005 0.518232 -3.120416
C -1.215931 0.627112 -3.119234
C -1.315224 0.868405 -3.071236
C -1.378422 0.936988 -3.073084
C -1.353629 0.980053 -3.034093
C -1.412087 0.908004 -2.980887
C -1.521764 0.746410 -3.044183
C -1.696791 0.785356 -3.085274
C -1.786451 0.852701 -3.073279
C -1.911273 0.896736 -3.107949
C -2.208772 0.973351 -3.078232
C -2.322056 1.038434 -3.031953
C -2.434280 0.973090 -3.036448
C -2.564175 0.835760 -2.994284
C -2.535281 0.737441 -2.966674
C -2.605114 0.550683 -2.944426
C -2.608875 0.426505 -2.941646
C -2.531292 0.604003 -2.895262
C -2.563690 0.600762 -2.894007
C -2.579876 0.776121 -2.872631
C -2.520241 1.106482 -2.831135
