271
chr11 3D structure from Hi-C (resolution 500000bp)
C 4.990611 -0.424167 -1.437327
C 4.811334 -0.394943 -1.238231
C 4.754306 -0.466958 -0.985801
C 4.682409 -0.439118 -0.844105
C 4.469589 -0.488101 -0.609780
C 4.239209 -0.341329 -0.182000
C 3.872521 -0.145419 0.249229
C 3.569011 0.080164 0.696178
C 3.403357 0.265167 1.013856
C 3.120699 0.503388 1.212602
C 2.901213 0.649202 1.317108
C 2.772078 0.785250 1.728447
C 2.793303 0.910401 1.782576
C 2.854111 0.970730 1.604556
C 2.900693 0.950211 1.282763
C 2.961366 0.938576 0.899651
C 3.101433 0.970092 0.641788
C 3.177242 1.048743 0.651727
C 3.259097 1.001354 0.363595
C 3.147847 0.899672 0.289650
C 3.161899 0.794529 0.323051
C 3.096120 0.900520 0.549069
C 2.900767 0.974935 0.940727
C 2.739367 1.056556 1.131474
C 2.539451 1.076499 1.326579
C 2.393641 1.180825 1.462797
C 2.261998 1.338959 1.665828
C 2.021436 1.492744 1.864832
C 1.821806 1.506972 1.996806
C 1.682534 1.536482 2.176402
C 1.615452 1.548959 2.244051
C 1.702901 1.545542 2.005142
C 1.715053 1.528980 1.942858
C 1.868506 1.470656 1.532102
C 2.035039 1.449416 1.198055
C 2.150404 1.457201 0.881452
C 2.289983 1.470566 0.523531
C 2.227548 1.446378 0.457174
C 1.985485 1.529732 0.734158
C 1.717313 1.692459 1.026273
C 1.414009 1.892786 1.472188
C 1.167628 2.011151 1.861885
C 1.021948 2.054335 2.104712
C 0.865172 2.219541 2.430238
C 0.714165 2.416666 2.681542
C 0.678303 2.507012 2.824655
C 0.694102 2.655081 2.803794
C 0.670005 2.799145 2.866820
C 0.572341 2.902709 2.857211
C 0.526122 3.062153 2.863977
C 0.554102 3.124255 2.694699
C 0.623513 3.120719 2.528555
C 0.633314 3.159384 2.283904
C 0.687812 3.126338 1.991233
C 0.691200 3.127208 1.781107
C 0.776351 3.239492 1.592008
C 0.646850 3.291713 1.605972
C 0.587363 3.258278 1.530556
C 0.453617 3.266594 1.555639
C 0.521431 3.333706 1.391606
C 0.555025 3.327448 1.295181
C 0.589119 3.143816 1.086183
C 0.728034 2.934795 0.841006
C 1.006405 2.731297 0.371996
C 1.222165 2.559325 0.064121
C 1.554300 2.378837 -0.387229
C 1.602418 2.243438 -0.589487
C 1.691015 2.128663 -0.748543
C 1.734356 2.058560 -0.767260
C 1.637894 2.030971 -0.711385
C 1.358626 2.111865 -0.420226
C 0.896106 2.309337 -0.051815
C 0.435288 2.579350 0.336236
C 0.100388 2.722890 0.731942
C -0.201742 2.957131 0.981840
C -0.505912 3.242696 1.154017
C -0.747068 3.498079 1.275212
C -0.784652 3.616356 1.205309
C -0.775646 3.675982 1.136805
C -0.753064 3.623072 1.066273
C -0.796865 3.644933 0.919233
C -0.877643 3.631529 0.915606
C -0.771639 3.567560 0.772277
C -0.627438 3.406163 0.609703
C -0.481316 3.190022 0.494966
C -0.227937 2.847995 0.300530
C 0.077479 2.542155 0.062129
C 0.409576 2.197067 -0.172243
C 0.769717 1.744443 -0.380126
C 1.072580 1.345380 -0.648883
C 1.338294 1.096238 -0.910367
C 1.536963 1.023318 -1.175013
C 1.575683 1.058220 -1.363799
C 1.339146 1.249015 -1.336603
C 1.085059 1.748506 -1.398336
C 0.716014 2.243521 -1.415307
C 0.243909 2.763092 -1.296376
C -0.254512 3.219549 -1.080619
C -0.831658 3.782673 -0.974215
C -0.485509 3.261399 0.041025
C 0.091970 2.593408 0.852048
C -0.008553 2.371812 0.177595
C -0.193455 2.160377 -0.534486
C -0.448234 1.820637 -1.244316
C -0.126980 1.094533 -0.203238
C -0.323917 0.878654 -0.638813
C -1.148134 1.711059 -1.734688
C -2.016736 2.540682 -2.666888
C -2.154065 2.533046 -1.990934
C -2.219892 2.599812 -1.285275
C -2.068061 2.718132 -0.650270
C -2.274888 3.018412 -1.764388
C -1.825488 2.610959 -1.376655
C -1.638365 2.320450 -1.314055
C -1.390554 2.002619 -1.397421
C -1.075209 1.676432 -1.528294
C -0.665519 1.323014 -1.669723
C -0.353870 1.011088 -1.816552
C -0.171751 0.871625 -2.024333
C 0.007318 0.730417 -2.256582
C 0.398820 0.395362 -2.384818
C 0.742544 0.160490 -2.531520
C 1.022840 0.051978 -2.711829
C 1.115949 -0.076664 -2.908558
C 1.396751 -0.282868 -3.020861
C 1.612709 -0.433517 -3.187901
C 1.741643 -0.453145 -3.262173
C 1.740099 -0.439708 -3.533277
C 1.687550 -0.472903 -3.791297
C 1.680670 -0.620013 -3.873767
C 1.840512 -0.728865 -3.965838
C 1.833990 -0.765721 -4.086239
C 1.758959 -0.852163 -4.183408
C 1.804503 -1.037832 -4.098292
C 1.845753 -1.212379 -3.862978
C 1.977136 -1.416364 -3.618182
C 2.016868 -1.539232 -3.412680
C 2.041763 -1.628827 -3.154842
C 2.056017 -1.750132 -2.871711
C 2.099844 -1.850808 -2.543940
C 2.046407 -1.931006 -2.515091
C 1.973539 -1.975350 -2.531046
C 1.807819 -1.986032 -2.528865
C 1.626577 -1.992218 -2.620437
C 1.451082 -1.984280 -2.761031
C 1.225156 -2.018538 -2.866821
C 1.014501 -1.940363 -2.922788
C 0.832658 -1.900195 -2.809602
C 0.649099 -1.891049 -2.760761
C 0.489146 -1.847211 -2.691993
C 0.368338 -1.784982 -2.578983
C 0.235037 -1.743366 -2.444831
C 0.164985 -1.645233 -2.376950
C 0.050939 -1.583438 -2.259357
C -0.101796 -1.427151 -2.034572
C -0.265817 -1.220206 -1.715047
C -0.519205 -0.951766 -1.312775
C -0.842772 -0.668185 -1.029545
C -1.120103 -0.424799 -0.736814
C -1.530031 -0.142886 -0.371524
C -1.893564 0.033654 -0.242350
C -2.226978 0.218360 -0.066180
C -2.366382 0.268651 -0.149667
C -2.331331 0.170897 -0.409516
C -2.338721 0.125096 -0.487895
C -2.476278 0.127683 -0.567098
C -2.504984 0.117911 -0.669589
C -2.532029 0.164977 -0.605685
C -2.452953 0.052613 -0.853277
C -2.433751 -0.038083 -0.962043
C -2.563895 -0.002754 -0.887769
C -2.567157 -0.082001 -0.920594
C -2.611574 -0.124254 -0.851131
C -2.481736 -0.271325 -0.950049
C -2.558793 -0.385665 -0.945550
C -2.807121 -0.351839 -0.762979
C -3.187733 -0.189034 -0.494803
C -3.324144 -0.284163 -0.433272
C -3.477888 -0.292747 -0.245867
C -3.523069 -0.306198 -0.129870
C -3.703033 -0.219325 0.182388
C -3.670664 -0.208444 0.319152
C -3.480403 -0.238794 0.458765
C -3.211988 -0.405735 0.414180
C -2.996622 -0.376444 0.432997
C -2.810608 -0.436677 0.348440
C -2.573652 -0.584663 0.236778
C -2.401761 -0.820065 -0.045308
C -2.258822 -1.009917 -0.267822
C -2.122953 -1.167437 -0.441336
C -2.260438 -1.153313 -0.258091
C -2.490932 -1.107389 0.018170
C -2.675294 -1.042775 0.345643
C -2.883063 -0.908791 0.640235
C -3.033109 -0.713633 1.055174
C -3.217229 -0.615431 1.419965
C -3.382355 -0.523242 1.754519
C -3.316148 -0.507790 1.917391
C -3.233963 -0.641170 1.831439
C -3.185904 -0.719442 1.825471
C -3.111204 -0.870296 1.827956
C -3.011974 -1.061727 1.582765
C -2.848374 -1.177192 1.414078
C -2.852081 -1.299141 1.287583
C -2.828327 -1.495406 1.088625
C -2.886805 -1.560162 1.122864
C -2.803639 -1.624886 1.155513
C -2.764551 -1.696622 1.169697
C -2.821885 -1.696404 1.408448
C -2.777327 -1.621475 1.653467
C -2.716560 -1.634313 1.795797
C -2.614102 -1.560553 1.912608
C -2.378798 -1.592342 1.721612
C -2.229552 -1.797837 1.232493
C -2.093768 -1.897544 0.832976
C -1.993758 -1.946590 0.753599
C -1.981186 -2.096005 0.566587
C -1.838842 -2.233735 0.145816
C -1.794631 -2.354856 0.001307
C -1.763003 -2.390662 0.011454
C -1.674890 -2.343157 0.078035
C -1.534690 -2.347243 0.150618
C -1.314246 -2.361567 0.073100
C -1.091801 -2.344560 0.057417
C -0.937382 -2.280926 0.206824
C -0.803460 -2.188749 0.234394
C -0.751836 -2.083394 0.470435
C -0.716418 -2.081990 0.723999
C -0.571585 -2.102355 0.781454
C -0.480926 -2.176688 0.648912
C -0.342102 -2.282538 0.440350
C -0.156955 -2.435125 0.247546
C 0.151783 -2.649532 -0.022779
C 0.474859 -2.910268 -0.439652
C 0.743355 -3.051264 -0.788964
C 0.883840 -3.177206 -0.975220
C 1.074086 -3.236484 -1.029072
C 1.138722 -3.278865 -1.016234
C 1.134687 -3.293634 -0.924514
C 1.003478 -3.331356 -0.862046
C 0.873479 -3.330603 -0.630575
C 0.584041 -3.303846 -0.303235
C 0.352130 -3.265093 -0.091351
C 0.127163 -3.284080 -0.093951
C -0.124579 -3.216358 0.055162
C -0.343085 -3.157889 0.348501
C -0.498125 -3.093862 0.467416
C -0.542489 -3.048503 0.485919
C -0.363819 -3.002305 0.455583
C -0.278912 -2.973338 0.489914
C -0.288255 -2.873256 0.774159
C -0.297921 -2.796745 1.034215
C -0.378586 -2.679311 1.141901
C -0.389258 -2.690887 1.290095
C -0.441001 -2.669377 1.405965
C -0.640999 -2.622305 1.624509
C -0.798634 -2.574857 1.797993
C -0.667969 -2.622889 1.737486
C -0.527081 -2.730671 1.627769
C -0.404337 -2.794357 1.562225
C -0.285571 -2.692114 1.673537
C -0.255144 -2.630376 1.814639
C -0.189919 -2.559931 1.884282
C -0.084527 -2.557927 1.916552
C -0.118369 -2.526906 2.018138
C -0.007570 -2.452014 1.969411
C 0.142879 -2.550950 1.976998
C 0.393487 -2.823517 2.134472
C 0.487542 -2.879037 2.127446
C 0.686554 -3.024147 2.043404
C 0.894400 -3.128877 2.059096
