271
chr11 3D structure from Hi-C (resolution 500000bp)
C -1.217931 4.826350 1.370766
C -1.329703 4.619249 1.260633
C -1.430112 4.523549 1.157495
C -1.500325 4.416767 1.029776
C -1.576409 4.201094 0.818378
C -1.765504 3.844842 0.474007
C -1.822671 3.427899 0.062381
C -1.913688 3.000096 -0.456665
C -1.959263 2.739056 -0.853792
C -1.938888 2.494004 -1.205487
C -1.912211 2.290967 -1.479819
C -1.952869 2.142918 -1.870950
C -1.872974 2.229482 -2.014654
C -1.758507 2.360927 -1.923595
C -1.538812 2.557606 -1.723406
C -1.273343 2.805204 -1.514663
C -1.161772 2.962729 -1.383333
C -1.135475 3.019563 -1.307189
C -1.107040 3.078790 -1.074040
C -1.051383 2.987125 -0.971822
C -0.987532 3.027602 -0.910735
C -1.038185 2.885392 -1.019317
C -1.259913 2.556698 -1.256056
C -1.222396 2.380762 -1.407530
C -1.166635 2.208993 -1.628600
C -1.048893 2.148411 -1.788149
C -1.018252 2.022368 -2.028058
C -1.083231 1.746286 -2.321863
C -1.120805 1.511699 -2.503936
C -1.093225 1.372405 -2.655051
C -1.140400 1.277106 -2.692891
C -1.045357 1.394001 -2.449792
C -1.136518 1.345727 -2.361364
C -1.009008 1.510176 -2.109877
C -0.831312 1.736987 -1.870611
C -0.618180 1.980257 -1.676691
C -0.426701 2.188687 -1.463453
C -0.371481 2.177554 -1.451335
C -0.423260 1.889248 -1.746753
C -0.470508 1.568562 -2.068331
C -0.620468 1.156856 -2.463870
C -0.724683 0.885431 -2.760097
C -0.871625 0.714547 -2.997037
C -0.962836 0.535827 -3.320690
C -0.968253 0.388036 -3.589937
C -0.924921 0.354074 -3.760039
C -0.837486 0.359624 -3.837412
C -0.771022 0.350559 -3.952209
C -0.727050 0.235999 -4.028305
C -0.636246 0.229636 -4.089736
C -0.493407 0.231809 -4.020846
C -0.354578 0.359175 -3.912103
C -0.230596 0.509677 -3.766644
C -0.021071 0.785331 -3.616476
C 0.147732 0.938201 -3.525868
C 0.314849 1.115103 -3.558784
C 0.441217 1.070294 -3.631374
C 0.417719 0.976104 -3.585339
C 0.415147 0.792648 -3.621918
C 0.423196 0.651412 -3.630878
C 0.433999 0.632774 -3.563732
C 0.458827 0.699260 -3.307487
C 0.541334 0.859916 -2.953969
C 0.643123 1.138588 -2.518315
C 0.799229 1.522017 -2.190178
C 0.886889 1.908327 -1.791089
C 1.024470 2.213067 -1.565985
C 1.062390 2.339424 -1.334432
C 1.141991 2.327739 -1.262784
C 1.126992 2.205385 -1.290543
C 1.077416 1.888856 -1.494722
C 1.068178 1.430592 -1.897025
C 1.142541 1.019146 -2.318444
C 1.125077 0.636191 -2.637499
C 1.131596 0.157193 -3.049588
C 1.197593 -0.010836 -3.366596
C 1.307873 -0.212825 -3.600129
C 1.430331 -0.209477 -3.686096
C 1.538630 -0.188867 -3.657698
C 1.581355 -0.116829 -3.586268
C 1.722531 -0.009345 -3.508969
C 1.857931 0.132287 -3.430487
C 1.873713 0.116987 -3.281013
C 1.841600 0.237140 -3.066447
C 1.703311 0.335675 -2.790585
C 1.579628 0.591215 -2.416381
C 1.446057 0.775303 -2.024680
C 1.223050 1.018182 -1.596149
C 1.012953 1.251189 -1.124822
C 0.853206 1.610308 -0.666038
C 0.893193 1.869087 -0.343240
C 1.002865 2.087703 -0.146153
C 1.130863 2.157730 -0.064756
C 1.354412 2.026656 -0.251230
C 1.813726 1.786357 -0.637201
C 2.174591 1.518354 -1.093282
C 2.516535 1.099336 -1.620941
C 2.710015 0.672292 -2.036718
C 3.189990 0.344691 -2.425157
C 2.130387 -0.114958 -2.823854
C 0.943203 -0.316705 -2.940693
C -0.516067 -0.311181 -2.740709
C -1.864604 -0.150482 -2.465021
C -1.377650 -0.128147 -1.824776
C -0.910789 -0.074880 -1.317801
C -2.471414 0.243383 -0.935132
C -1.015790 0.438688 -0.734739
C 0.405196 0.397564 -0.640087
C 1.782492 0.210136 -0.682449
C 3.206803 -0.123125 -0.755986
C 2.762260 -0.246383 -1.119829
C 2.064691 -0.238059 -1.294359
C 3.217820 -0.536826 -1.289862
C 2.951829 -0.555245 -1.100413
C 2.724434 -0.358561 -0.799467
C 2.592314 -0.126251 -0.466825
C 2.351970 0.177158 -0.086748
C 2.191478 0.460900 0.237041
C 2.278710 0.670335 0.475719
C 2.152440 0.922161 0.721535
C 1.979065 1.263902 1.046457
C 1.940748 1.507758 1.304879
C 1.929975 1.749501 1.573965
C 1.965609 1.979275 1.692594
C 1.917506 2.219254 1.854209
C 1.798185 2.458196 2.074973
C 1.886967 2.586452 2.153883
C 2.003417 2.744290 2.266299
C 2.067675 2.892163 2.389976
C 1.994896 2.993253 2.495873
C 1.970217 2.981826 2.754497
C 2.017137 2.935138 2.936134
C 2.004544 2.921841 3.036798
C 2.026378 2.807619 3.159722
C 1.930582 2.606954 3.215654
C 1.767707 2.420580 3.323072
C 1.490342 2.315762 3.327173
C 1.142073 2.315218 3.264587
C 1.059747 2.135262 3.218064
C 0.875941 2.012495 3.122342
C 0.673255 2.032975 3.121288
C 0.531355 2.063755 3.101041
C 0.382385 2.080373 3.048121
C 0.481536 2.017766 3.088342
C 0.670530 1.930471 3.109867
C 0.570770 1.929901 3.121216
C 0.692300 1.769270 3.107771
C 0.700988 1.584362 3.016947
C 0.763847 1.356455 3.050864
C 0.807877 1.195086 2.980281
C 0.842333 1.019013 2.867064
C 0.879681 0.802710 2.797489
C 0.928371 0.664635 2.738462
C 0.943315 0.523606 2.607394
C 0.965547 0.281356 2.436866
C 0.880723 0.088525 2.087591
C 0.914458 -0.293971 1.670155
C 0.984951 -0.682764 1.233761
C 1.068749 -0.999586 0.855906
C 1.045408 -1.352599 0.339623
C 1.117291 -1.716060 -0.005938
C 1.233295 -2.025515 -0.276233
C 1.390198 -2.151412 -0.290580
C 1.487475 -2.054625 -0.090901
C 1.632842 -2.113893 0.050669
C 1.669048 -2.212892 0.029839
C 1.766456 -2.265810 0.134054
C 1.848109 -2.276765 0.285371
C 1.880942 -2.172084 0.506481
C 1.913543 -2.128952 0.678977
C 1.931544 -2.324457 0.578572
C 1.865268 -2.260942 0.622033
C 1.763857 -2.316595 0.629205
C 1.739292 -2.205443 0.809694
C 1.653736 -2.302944 0.765462
C 1.552506 -2.577420 0.465967
C 1.618800 -3.061051 0.264635
C 1.561075 -3.219271 0.286544
C 1.478732 -3.456752 0.149393
C 1.430684 -3.534833 0.080869
C 1.258683 -3.766342 -0.159645
C 1.084854 -3.757203 -0.313057
C 0.994595 -3.642525 -0.187743
C 0.810440 -3.359711 -0.130076
C 0.688541 -3.086783 -0.133466
C 0.662844 -2.910209 0.089546
C 0.627682 -2.690198 0.342341
C 0.678898 -2.473954 0.696924
C 0.744331 -2.332262 1.076490
C 0.710749 -2.170506 1.288982
C 0.588905 -2.314747 1.124090
C 0.450918 -2.596008 0.955157
C 0.212343 -2.784244 0.653866
C 0.028885 -3.015628 0.339973
C -0.151413 -3.242649 -0.083944
C -0.330232 -3.513806 -0.377066
C -0.451244 -3.798533 -0.592882
C -0.649305 -3.807281 -0.596949
C -0.665682 -3.727592 -0.514923
C -0.770967 -3.723967 -0.502164
C -0.857469 -3.664863 -0.467503
C -0.830264 -3.539625 -0.119479
C -0.757544 -3.373887 0.157668
C -0.706878 -3.338230 0.306157
C -0.579149 -3.269644 0.524689
C -0.640132 -3.379659 0.599293
C -0.595748 -3.388777 0.753885
C -0.607074 -3.448675 0.896420
C -0.770176 -3.565843 0.721576
C -0.868969 -3.675696 0.596955
C -0.905253 -3.708665 0.612634
C -1.009475 -3.629446 0.464964
C -0.865252 -3.385697 0.690300
C -0.668617 -3.067374 1.076292
C -0.499305 -2.837532 1.396723
C -0.427459 -2.732369 1.562983
C -0.450097 -2.582347 1.725498
C -0.396178 -2.262944 1.941937
C -0.426235 -2.196719 2.138146
C -0.530754 -2.104112 2.042251
C -0.623409 -2.043860 2.003251
C -0.675908 -1.920970 1.992030
C -0.700174 -1.739007 2.109176
C -0.740671 -1.593738 2.114669
C -0.857052 -1.506938 1.964430
C -0.854930 -1.399430 1.945098
C -0.985806 -1.486361 1.819291
C -1.188888 -1.580590 1.721526
C -1.285980 -1.545490 1.745240
C -1.307740 -1.414889 1.835701
C -1.314091 -1.174297 1.964470
C -1.387109 -0.903911 2.227012
C -1.400583 -0.591010 2.487167
C -1.292736 -0.165596 2.932700
C -1.239065 0.248856 3.175291
C -1.195826 0.510995 3.341580
C -1.288661 0.697926 3.377722
C -1.354135 0.751813 3.404387
C -1.355523 0.634694 3.397825
C -1.359224 0.559566 3.379377
C -1.504719 0.367525 3.148367
C -1.656487 0.048536 2.865803
C -1.858431 -0.185714 2.651535
C -1.854779 -0.368745 2.588603
C -1.908621 -0.581852 2.383378
C -2.009964 -0.875468 2.109564
C -2.043159 -1.068105 2.037707
C -2.048268 -1.088042 2.077958
C -1.932003 -1.054687 2.198167
C -1.914636 -0.988893 2.211225
C -1.990287 -1.083807 2.051754
C -2.048643 -1.241191 1.907413
C -2.119175 -1.298941 1.759798
C -2.218516 -1.415244 1.625665
C -2.303693 -1.415751 1.458872
C -2.480406 -1.587159 1.213367
C -2.554115 -1.732129 1.097386
C -2.600821 -1.571377 1.148908
C -2.626261 -1.419998 1.236269
C -2.648469 -1.311142 1.306664
C -2.720516 -1.232130 1.219349
C -2.756915 -1.349146 1.123956
C -2.774226 -1.327359 1.008441
C -2.822912 -1.274026 0.881979
C -2.856448 -1.389695 0.770096
C -2.871425 -1.295110 0.830736
C -3.002104 -1.152248 0.914531
C -3.331980 -1.044992 1.014316
C -3.409121 -0.969097 1.089545
C -3.497561 -0.786755 1.274253
C -3.633364 -0.728744 1.426196
