267
chr12 3D structure from Hi-C (resolution 500000bp)
C -3.373747 1.809245 -2.016618
C -3.220364 1.919287 -1.928494
C -3.174749 1.931976 -1.946838
C -3.111746 1.922495 -1.943911
C -2.886587 1.851318 -2.123171
C -2.810945 1.878733 -2.107309
C -2.695173 1.915147 -2.189670
C -2.554086 1.896783 -2.197914
C -2.471886 1.885246 -2.214496
C -2.334619 1.742186 -2.395036
C -2.286968 1.545153 -2.642293
C -2.222317 1.460209 -2.788852
C -2.089333 1.540575 -2.751699
C -2.093798 1.546536 -2.884518
C -2.028336 1.548043 -3.111898
C -1.952533 1.434414 -3.309937
C -1.840531 1.519863 -3.305360
C -1.676668 1.836920 -3.189642
C -1.755518 2.215162 -2.825410
C -1.839262 2.566249 -2.558667
C -1.703804 2.688781 -2.380638
C -1.563192 2.610984 -2.448250
C -1.427333 2.685761 -2.453229
C -1.403686 2.906679 -2.164865
C -1.282442 2.970318 -2.060202
C -0.981288 2.880010 -2.186687
C -0.658605 2.652691 -2.380370
C -0.474215 2.802256 -2.243383
C -0.400613 3.124745 -1.781691
C -0.205979 3.318350 -1.350387
C 0.012714 3.422029 -1.255856
C 0.139737 3.571004 -0.941551
C 0.317430 3.683714 -0.620226
C 0.460648 3.852052 -0.369528
C 0.607226 3.901855 -0.187095
C 0.663573 3.926977 -0.079509
C 0.601362 4.036196 -0.202346
C 0.613108 4.109624 -0.173702
C 0.752288 4.071649 -0.210050
C 0.836595 3.962712 -0.321575
C 0.918564 3.928779 -0.408558
C 1.011466 3.830356 -0.510669
C 1.138450 3.700418 -0.822194
C 1.253454 3.641328 -0.932945
C 1.379996 3.484899 -1.280706
C 1.348173 3.327472 -1.627448
C 1.323156 3.182513 -2.011928
C 1.174496 2.971780 -2.235619
C 1.098929 2.897138 -2.474870
C 1.042433 2.638441 -2.637931
C 0.951763 2.307953 -2.889436
C 0.828387 1.978911 -2.925861
C 0.826441 1.841909 -2.916655
C 0.974724 1.954324 -2.802351
C 1.164524 2.040299 -2.614857
C 1.285355 2.098057 -2.492029
C 1.422304 2.270862 -2.157984
C 1.672811 2.507686 -1.778921
C 1.816659 2.737856 -1.574757
C 1.981615 2.713844 -1.686655
C 1.788015 2.462078 -1.685239
C 1.805083 2.370777 -1.912059
C 1.787288 2.228734 -1.919120
C 1.926767 2.378262 -1.622721
C 1.954021 2.504245 -1.334434
C 1.878469 2.737763 -0.845048
C 1.353272 3.163971 -0.060030
C 0.872915 3.604720 0.621954
C 0.237329 3.904391 1.421013
C -0.265637 4.183277 2.134063
C -0.774252 4.238031 2.508850
C -1.109000 4.265385 2.823656
C -1.078327 4.220895 2.946763
C -0.620912 4.043270 2.956815
C 0.146708 3.722634 2.620799
C 0.921531 3.394714 2.192474
C 1.700948 3.029149 1.402725
C 2.257789 2.592930 0.611955
C 2.657502 2.191860 0.049107
C 2.928851 1.803027 -0.434427
C 3.088499 1.453926 -0.898692
C 2.966642 1.154042 -1.178276
C 2.989992 1.007133 -1.321976
C 2.800030 0.912158 -1.176609
C 2.792191 0.760149 -1.178664
C 2.698120 0.629333 -1.297918
C 2.721785 0.489808 -1.461584
C 2.645709 0.305913 -1.672606
C 2.595082 0.229526 -1.789518
C 2.409820 0.014417 -2.081702
C 2.479762 -0.248690 -2.381222
C 2.287689 -0.327787 -2.431286
C 2.035658 -0.497791 -2.591635
C 1.637688 -0.754791 -2.730268
C 1.289956 -0.971918 -2.894918
C 1.059651 -1.236274 -3.101740
C 0.698361 -1.491172 -3.169194
C 0.225782 -1.550634 -3.300477
C -0.083558 -1.687082 -3.468682
C -0.212964 -1.866024 -3.607035
C -0.338405 -1.818684 -3.691340
C -0.422706 -1.709692 -3.492055
C -0.527766 -1.550915 -3.254105
C -0.587011 -1.500212 -3.269144
C -0.637500 -1.554716 -3.132694
C -0.699170 -1.536924 -3.136003
C -0.525968 -1.422049 -2.944782
C -0.214340 -1.448544 -2.851802
C 0.035381 -1.586943 -2.902190
C 0.226419 -1.802174 -3.038451
C 0.416666 -1.813993 -2.886363
C 0.589194 -1.960270 -2.831772
C 0.905997 -2.054059 -2.677379
C 1.138500 -1.910388 -2.426034
C 1.388620 -1.810565 -2.158078
C 1.852215 -1.540786 -1.850848
C 2.321456 -1.211245 -1.377541
C 2.880813 -0.861299 -0.940028
C 3.504518 -0.425795 -0.460403
C 3.847418 0.054187 0.026562
C 3.948181 0.204753 0.238089
C 3.923731 0.140915 0.360269
C 3.688902 -0.071209 0.278222
C 3.615495 -0.200933 0.223983
C 3.512470 -0.573600 0.100304
C 3.227996 -1.021451 -0.121430
C 2.974667 -1.532787 -0.445741
C 2.927564 -1.968477 -0.702651
C 2.834484 -2.168734 -0.900351
C 2.714532 -2.215103 -0.820359
C 2.570966 -2.296015 -0.819595
C 2.395966 -2.234706 -0.779572
C 2.281813 -2.150571 -0.768040
C 2.222322 -2.208657 -0.729059
C 1.984623 -2.283704 -0.799432
C 1.817093 -2.235989 -0.655713
C 1.796071 -2.271890 -0.590305
C 1.908464 -2.191186 -0.420153
C 2.039765 -2.025496 -0.195567
C 2.148114 -1.724319 0.130648
C 2.349084 -1.503072 0.383143
C 2.641902 -1.045499 0.809686
C 2.846167 -0.629968 1.234708
C 2.987282 -0.246987 1.549710
C 2.988189 0.123039 1.843153
C 2.960440 0.260069 2.029175
C 3.062935 0.315886 2.164128
C 3.178359 0.411748 2.365881
C 3.031712 0.118745 2.259693
C 2.895994 -0.190511 2.075089
C 2.805816 -0.531032 1.932766
C 2.725818 -0.832465 1.811946
C 2.688351 -0.996794 1.800671
C 2.551221 -1.240565 1.775895
C 2.435295 -1.348844 1.824865
C 2.553742 -1.435572 2.029405
C 2.624654 -1.698412 2.031496
C 2.643042 -1.726650 2.161785
C 2.535451 -1.899917 2.228012
C 2.505923 -1.910267 2.319326
C 2.452854 -1.842282 2.462214
C 2.351371 -1.882269 2.520665
C 2.265205 -2.019026 2.413623
C 2.058194 -1.604616 2.608892
C 1.941833 -1.238875 2.751686
C 1.827839 -0.721315 3.018468
C 1.722761 -0.541363 3.106275
C 1.683358 -0.315730 3.196920
C 1.569270 -0.026941 3.336186
C 1.384614 0.515570 3.695662
C 1.358983 0.607577 3.919267
C 1.292197 0.540351 3.954952
C 1.294703 0.252696 3.898855
C 1.104679 0.164829 3.934105
C 0.922053 0.006948 3.970832
C 0.855951 -0.209839 3.876992
C 0.803300 -0.703275 3.547400
C 0.778005 -0.971860 3.464324
C 0.800119 -1.184340 3.522462
C 0.750519 -1.369585 3.386573
C 0.818600 -1.679701 3.119976
C 0.817073 -2.020658 2.693986
C 0.777385 -2.342085 2.363166
C 0.679596 -2.423229 2.150325
C 0.559053 -2.619464 1.852720
C 0.379631 -2.875009 1.445410
C 0.219563 -3.012288 1.189036
C 0.011280 -3.075570 0.997345
C -0.158214 -3.006954 1.008957
C -0.319239 -3.046074 1.062778
C -0.426808 -2.849662 1.473292
C -0.452238 -2.703701 1.645167
C -0.566694 -2.450295 2.021822
C -0.568781 -2.338866 2.218988
C -0.607175 -2.239306 2.489835
C -0.576638 -2.142491 2.615043
C -0.568842 -1.842098 2.770065
C -0.627718 -1.947489 2.706334
C -0.761130 -1.983207 2.675231
C -0.739020 -2.166845 2.522824
C -0.820867 -2.276756 2.293139
C -0.818263 -2.576528 1.927991
C -0.913372 -2.892453 1.708245
C -1.013524 -3.250191 1.408085
C -1.084787 -3.243922 1.040411
C -1.194342 -3.409408 0.699578
C -1.282096 -3.436453 0.355303
C -1.382493 -3.389412 0.258501
C -1.592159 -3.063710 0.381428
C -1.709601 -2.777180 0.415794
C -1.807063 -2.552710 0.438455
C -1.975405 -2.531395 0.558987
C -2.096417 -2.395545 0.594603
C -2.362313 -2.310186 0.668656
C -2.518115 -2.327622 0.548883
C -2.599508 -2.337952 0.392336
C -2.787529 -2.366413 0.244430
C -2.930667 -2.417084 -0.048636
C -2.897785 -2.422758 -0.401711
C -2.940107 -2.523297 -0.602743
C -2.879996 -2.685986 -0.907357
C -3.016611 -2.760994 -0.904415
C -3.168113 -2.681982 -0.828633
C -3.240216 -2.573834 -0.745254
C -3.288798 -2.305210 -0.379967
C -3.382955 -2.036878 0.194396
C -3.346868 -1.663446 0.713084
C -3.327515 -1.256620 1.268766
C -3.195984 -0.964063 1.657800
C -3.071295 -0.963993 1.786532
C -3.082897 -0.868444 1.960548
C -3.010226 -0.889322 1.973382
C -2.926004 -0.885413 1.808343
C -2.865696 -0.956585 1.560889
C -2.959112 -0.870126 1.466815
C -2.995560 -0.719285 1.327371
C -3.023634 -0.600985 1.121587
C -3.009177 -0.701645 0.716037
C -3.064454 -0.854534 0.288211
C -3.201456 -0.998114 -0.272177
C -3.411661 -1.069956 -0.681144
C -3.490178 -1.301068 -1.156286
C -3.671359 -1.466987 -1.514678
C -3.743213 -1.523273 -1.675682
C -3.789378 -1.442186 -1.593710
C -3.892778 -1.172537 -1.294555
C -3.902597 -1.031097 -0.903587
C -3.668029 -0.818608 -0.313096
C -3.456492 -0.460723 0.444036
C -3.163774 -0.105669 1.139020
C -2.881273 0.167507 1.782282
C -2.583662 0.372536 2.361127
C -2.323849 0.534399 2.785941
C -2.109200 0.716104 3.161739
C -2.094980 0.789982 3.168046
C -2.109790 0.806293 3.027311
C -2.139346 0.672026 2.955591
C -2.298332 0.689309 2.872321
C -2.418333 0.679991 2.689330
C -2.582732 0.602126 2.452820
C -2.770443 0.523636 2.168571
C -3.042356 0.617921 2.025638
C -3.258194 0.678558 1.811199
C -3.441384 0.923975 1.709940
C -3.533636 0.923496 1.548275
C -3.688706 1.012485 1.448317
C -3.788893 1.167540 1.407732
