267
chr12 3D structure from Hi-C (resolution 500000bp)
C -2.981061 1.454512 -2.561943
C -3.022228 1.517381 -2.444111
C -3.009064 1.543886 -2.329401
C -2.993625 1.563177 -2.180686
C -2.956022 1.330006 -2.166086
C -3.034839 1.346992 -2.089532
C -3.128165 1.332885 -1.980326
C -3.094281 1.310468 -1.811974
C -3.047497 1.278065 -1.693667
C -3.081124 1.059128 -1.772534
C -3.117144 0.748865 -2.020105
C -3.205485 0.517503 -2.054976
C -3.201579 0.374254 -1.940093
C -3.278606 0.265530 -2.010396
C -3.429909 0.098964 -2.053584
C -3.546657 -0.049639 -2.031972
C -3.602730 -0.036271 -1.859316
C -3.682518 -0.028051 -1.607711
C -3.741104 0.408348 -1.224059
C -3.847957 0.805256 -0.941252
C -3.787868 0.913659 -0.695516
C -3.813811 1.085090 -0.493826
C -3.780448 1.032870 -0.434010
C -3.820956 1.064869 -0.278441
C -3.796982 1.275506 -0.032611
C -3.752703 0.904821 -0.074494
C -3.636897 0.481078 -0.051565
C -3.662380 0.407640 0.201102
C -3.598032 0.299996 0.459697
C -3.581107 0.314913 0.791184
C -3.534213 0.326049 1.067381
C -3.478840 0.256179 1.404370
C -3.417531 0.339657 1.758677
C -3.371164 0.269181 2.050620
C -3.275232 0.167544 2.320778
C -3.171349 0.094414 2.508622
C -3.217138 0.045960 2.573032
C -3.188937 -0.069062 2.684496
C -3.147717 -0.316545 2.712158
C -3.055037 -0.575246 2.647942
C -3.091277 -0.679343 2.623486
C -3.070234 -0.789246 2.468691
C -3.077691 -1.026360 2.292227
C -3.031639 -1.270498 2.276517
C -3.028802 -1.598796 2.122493
C -3.099606 -1.685131 1.856544
C -3.217903 -1.728524 1.615365
C -3.212423 -1.752235 1.244632
C -3.256002 -1.716092 1.142842
C -3.266508 -1.713205 0.915414
C -3.220980 -1.704625 0.495521
C -3.123452 -1.533184 0.156155
C -3.059184 -1.506871 0.069512
C -3.025015 -1.629002 0.103789
C -2.940490 -1.526172 0.398006
C -3.027355 -1.553064 0.423798
C -2.892494 -1.373110 0.781084
C -2.764071 -1.155370 1.324743
C -2.692082 -0.925684 1.806580
C -2.693038 -0.506709 2.070575
C -2.519230 -0.231416 2.017189
C -2.536249 0.065204 1.999042
C -2.265074 0.198679 2.122529
C -2.193570 0.260505 2.351321
C -2.157258 0.371416 2.512458
C -2.125215 0.538203 2.720040
C -2.012188 0.789687 2.888474
C -2.024339 1.509630 3.172277
C -1.921275 1.980680 3.282711
C -1.852211 2.649904 3.414890
C -1.731009 3.210610 3.390409
C -1.603762 3.555442 3.411609
C -1.446077 3.587672 3.500719
C -1.285094 3.201625 3.631543
C -1.132766 2.343745 3.697803
C -0.989926 1.461996 3.766086
C -1.044571 0.268295 3.454689
C -1.118392 -0.636722 3.106942
C -1.127382 -1.392103 2.779664
C -1.184204 -2.005050 2.403709
C -1.171250 -2.414855 2.041693
C -1.137533 -2.515123 1.668195
C -1.168333 -2.713143 1.442435
C -1.070592 -2.491918 1.439582
C -1.017447 -2.612921 1.278081
C -1.023796 -2.662733 1.065943
C -1.021857 -2.821784 0.832106
C -1.005872 -2.892976 0.631651
C -1.015945 -2.952578 0.495393
C -1.015808 -3.005534 0.098937
C -1.045669 -3.220093 -0.212487
C -1.064281 -3.115431 -0.396659
C -1.090205 -3.024734 -0.691678
C -1.093460 -2.805024 -1.083392
C -1.202144 -2.727818 -1.591554
C -1.243496 -2.664834 -2.080768
C -1.241371 -2.422128 -2.478265
C -1.196025 -2.088726 -2.876802
C -1.160979 -1.916847 -3.236022
C -1.095337 -1.868896 -3.504997
C -1.037191 -1.761797 -3.607503
C -0.929110 -1.548958 -3.498661
C -0.880211 -1.353885 -3.246995
C -0.891823 -1.291842 -3.237672
C -0.816969 -1.341701 -3.181200
C -0.811911 -1.502201 -3.115521
C -0.772587 -1.620376 -2.839979
C -0.714128 -1.875369 -2.600589
C -0.628861 -2.125931 -2.621190
C -0.467030 -2.341524 -2.810530
C -0.268498 -2.467346 -2.647331
C -0.167064 -2.511031 -2.566414
C -0.011098 -2.551151 -2.423167
C 0.113083 -2.585696 -2.066251
C 0.237178 -2.607083 -1.612709
C 0.316819 -2.834519 -1.061846
C 0.367223 -3.058025 -0.455089
C 0.374278 -3.126566 0.401797
C 0.376291 -3.248980 1.321604
C 0.435364 -3.294784 1.956532
C 0.434563 -3.254278 2.185272
C 0.492648 -3.221374 2.025261
C 0.541417 -3.051433 1.798511
C 0.650814 -2.985367 1.856895
C 0.793901 -3.154853 1.432835
C 0.957709 -3.223612 0.851156
C 0.963564 -3.166045 0.375304
C 1.101664 -3.298377 -0.000653
C 1.198058 -3.330583 -0.269880
C 1.276013 -3.234383 -0.299258
C 1.303089 -3.081479 -0.377914
C 1.348467 -2.927998 -0.463219
C 1.334802 -2.769340 -0.478001
C 1.426604 -2.750956 -0.559853
C 1.436225 -2.602359 -0.807737
C 1.393723 -2.333988 -0.695430
C 1.368675 -2.213642 -0.507785
C 1.433355 -2.257736 -0.353213
C 1.439740 -2.194313 -0.058897
C 1.431395 -2.070363 0.361983
C 1.477716 -1.991366 0.791808
C 1.476950 -1.846636 1.496560
C 1.524698 -1.833839 2.055154
C 1.571805 -1.762568 2.375360
C 1.507619 -1.461350 2.758071
C 1.580785 -1.425743 2.931458
C 1.680597 -1.492139 3.051210
C 1.816025 -1.466967 3.201221
C 1.905403 -1.491062 2.919568
C 1.973911 -1.478481 2.494049
C 2.068698 -1.549731 2.119751
C 2.193684 -1.601703 1.829287
C 2.297417 -1.636573 1.673632
C 2.441987 -1.585535 1.441788
C 2.562435 -1.666816 1.232969
C 2.788557 -1.785900 1.196347
C 2.971979 -1.951695 1.109507
C 3.167886 -1.993651 1.080620
C 3.314340 -2.100583 0.871695
C 3.385238 -1.962651 0.962755
C 3.400172 -1.856609 1.042171
C 3.353959 -1.628033 1.187249
C 3.424395 -1.421304 1.154691
C 3.273890 -1.092967 1.475278
C 3.100339 -0.846974 1.863929
C 2.862526 -0.437599 2.339461
C 2.766072 -0.278923 2.441007
C 2.654192 -0.068422 2.693347
C 2.503685 0.124693 2.920296
C 2.287339 0.480797 3.285929
C 2.329930 0.705530 3.438789
C 2.376047 0.819145 3.332862
C 2.541612 0.795070 3.143118
C 2.684627 0.915142 3.009049
C 2.798955 0.993401 2.794925
C 2.968106 1.045669 2.512219
C 3.067805 0.731823 2.028864
C 3.192523 0.567093 1.764351
C 3.336624 0.578499 1.641348
C 3.381800 0.487689 1.416748
C 3.341046 0.366585 1.220963
C 3.278524 0.134736 0.765314
C 3.225575 -0.120419 0.344261
C 3.144663 -0.154962 0.079160
C 3.109196 -0.216911 -0.328666
C 3.054522 -0.397229 -0.804378
C 2.913487 -0.466418 -1.146897
C 2.803350 -0.453317 -1.481870
C 2.790317 -0.331226 -1.522619
C 2.883761 -0.278462 -1.601797
C 3.049430 -0.072841 -1.371181
C 3.040062 0.125063 -1.131529
C 3.130454 0.452431 -0.814469
C 3.211338 0.589080 -0.653867
C 3.266009 0.784836 -0.485175
C 3.256611 0.898236 -0.261133
C 3.131454 1.171915 0.096590
C 3.116167 1.332738 0.090063
C 3.127018 1.382390 0.107163
C 3.033335 1.333225 -0.118598
C 2.928981 1.263137 -0.323168
C 2.993144 1.136595 -0.605457
C 3.109654 1.112731 -0.985109
C 3.131095 1.017662 -1.505656
C 2.868170 0.902518 -1.735597
C 2.683089 0.752027 -2.240646
C 2.476808 0.586989 -2.410192
C 2.445056 0.639954 -2.534525
C 2.285893 0.862038 -2.372846
C 2.029281 0.929742 -2.283521
C 1.909020 1.023840 -2.145935
C 1.918077 1.203402 -2.147536
C 1.840805 1.400389 -2.072529
C 1.857281 1.646623 -2.157512
C 1.743151 1.669269 -2.291003
C 1.558988 1.578735 -2.523001
C 1.437300 1.555731 -2.762354
C 1.240367 1.493542 -3.074505
C 1.115284 1.430558 -3.281047
C 1.061871 1.409843 -3.490795
C 0.970134 1.303540 -3.690578
C 0.963174 1.564857 -3.720573
C 0.962210 1.791058 -3.685704
C 1.014317 2.046263 -3.531913
C 1.139966 2.331525 -3.106184
C 1.165512 2.645615 -2.642294
C 1.211513 2.911180 -2.074475
C 1.212620 3.219046 -1.451539
C 1.284588 3.289212 -1.007962
C 1.337236 3.293864 -0.823693
C 1.395964 3.369263 -0.693115
C 1.332846 3.303526 -0.709335
C 1.259791 3.150243 -0.783070
C 1.207294 3.014832 -1.029884
C 1.170695 3.012849 -1.166655
C 1.104695 3.021019 -1.246977
C 0.994999 2.985242 -1.323740
C 0.771972 2.861053 -1.566974
C 0.612129 2.643144 -1.923312
C 0.375548 2.492970 -2.394300
C 0.155441 2.395775 -2.717790
C -0.035721 2.250632 -3.114502
C -0.289490 2.205282 -3.457321
C -0.430186 2.107138 -3.690310
C -0.469706 2.146559 -3.653085
C -0.467752 2.506531 -3.365239
C -0.338591 2.711252 -3.045002
C -0.070576 2.793330 -2.424996
C 0.209117 2.952356 -1.676324
C 0.514118 3.030814 -0.920708
C 0.805961 3.219820 -0.232937
C 1.045771 3.273736 0.338433
C 1.208943 3.213046 0.873608
C 1.368679 3.218067 1.372874
C 1.327939 3.258290 1.423774
C 1.196651 3.245309 1.378210
C 1.137162 3.278397 1.275191
C 1.003773 3.382972 1.280817
C 0.883804 3.370759 1.182549
C 0.742228 3.401035 0.830543
C 0.524620 3.461508 0.445899
C 0.283564 3.658396 0.211814
C 0.050609 3.765972 -0.084190
C -0.240112 3.870421 -0.235945
C -0.405477 3.835005 -0.490269
C -0.595029 3.953125 -0.683407
C -0.771511 4.102822 -0.734761
