381
chr4 3D structure from Hi-C (resolution 500000bp)
C -4.122528 0.136078 -1.337753
C -4.148965 0.038357 -1.099817
C -4.176684 0.005920 -0.887585
C -4.204010 -0.031493 -0.802956
C -4.272218 -0.159893 -0.634246
C -4.250225 -0.307091 -0.584185
C -4.112340 -0.456173 -0.566160
C -3.916874 -0.528969 -0.838757
C -3.778067 -0.557392 -1.111706
C -3.694612 -0.646368 -1.298975
C -3.634989 -0.722750 -1.342119
C -3.573016 -0.807979 -1.382908
C -3.527653 -0.815146 -1.484556
C -3.575655 -0.815342 -1.534882
C -3.606963 -0.834927 -1.506542
C -3.589211 -0.727920 -1.745617
C -3.498671 -0.762938 -1.920002
C -3.352191 -0.806419 -2.136165
C -3.235234 -0.835181 -2.171990
C -3.152584 -0.864019 -2.195363
C -2.923139 -0.867328 -2.422516
C -2.698289 -0.881291 -2.611142
C -2.512079 -1.020775 -2.556716
C -2.408585 -1.042046 -2.559299
C -2.349741 -1.059535 -2.667344
C -2.259284 -1.012967 -2.870757
C -2.177999 -1.010400 -2.971452
C -2.215300 -1.052042 -2.907854
C -2.385777 -1.110176 -2.649929
C -2.453948 -1.214179 -2.521646
C -2.400928 -1.282875 -2.606064
C -2.344142 -1.333365 -2.559733
C -2.365310 -1.383935 -2.424332
C -2.268414 -1.456059 -2.429996
C -2.136802 -1.486058 -2.548032
C -1.900245 -1.450664 -2.821949
C -1.708444 -1.389631 -3.010658
C -1.623833 -1.374610 -3.057049
C -1.515354 -1.380273 -3.143865
C -1.322937 -1.443364 -3.332462
C -1.272996 -1.390924 -3.520851
C -1.262851 -1.434927 -3.474201
C -1.361793 -1.599639 -3.311628
C -1.403900 -1.752575 -3.168328
C -1.351059 -1.752663 -3.166744
C -1.422152 -1.889139 -3.038152
C -1.551146 -1.911140 -2.808574
C -1.690590 -1.986067 -2.433797
C -1.817143 -2.013430 -2.191370
C -1.917105 -1.970247 -1.982368
C -2.049768 -1.984854 -1.786135
C -2.112766 -2.117039 -1.632439
C -1.921054 -2.018718 -1.742483
C -1.692127 -1.988708 -1.990279
C -1.391639 -2.013099 -2.288244
C -1.097183 -1.997283 -2.577873
C -0.724385 -2.014355 -2.884175
C -0.441443 -1.964333 -3.145874
C -0.338484 -1.950657 -3.225970
C -0.342765 -2.036980 -3.194610
C -0.344186 -2.153755 -3.136316
C -0.287469 -2.237989 -3.089391
C -0.291454 -2.339362 -3.023439
C -0.302960 -2.420907 -2.983215
C -0.238343 -2.509055 -2.942635
C -0.127571 -2.577668 -2.930878
C 0.170561 -2.508668 -3.112999
C 0.189370 -2.563186 -3.021155
C 0.098449 -2.564743 -2.907090
C -0.164408 -2.569853 -2.592891
C -0.420750 -2.575680 -2.360425
C -0.664311 -2.603102 -2.137319
C -1.032691 -2.489792 -1.786929
C -1.685306 -2.489809 -1.188565
C -2.112859 -2.323118 -0.828137
C -2.531275 -2.164070 -0.404789
C -2.756918 -1.972676 -0.153745
C -2.918827 -1.829955 0.120454
C -3.095810 -1.671304 0.370980
C -3.017445 -1.681972 0.365577
C -2.824196 -1.732920 0.265465
C -2.579747 -1.776749 0.162949
C -2.277207 -1.975273 -0.019115
C -1.832770 -2.245703 -0.381479
C -1.503418 -2.507724 -0.676664
C -1.129914 -2.723618 -0.961114
C -0.965055 -2.873412 -1.127258
C -0.739600 -3.006749 -1.322709
C -0.486851 -3.150716 -1.544676
C -0.339506 -3.216363 -1.679585
C -0.318272 -3.162675 -1.679839
C -0.396371 -3.068651 -1.585864
C -0.647113 -2.974524 -1.407379
C -0.853283 -2.801731 -1.211606
C -1.167751 -2.595462 -0.961580
C -1.075841 -2.328692 -1.273406
C -0.653747 -1.840117 -1.754673
C -1.314503 -1.211421 -1.219283
C -1.844158 -0.588375 -0.765152
C -0.995378 -0.347124 -1.249915
C -0.884711 -0.614225 -1.194390
C -0.575577 -0.704876 -1.286730
C -0.864826 -0.851536 -0.645323
C -1.519624 -1.191127 0.167559
C -1.046504 -1.784147 -0.096325
C -0.477652 -2.381691 -0.408264
C -1.110735 -2.621148 0.084388
C -1.002563 -2.471359 0.066553
C -1.213264 -2.525866 0.300438
C -1.245346 -2.517499 0.380631
C -1.161354 -2.458137 0.371716
C -0.930346 -2.443585 0.334051
C -0.664074 -2.500800 0.223446
C -0.418779 -2.514230 0.084518
C -0.014656 -2.489017 -0.132725
C 0.447599 -2.493646 -0.375531
C 0.839902 -2.587650 -0.516344
C 1.337742 -2.683453 -0.773022
C 1.584810 -2.754860 -0.861730
C 1.673595 -2.716741 -0.869648
C 1.731327 -2.710579 -0.818312
C 1.689157 -2.670827 -0.731748
C 1.739160 -2.592330 -0.766973
C 1.833664 -2.570735 -0.839218
C 1.745350 -2.660059 -0.699642
C 1.735849 -2.620118 -0.645426
C 1.805967 -2.599415 -0.570698
C 1.838187 -2.600784 -0.438820
C 1.855359 -2.666151 -0.318894
C 1.891680 -2.645474 -0.250223
C 1.909321 -2.583531 -0.169126
C 1.823971 -2.499436 -0.105024
C 1.564993 -2.468173 0.082974
C 1.493275 -2.588268 0.210312
C 0.481136 -1.960534 0.391298
C 0.280304 -2.007083 0.531605
C 0.153943 -2.079002 0.753967
C -0.066861 -2.184781 0.977056
C -0.330885 -2.103530 1.150464
C -0.252881 -2.172986 1.158059
C -0.333119 -2.086354 1.202901
C 0.529122 -2.761877 1.183685
C 0.594455 -2.701024 1.143232
C 0.258510 -2.597613 1.283249
C 0.102220 -2.468607 1.298123
C 0.186836 -2.476672 1.326826
C 0.072957 -2.386740 1.406585
C -0.160708 -2.275649 1.496078
C -0.542763 -2.045155 1.607333
C -0.922012 -1.867901 1.772672
C -1.001147 -1.797285 1.770971
C -1.136569 -1.681268 1.772949
C -1.260260 -1.587064 1.795452
C -1.205628 -1.579858 1.805560
C -1.334102 -1.445160 1.863763
C -1.055230 -1.630631 1.906363
C -0.734442 -1.787729 1.919584
C -0.623671 -1.862803 2.006057
C -0.498581 -1.943685 2.155410
C -0.275489 -2.057964 2.154937
C -0.254497 -2.049478 2.126686
C -0.135370 -2.083543 2.061554
C -0.331883 -1.882086 2.060935
C -0.601430 -1.660631 2.105391
C -0.422703 -1.623149 1.972744
C -0.138736 -1.631405 1.716408
C 0.053659 -1.565759 1.543181
C 0.211961 -1.533617 1.506259
C 0.306114 -1.567659 1.612874
C 0.629078 -1.658615 1.544167
C 0.722707 -1.659189 1.527709
C 0.538310 -1.521045 1.606489
C 0.440355 -1.510352 1.812823
C 0.109921 -1.410261 2.055795
C -0.079133 -1.308345 2.236229
C 0.068659 -1.315060 2.188320
C 0.139967 -1.276837 2.212074
C 0.495166 -1.351742 2.190138
C 0.916280 -1.520844 2.195270
C 1.106417 -1.495640 2.116130
C 1.604984 -1.584902 1.944547
C 2.002065 -1.661708 1.827527
C 2.209972 -1.652304 1.736189
C 2.264152 -1.634108 1.747461
C 2.310255 -1.610805 1.721790
C 2.127189 -1.456269 1.737521
C 2.024502 -1.368859 1.746694
C 1.896111 -1.288212 1.807285
C 1.857493 -1.208267 1.761184
C 1.953757 -1.148812 1.656137
C 2.083271 -1.126055 1.484631
C 2.210361 -1.107309 1.330178
C 2.520555 -1.160485 1.168541
C 2.398146 -1.112346 1.308062
C 2.194865 -1.054274 1.409186
C 1.922655 -1.007622 1.604468
C 1.501370 -0.911269 1.872049
C 1.307147 -0.866893 2.103270
C 1.015388 -0.786951 2.413824
C 0.535610 -0.660349 2.683064
C 0.644010 -0.689102 2.699786
C 0.641010 -0.670653 2.792112
C 0.412418 -0.538824 2.786748
C 0.494511 -0.489872 2.837637
C 0.540916 -0.418059 2.833937
C 0.390537 -0.312541 2.891617
C 0.340302 -0.249393 2.913128
C -0.040162 -0.067525 2.920738
C -0.179697 0.030206 2.887801
C 0.011317 0.029820 2.860664
C 0.315696 -0.029402 2.539340
C 0.409191 -0.020357 2.315526
C 0.587707 -0.024101 2.132281
C 0.657321 -0.011061 2.015451
C 0.996897 -0.078741 1.918745
C 1.134798 -0.089801 1.919732
C 0.983764 -0.052936 1.884536
C 0.535134 0.076393 2.188982
C 0.535841 0.124770 2.265922
C 0.782731 0.083924 2.096205
C 1.154274 0.050411 1.998445
C 0.942991 0.125151 1.995005
C 0.806802 0.208775 1.966794
C 1.020126 0.221514 1.968867
C 0.933251 0.299402 1.968550
C 0.867700 0.364267 2.056655
C 0.755327 0.451588 2.156100
C 0.646301 0.561060 2.322934
C 0.989772 0.582498 2.416307
C 1.348807 0.554261 2.412456
C 1.613653 0.584001 2.398132
C 2.143987 0.521535 2.217959
C 2.256134 0.521812 2.230210
C 2.227014 0.584456 2.327350
C 2.066963 0.629541 2.347191
C 1.942204 0.707350 2.334636
C 1.936132 0.744851 2.186522
C 2.050196 0.731532 2.014232
C 2.045793 0.753620 1.896199
C 1.793054 0.810606 1.859440
C 1.568990 0.861466 1.848148
C 1.456134 0.881233 1.757147
C 1.338056 0.901392 1.698920
C 1.067057 0.983737 1.824805
C 0.906701 1.028582 1.810608
C 0.899845 1.049029 1.710428
C 1.156965 1.017763 1.476003
C 1.557703 0.976459 1.205466
C 2.033662 0.939860 0.955367
C 2.447770 0.881614 0.610476
C 2.872028 0.823785 0.293525
C 2.955775 0.844528 0.219914
C 2.644775 0.935835 0.477451
C 2.274657 1.070284 0.762128
C 1.837813 1.148105 0.969948
C 1.619700 1.263892 1.118763
C 1.557814 1.349086 1.269332
C 1.424536 1.454457 1.497613
C 1.429598 1.536394 1.608382
C 1.575070 1.635787 1.665530
C 1.754845 1.742725 1.769229
C 2.016031 1.819728 1.786145
C 2.192038 1.838730 1.671155
C 2.157436 1.948646 1.755580
C 2.195057 2.019506 1.699958
C 2.154278 2.103845 1.693396
C 2.289544 2.109230 1.565056
C 2.388393 2.117288 1.325386
C 2.523023 2.102347 1.107380
C 2.525790 2.108368 1.052557
C 2.491287 2.117677 0.971659
C 2.477979 2.119199 0.889006
C 2.338329 2.154910 0.891808
C 2.061711 2.166506 0.909379
C 1.870061 2.138917 0.934918
C 1.320821 2.155839 1.152244
C 0.844008 2.169825 1.364357
C 0.509018 2.175777 1.463002
C 0.131141 2.180856 1.561749
C -0.073686 2.203088 1.625849
C -0.175844 2.263376 1.644996
C -0.267205 2.328729 1.704533
C -0.066804 2.439768 1.667071
C -0.039242 2.527739 1.649870
C -0.043994 2.632784 1.649166
C 0.070984 2.761604 1.646689
C 0.024305 2.740253 1.534683
C -0.099187 2.711107 1.542621
C -0.287516 2.656621 1.530912
C -0.461942 2.598597 1.511610
C -0.328150 2.635325 1.383458
C -0.143750 2.624178 1.300511
C -0.343174 2.506967 1.271714
C -0.205356 2.472302 1.185032
C 0.144049 2.504708 0.993306
C 0.586015 2.489928 0.721953
C 0.924055 2.521003 0.559187
C 0.855464 2.489461 0.579186
C 0.520161 2.442256 0.613988
C 0.476431 2.465875 0.589059
C 0.168066 2.505914 0.745368
C -0.285278 2.493942 0.905132
C -0.849416 2.528731 1.155558
C -1.288929 2.517212 1.242787
C -1.442095 2.516416 1.209488
C -1.241655 2.503170 1.027102
C -0.981565 2.549612 0.937185
C -0.599289 2.590824 0.713223
C -0.110249 2.558980 0.350514
C 0.461121 2.513912 -0.016906
C 0.984256 2.461045 -0.297817
C 1.461484 2.369909 -0.586155
C 1.765067 2.314471 -0.768836
C 1.955727 2.284635 -0.915575
C 1.733042 2.330495 -0.792137
C 1.401525 2.396406 -0.546174
C 1.364177 2.487379 -0.495845
C 1.382015 2.611625 -0.434744
C 1.439803 2.636378 -0.417228
C 1.406293 2.719356 -0.385635
C 1.369737 2.839271 -0.364706
C 1.742538 2.787799 -0.629320
C 2.061466 2.825145 -0.841670
C 1.927605 2.913813 -0.769110
C 1.649921 2.990183 -0.670606
C 1.563064 3.038797 -0.762065
C 1.319898 3.128188 -0.628272
C 1.043709 3.121966 -0.541156
C 0.883035 3.185851 -0.488473
C 0.803143 3.269349 -0.433942
C 0.522577 3.278929 -0.423057
C 0.573045 3.324989 -0.530064
C 0.533339 3.355148 -0.530455
C 0.499597 3.380305 -0.548738
C 0.493488 3.368985 -0.601164
C 0.138663 3.376026 -0.394468
C -0.106942 3.340731 -0.308483
C -0.002751 3.351220 -0.382099
C -0.180916 3.316889 -0.413759
C -0.529126 3.452222 -0.323762
C -0.647997 3.466875 -0.387139
C -0.599194 3.486639 -0.542683
C -0.329674 3.499185 -0.766294
C -0.346472 3.440439 -0.821337
C -0.152721 3.365073 -0.955568
C -0.059959 3.337372 -0.948373
C -0.008269 3.298608 -0.941150
C 0.263167 3.211612 -1.102848
C 0.359080 3.221633 -1.124455
C 0.272411 3.260829 -1.126431
C 0.397942 3.321803 -1.301974
C 0.330483 3.379088 -1.267858
C 0.428923 3.354937 -1.455061
C 0.641373 3.325784 -1.623780
C 0.627248 3.313970 -1.689745
C 0.650357 3.226290 -1.797711
C 0.826086 3.112023 -1.972374
C 0.879599 3.056783 -2.005499
C 0.893555 3.019652 -2.092457
C 0.821458 3.011557 -2.099177
C 0.613481 2.979032 -2.063291
C 0.391515 2.999161 -1.991830
C 0.158113 3.027739 -1.865030
C -0.158092 3.067737 -1.693554
C -0.434482 3.065113 -1.527824
C -0.780090 3.030355 -1.279896
C -1.116831 3.002474 -0.996585
C -1.363832 3.006085 -0.690801
C -1.480063 2.937484 -0.560988
C -1.448538 2.892054 -0.629083
C -1.296941 2.861800 -0.885367
C -1.050343 2.819364 -1.202692
C -0.721455 2.786850 -1.589448
C -0.428577 2.771632 -2.036947
C -0.027016 2.692169 -2.499453
C 0.317316 2.650592 -2.878839
C 0.888391 2.267604 -3.251522
C 1.363494 1.868942 -3.484952
C 1.549001 1.728083 -3.589497
C 1.757201 1.543111 -3.728777
C 2.212431 1.214653 -3.844580
