381
chr4 3D structure from Hi-C (resolution 500000bp)
C -1.811793 1.781505 -4.024359
C -1.710091 1.553542 -4.081264
C -1.658821 1.286442 -4.132910
C -1.597988 1.163536 -4.184689
C -1.517053 0.969758 -4.306297
C -1.366617 0.894945 -4.331392
C -1.158746 0.880909 -4.254859
C -1.029984 1.118027 -4.079236
C -0.922878 1.300888 -3.993493
C -0.787531 1.503159 -3.932317
C -0.682265 1.560408 -3.879193
C -0.590599 1.622096 -3.840433
C -0.563977 1.755519 -3.796242
C -0.519159 1.707469 -3.844419
C -0.490118 1.746322 -3.866841
C -0.597104 2.018665 -3.772789
C -0.527024 2.159536 -3.696815
C -0.408788 2.376838 -3.577660
C -0.298683 2.397826 -3.468918
C -0.188456 2.472561 -3.368099
C -0.159629 2.802203 -3.108666
C -0.070193 2.985956 -2.840433
C 0.131376 2.994034 -2.717476
C 0.162430 3.088890 -2.568993
C 0.138213 3.244609 -2.457961
C 0.126860 3.460157 -2.323472
C 0.108650 3.498801 -2.265276
C 0.121103 3.382988 -2.342798
C 0.182589 3.076165 -2.585746
C 0.255607 2.922675 -2.678361
C 0.273413 2.970660 -2.710472
C 0.326688 2.884704 -2.734987
C 0.392048 2.696217 -2.784429
C 0.503749 2.713578 -2.745127
C 0.567475 2.868263 -2.577272
C 0.572079 3.181102 -2.319613
C 0.531661 3.388315 -2.090546
C 0.605979 3.479779 -1.911572
C 0.649757 3.586799 -1.762676
C 0.679071 3.843289 -1.521724
C 0.608763 4.055543 -1.385032
C 0.655894 3.968654 -1.444065
C 0.714174 3.837182 -1.537632
C 0.825028 3.689318 -1.621223
C 0.879033 3.619844 -1.706050
C 0.936054 3.522785 -1.769837
C 1.004686 3.292793 -1.999267
C 1.079066 2.873090 -2.226515
C 1.131492 2.655971 -2.384620
C 1.161287 2.422713 -2.545924
C 1.228837 2.243428 -2.686169
C 1.281691 2.152473 -2.722247
C 1.368414 2.196631 -2.644654
C 1.429285 2.394982 -2.370230
C 1.522394 2.741873 -2.037743
C 1.614800 3.042891 -1.686514
C 1.670622 3.376197 -1.299781
C 1.695788 3.619117 -1.069600
C 1.729639 3.679965 -0.934308
C 1.762179 3.727187 -0.881371
C 1.810102 3.684669 -0.868156
C 1.894083 3.616227 -0.853580
C 1.966310 3.532315 -0.868513
C 2.061291 3.490477 -0.882105
C 2.129786 3.489085 -0.735306
C 2.174500 3.510905 -0.576897
C 2.107247 3.698039 -0.231620
C 2.135187 3.646588 -0.203966
C 2.168441 3.561810 -0.256154
C 2.069381 3.229569 -0.618769
C 2.014513 2.916938 -0.952871
C 2.000393 2.637266 -1.275434
C 1.902512 2.246209 -1.687632
C 1.828586 1.570205 -2.395482
C 1.580061 1.131474 -2.891400
C 1.279921 0.649255 -3.272676
C 1.072848 0.375178 -3.409711
C 0.938445 0.090532 -3.518024
C 0.736586 -0.200430 -3.661479
C 0.708021 -0.199531 -3.601791
C 0.785469 -0.077326 -3.409945
C 0.932946 0.011739 -3.210958
C 1.163395 0.226470 -3.014217
C 1.512521 0.679534 -2.590748
C 1.813457 1.065252 -2.336955
C 2.146800 1.424219 -2.021299
C 2.321837 1.584313 -1.906716
C 2.468504 1.810632 -1.771831
C 2.694611 2.063526 -1.550080
C 2.835358 2.230593 -1.424793
C 2.852906 2.153635 -1.508186
C 2.742476 2.006210 -1.557471
C 2.559731 1.793066 -1.748775
C 2.384922 1.557583 -1.935592
C 2.158712 1.256713 -2.148491
C 2.003484 0.931280 -2.690682
C 1.267565 0.174734 -3.157148
C 0.491391 -0.487819 -3.573978
C -0.299442 -0.978749 -3.924103
C -1.047832 -1.338404 -4.226605
C -0.829357 -1.413556 -4.261328
C -0.588730 -1.363590 -4.070835
C -0.581879 -1.354944 -3.663572
C -0.010458 -0.991244 -3.371123
C 0.667618 -0.624605 -3.051298
C 1.497662 -0.296552 -2.659698
C 2.332519 0.079859 -2.137480
C 2.283335 0.172164 -1.871790
C 2.242321 -0.010087 -1.964424
C 2.270360 -0.072158 -1.964342
C 2.284830 -0.064846 -1.873894
C 2.317947 0.014416 -1.644782
C 2.394827 0.169826 -1.348347
C 2.460448 0.297327 -1.105599
C 2.660324 0.347429 -0.914695
C 2.856070 0.499851 -0.621368
C 3.040493 0.579708 -0.375015
C 3.211291 0.876924 0.067003
C 3.326280 1.046688 0.305146
C 3.383813 0.976701 0.326268
C 3.496603 0.832614 0.331133
C 3.412215 0.864244 0.422220
C 3.326691 0.925459 0.530890
C 3.287508 1.073603 0.735123
C 3.328618 0.993922 0.750848
C 3.326329 0.941835 0.823604
C 3.293108 0.957832 0.952579
C 3.219354 0.964506 1.034135
C 3.219004 0.881313 1.142102
C 3.231001 0.795201 1.271051
C 3.226257 0.635939 1.192651
C 3.160553 0.488611 1.039619
C 3.103361 0.188168 0.691606
C 3.140331 0.185575 0.802780
C 2.927389 0.676932 1.196169
C 2.889188 0.807881 1.313553
C 2.907242 0.628993 1.101621
C 2.944436 0.478865 1.015357
C 2.789764 0.217587 0.741481
C 2.834834 0.241884 0.843065
C 2.824707 0.033180 0.598295
C 3.086504 -0.643492 0.063285
C 3.139676 -0.909605 -0.147956
C 2.893246 -0.983185 -0.369151
C 2.694738 -1.053255 -0.574852
C 2.782092 -1.026600 -0.505953
C 2.707223 -1.117795 -0.617939
C 2.546756 -1.233856 -0.886409
C 2.183745 -1.443286 -1.260003
C 1.864145 -1.625454 -1.635637
C 1.794533 -1.673377 -1.702242
C 1.667627 -1.704827 -1.774701
C 1.479042 -1.703196 -1.835627
C 1.451586 -1.759313 -1.775755
C 1.285335 -1.853487 -1.791240
C 1.571636 -1.840353 -1.496993
C 1.838520 -1.860489 -1.246135
C 1.960123 -1.892474 -1.087533
C 2.110166 -2.016994 -0.974104
C 2.309301 -2.035867 -0.820606
C 2.272972 -2.039724 -0.893490
C 2.323418 -2.032411 -0.825939
C 2.030727 -2.084072 -1.043223
C 1.701321 -2.098421 -1.258024
C 1.702045 -2.039868 -1.139934
C 1.671719 -1.729418 -0.840537
C 1.654074 -1.598767 -0.606787
C 1.695247 -1.500103 -0.356237
C 1.756534 -1.539027 -0.239267
C 2.009540 -1.450708 0.053473
C 2.045773 -1.489455 0.138246
C 1.906119 -1.573602 0.037135
C 1.908197 -1.784666 -0.080989
C 1.678275 -1.972291 -0.380476
C 1.584661 -2.137585 -0.553640
C 1.553301 -2.016476 -0.450241
C 1.535752 -2.078547 -0.396582
C 1.748057 -2.106634 -0.117189
C 1.971531 -1.994081 0.271538
C 2.065052 -2.046560 0.453206
C 2.381705 -1.918935 0.895168
C 2.541303 -1.776232 1.314169
C 2.656581 -1.806596 1.573364
C 2.638396 -1.758690 1.704339
C 2.593192 -1.587510 1.844181
C 2.421544 -1.726006 1.631446
C 2.318599 -1.728495 1.588249
C 2.179393 -1.836055 1.534581
C 2.107608 -1.942815 1.462296
C 2.107918 -1.765385 1.551355
C 2.107437 -1.641667 1.699183
C 2.124882 -1.517802 1.846384
C 2.245478 -1.314310 2.172055
C 2.167473 -1.399293 2.074480
C 2.054418 -1.503642 1.872755
C 1.932994 -1.602245 1.649170
C 1.720533 -1.933070 1.293858
C 1.620746 -2.125692 1.160309
C 1.504292 -2.461461 0.891928
C 1.293186 -2.822530 0.446595
C 1.305394 -2.807104 0.589231
C 1.300016 -2.778630 0.736882
C 1.076765 -2.800954 0.533130
C 1.086656 -2.677354 0.673819
C 1.082963 -2.571688 0.764678
C 0.907391 -2.670354 0.568480
C 0.802965 -2.685820 0.504747
C 0.540368 -2.765250 0.113060
C 0.362409 -2.798600 -0.118052
C 0.451214 -2.727846 0.173593
C 0.510110 -2.465177 0.394394
C 0.448616 -2.289081 0.432970
C 0.492147 -2.142088 0.652869
C 0.541364 -1.839718 0.896114
C 0.684426 -1.729901 1.229603
C 0.745610 -1.751890 1.344005
C 0.679912 -1.781139 1.224321
C 0.472706 -2.164410 0.828072
C 0.459541 -2.320910 0.814160
C 0.565399 -2.063641 1.093634
C 0.625719 -2.076023 1.275463
C 0.514149 -2.124105 1.158387
C 0.381907 -2.054226 1.046303
C 0.379848 -2.053046 1.176826
C 0.284457 -2.088672 1.115204
C 0.189411 -2.223282 1.056751
C 0.033285 -2.402389 0.946088
C 0.009859 -2.543769 1.011669
C 0.055696 -2.579906 1.255723
C 0.177961 -2.574623 1.694694
C 0.276093 -2.501021 2.017638
C 0.465589 -2.277194 2.507628
C 0.534678 -2.061001 2.682087
C 0.520426 -2.160498 2.681844
C 0.324225 -2.306276 2.391104
C 0.227522 -2.368050 2.302378
C 0.161545 -2.352845 2.255451
C 0.024168 -2.497455 2.120032
C -0.082539 -2.537072 2.067125
C -0.277702 -2.771097 1.787200
C -0.396235 -2.737091 1.601948
C -0.423971 -2.607092 1.588292
C -0.479644 -2.516591 1.453250
C -0.607683 -2.604092 1.218931
C -0.568307 -2.250959 1.298564
C -0.520919 -2.080506 1.368513
C -0.453014 -1.812747 1.652419
C -0.327305 -1.544568 2.002597
C -0.174008 -1.212799 2.424349
C -0.054465 -0.791426 2.853277
C 0.118874 -0.319702 3.239160
C 0.091838 -0.237735 3.298265
C -0.113375 -0.423100 2.950950
C -0.305101 -0.657388 2.568417
C -0.498212 -0.916264 2.159573
C -0.642970 -1.035552 2.003605
C -0.710760 -1.093929 1.975930
C -0.806689 -1.205422 1.974648
C -0.802482 -1.133912 1.983952
C -0.711791 -0.882932 2.418135
C -0.546225 -0.542719 2.929333
C -0.478316 -0.291250 3.394120
C -0.465928 -0.298005 3.557714
C -0.548654 -0.468512 3.583497
C -0.607135 -0.502336 3.587651
C -0.740785 -0.732909 3.586768
C -0.866284 -0.969801 3.504155
C -1.055858 -1.179007 3.376416
C -1.157474 -1.256276 3.322456
C -1.269077 -1.364257 3.256930
C -1.320877 -1.407826 3.145408
C -1.416035 -1.576988 3.025296
C -1.507885 -1.662130 2.895933
C -1.556937 -1.660442 2.665315
C -1.606044 -1.746211 2.418668
C -1.680140 -1.900941 1.882002
C -1.740994 -1.925952 1.431387
C -1.850938 -2.001985 1.112925
C -1.925682 -2.044693 0.769166
C -2.034246 -2.128576 0.524171
C -2.154487 -2.211012 0.333816
C -2.260697 -2.295528 0.235686
C -2.323394 -2.301580 0.521092
C -2.363764 -2.247405 0.664679
C -2.413779 -2.237502 0.799547
C -2.510137 -2.258625 0.982519
C -2.521165 -2.175440 1.024200
C -2.499253 -2.099675 0.896961
C -2.500857 -2.034036 0.725645
C -2.487086 -1.983754 0.426483
C -2.555598 -2.033621 0.377423
C -2.470710 -1.862457 0.425050
C -2.397578 -1.754132 0.190390
C -2.327024 -1.618138 0.258564
C -2.207976 -1.314652 0.716650
C -2.058749 -0.979274 1.158316
C -2.033116 -0.801902 1.594457
C -2.006447 -0.697598 1.631307
C -2.101344 -0.801465 1.301691
C -2.191147 -0.795871 1.279737
C -2.344138 -0.889318 1.008647
C -2.547091 -1.191998 0.528921
C -2.742160 -1.514187 -0.041437
C -2.843934 -1.636160 -0.501015
C -2.869981 -1.604656 -0.656955
C -2.898199 -1.515382 -0.455919
C -2.851909 -1.423484 -0.164028
C -2.710387 -1.179144 0.220230
C -2.819768 -1.133236 0.347938
C -2.871346 -1.036693 0.723154
C -2.761241 -0.775601 1.206639
C -2.678892 -0.539219 1.725000
C -2.535746 -0.242552 2.044884
C -2.535949 -0.146466 2.179121
C -2.681141 -0.308726 1.942291
C -2.595394 -0.246454 1.953533
C -2.464913 0.005070 2.153638
C -2.509274 -0.035331 2.178647
C -2.515477 0.040780 2.164732
C -2.709507 -0.175932 2.074435
C -2.824186 -0.261879 2.015656
C -2.821960 -0.120472 2.330369
C -2.846226 0.004572 2.608734
C -2.981624 -0.143937 2.437248
C -3.170989 -0.243443 2.192716
C -3.278384 -0.330802 2.153277
C -3.307127 -0.262277 1.985173
C -3.295627 -0.170135 1.814856
C -3.275080 -0.097740 1.769695
C -3.342989 -0.041449 1.547482
C -3.430463 0.045635 1.310702
C -3.417603 0.199610 1.415902
C -3.371851 0.324611 1.393134
C -3.353448 0.312646 1.445535
C -3.364828 0.316675 1.392819
C -3.418032 0.161398 1.002551
C -3.384202 0.093153 0.955841
C -3.375021 0.147124 1.074372
C -3.431667 0.111214 0.904530
C -3.639572 0.027518 0.745487
C -3.684446 0.127950 0.737132
C -3.525892 0.392554 1.067873
C -3.434742 0.654573 1.445839
C -3.373325 0.694688 1.461627
C -3.232186 0.795785 1.686444
C -3.087730 0.889708 1.821116
C -2.966213 0.922788 1.779715
C -2.835333 1.113675 1.932599
C -2.932498 1.092062 1.849191
C -3.025229 1.052279 1.678233
C -3.035467 1.255875 1.917721
C -3.096788 1.276309 1.782893
C -3.091512 1.434843 1.834035
C -3.120578 1.603928 1.921828
C -3.255860 1.596138 1.781589
C -3.330251 1.623347 1.666841
C -3.364841 1.674687 1.639297
C -3.396367 1.680094 1.487966
C -3.351745 1.732448 1.511334
C -3.343051 1.755212 1.462772
C -3.328423 1.711857 1.340009
C -3.292186 1.660883 1.203968
C -3.286041 1.537781 1.026242
C -3.294173 1.472525 0.900416
C -3.290846 1.319304 0.695720
C -3.395100 1.102641 0.320729
C -3.498296 0.807113 -0.102366
C -3.547621 0.484531 -0.417420
C -3.544091 0.343860 -0.552272
C -3.512091 0.404081 -0.580930
C -3.462255 0.639210 -0.499741
C -3.406520 0.986137 -0.263188
C -3.293949 1.375407 0.096899
C -3.157776 1.861710 0.518367
C -3.017160 2.340693 0.951525
C -2.859934 2.757620 1.306200
C -2.354139 3.273645 1.787013
C -1.932357 3.639524 2.133068
C -1.748215 3.771522 2.293643
C -1.524249 3.951808 2.454029
C -1.236266 4.103101 2.640850
