277
chr9 3D structure from Hi-C (resolution 500000bp)
C -2.470623 -0.213137 0.019210
C -2.493278 -0.203323 -0.007615
C -2.684371 -0.188607 -0.157784
C -2.777946 -0.150352 -0.262156
C -2.869443 -0.210128 -0.465488
C -3.044058 -0.177693 -0.522245
C -3.170388 -0.195242 -0.374214
C -3.318759 -0.183358 -0.366634
C -3.431761 -0.143852 -0.275940
C -3.354788 -0.119189 -0.180563
C -3.289701 -0.200950 -0.019622
C -3.188146 -0.306311 0.008276
C -3.202656 -0.323219 -0.262745
C -3.078976 -0.380263 -0.599919
C -2.807425 -0.572812 -0.862392
C -2.727734 -0.724558 -1.216688
C -2.683445 -0.892224 -1.471641
C -2.597683 -1.028623 -1.766359
C -2.571922 -1.100526 -2.018654
C -2.381223 -1.226740 -2.127028
C -2.347511 -1.271448 -2.313311
C -2.390854 -1.323496 -2.420509
C -2.284945 -1.423063 -2.436639
C -2.306522 -1.447874 -2.520971
C -2.227095 -1.470263 -2.680148
C -2.210420 -1.460338 -2.656752
C -2.218621 -1.500839 -2.459262
C -2.294595 -1.568726 -2.157158
C -2.333596 -1.567090 -1.883686
C -2.353085 -1.571162 -1.711121
C -2.329997 -1.719988 -1.517481
C -2.390113 -1.819927 -1.428468
C -2.330867 -1.954726 -1.291363
C -2.493677 -2.007734 -1.247357
C -2.434069 -2.059766 -1.234709
C -2.502483 -2.049119 -1.110301
C -2.642949 -2.127057 -1.111420
C -2.674554 -2.084740 -0.958046
C -2.767559 -1.951838 -0.554691
C -2.947611 -1.917851 -0.396269
C -2.829412 -1.927763 -0.313303
C -2.804645 -2.022863 -0.341467
C -2.689898 -2.202183 -0.593373
C -2.422939 -2.278419 -0.751183
C -2.159868 -2.353657 -1.038138
C -1.861374 -2.580014 -1.448214
C -1.562272 -2.643148 -1.818920
C -1.354924 -2.763507 -2.140218
C -1.128019 -2.791866 -2.248614
C -1.033330 -2.825365 -2.374143
C -1.156615 -2.780924 -2.142928
C -1.282164 -2.797056 -1.858056
C -1.448392 -2.766171 -1.569810
C -1.523089 -2.839083 -1.364040
C -1.605118 -2.924524 -1.115890
C -1.672148 -2.962259 -0.988895
C -1.721956 -2.986094 -0.748406
C -1.632591 -3.192227 -0.899510
C -1.573143 -3.406547 -1.074994
C -1.527260 -3.531038 -1.143600
C -1.616291 -3.549123 -1.031939
C -1.718535 -3.399042 -0.860093
C -1.895245 -3.284678 -0.584891
C -2.071376 -2.995816 -0.238787
C -2.279977 -2.503757 0.178824
C -2.487262 -1.850809 0.596674
C -2.792339 -1.238798 0.909410
C -3.016204 -0.583504 1.165880
C -3.177186 -0.125597 1.375537
C -3.335012 0.246583 1.559027
C -3.307556 0.361017 1.604636
C -3.356489 0.372550 1.643869
C -3.289542 0.177460 1.653420
C -3.054223 -0.131764 1.644523
C -2.925027 -0.695068 1.640900
C -2.909351 -1.233352 1.686462
C -2.790633 -1.079737 0.839251
C -2.664574 -0.823061 -0.089643
C -2.036372 -1.166904 -0.841325
C -1.558915 -1.269795 -1.625327
C -1.245530 -1.226820 -2.470747
C -0.856259 -1.123547 -3.147696
C -0.183103 -1.003848 -3.993398
C 0.591593 -1.408536 -3.994196
C 1.410880 -1.472909 -3.841470
C 1.785075 -0.840667 -3.814792
C 2.162518 -0.263864 -3.701488
C 2.567099 0.340491 -3.457678
C 2.951302 1.130200 -3.347840
C 3.018510 2.026866 -3.142092
C 2.837288 2.849269 -2.928295
C 2.422782 3.339573 -2.793267
C 1.919186 3.736768 -2.699265
C 1.366208 4.023477 -2.641307
C 0.805133 4.178443 -2.646246
C 0.258303 4.199979 -2.727720
C -0.291235 4.091025 -2.882742
C -0.782141 3.882219 -3.089030
C -1.102068 3.617639 -3.335451
C -1.217394 3.340800 -3.593360
C -1.155859 3.079468 -3.839800
C -0.945907 2.856055 -4.045457
C -0.600392 2.688774 -4.185730
C -0.102621 2.590498 -4.252817
C 0.502566 2.545089 -4.235594
C 1.316477 2.470530 -3.949584
C 2.046620 2.441535 -3.578877
C 2.648814 2.477333 -3.191526
C 2.678525 2.645111 -3.044435
C 2.204392 2.887764 -2.728811
C 1.510848 3.087370 -2.371440
C 0.641695 3.238876 -2.023978
C -0.532656 3.411436 -1.941529
C -1.683902 3.522216 -2.019727
C -2.728768 3.583577 -2.163977
C -3.190037 3.571288 -2.076120
C -2.429102 3.517370 -2.014989
C -1.486369 3.459159 -2.041256
C -0.555870 3.112097 -2.431378
C 0.360677 2.665090 -2.826958
C 1.139851 2.150233 -3.136186
C 1.779808 1.784562 -3.447031
C 2.326955 1.272056 -3.690736
C 2.172475 0.796997 -4.130226
C 2.089687 -0.052829 -4.372746
C 2.117225 -0.526820 -4.256005
C 1.770962 -0.534607 -4.346519
C 1.477041 -0.390459 -4.398311
C 1.235345 -0.351228 -4.395149
C 1.514672 -0.415907 -4.303723
C 1.859329 -0.540879 -3.997827
C 2.085025 -0.197410 -3.911140
C 2.266362 0.034898 -3.879892
C 2.744807 -0.284885 -3.409756
C 2.695529 -0.651354 -2.397916
C 2.752676 -1.037668 -1.470012
C 2.355136 -1.313994 -0.750932
C 1.771273 -1.687689 -0.120774
C 1.204413 -2.059608 0.399094
C 0.826929 -2.474379 0.881359
C 0.482993 -2.615985 1.209632
C 0.603143 -2.796772 1.118061
C 0.717948 -2.930758 1.006666
C 0.902485 -3.069458 0.809001
C 1.178574 -3.124278 0.452353
C 1.373082 -3.162871 0.269720
C 1.372720 -3.071668 0.261548
C 1.411265 -2.929907 0.310276
C 1.608155 -2.822475 0.122936
C 1.642285 -2.761681 0.178481
C 1.519435 -2.655251 0.394107
C 1.355669 -2.696554 0.671425
C 1.397544 -2.670980 0.935821
C 1.377295 -2.617708 1.080592
C 1.518509 -2.690202 1.095487
C 1.630976 -2.690277 1.140816
C 1.730977 -2.708601 1.172857
C 1.982219 -2.732863 0.993638
C 2.193509 -2.575967 0.810238
C 2.263426 -2.537567 0.516147
C 2.429063 -2.517292 0.275352
C 2.592842 -2.493126 0.092466
C 2.631464 -2.434273 0.009319
C 2.644720 -2.405722 -0.083185
C 2.266649 -2.387341 0.283363
C 2.030392 -2.358102 0.647490
C 1.748584 -2.249927 1.090887
C 1.516778 -2.175571 1.514816
C 1.052404 -2.104384 2.018939
C 0.721767 -1.958263 2.381577
C 0.573327 -1.839187 2.626799
C 0.590219 -1.702873 2.627472
C 0.500123 -1.551608 2.626627
C 0.554291 -1.537391 2.691347
C 0.526684 -1.422146 2.661012
C 0.459091 -1.322411 2.721776
C 0.367296 -1.199322 2.807534
C 0.241254 -1.131966 2.987108
C 0.166045 -0.926963 3.009494
C 0.108198 -0.800968 3.195137
C -0.045844 -0.604342 3.211423
C -0.281393 -0.444394 3.367016
C -0.363144 -0.150678 3.265558
C -0.387178 -0.016561 3.337892
C -0.425996 0.186511 3.240432
C -0.553100 0.255970 3.327566
C -0.618849 0.393297 3.156244
C -0.799768 0.471623 3.254561
C -0.767099 0.513633 3.294351
C -0.675122 0.497677 3.403292
C -0.776609 0.374350 3.485176
C -0.911217 0.305218 3.649897
C -0.720886 0.311143 3.579751
C -0.692981 0.271530 3.561355
C -0.419107 0.244170 3.410517
C -0.169598 0.190104 3.429199
C 0.034165 -0.023185 3.447126
C 0.380291 -0.103850 3.267179
C 0.888664 -0.325048 2.922460
C 1.399674 -0.646628 2.787714
C 1.812712 -0.895273 2.585927
C 2.163001 -1.105095 2.276530
C 2.433740 -1.254396 1.811441
C 2.785372 -1.302746 1.335270
C 3.040263 -1.352256 1.016964
C 3.229554 -1.248011 0.834756
C 3.032710 -1.115880 0.776329
C 2.969691 -0.999805 0.894351
C 2.979571 -0.913582 1.133562
C 3.073495 -0.877991 1.240163
C 2.989037 -0.788669 1.397337
C 2.804945 -0.706328 1.569705
C 2.643570 -0.671890 1.717453
C 2.639591 -0.605998 1.672657
C 2.705691 -0.517078 1.737689
C 2.525783 -0.377265 1.798287
C 2.393018 -0.187619 1.955449
C 2.252314 -0.010682 2.100763
C 2.238537 0.154893 2.170966
C 2.271021 0.413700 2.301509
C 2.159445 0.672074 2.514525
C 1.959668 0.878254 2.596627
C 1.925943 0.966264 2.591977
C 1.749604 1.057082 2.566412
C 1.631542 1.109758 2.482281
C 1.662042 1.242266 2.455571
C 1.653078 1.214409 2.393692
C 1.704982 1.113587 2.214191
C 1.951557 1.000349 1.973460
C 2.169954 1.000785 1.793202
C 2.328768 0.947270 1.691174
C 2.510869 0.853003 1.551691
C 2.633099 0.688211 1.399693
C 2.685702 0.649423 1.200813
C 2.858874 0.610741 1.047545
C 2.905035 0.599109 0.959005
C 2.887989 0.619808 0.868226
C 2.842350 0.658909 0.826851
C 2.617932 0.878252 0.986509
C 2.256415 1.046450 1.131302
C 1.937854 1.207111 1.359742
C 1.602157 1.450570 1.616672
C 1.422449 1.725512 1.771988
C 0.915830 1.914855 2.133774
C 0.423212 2.098144 2.406197
C 0.218222 2.123550 2.471736
C -0.087681 2.309526 2.522848
C -0.463361 2.449994 2.563839
C -0.750492 2.609780 2.638361
C -1.064667 2.641412 2.769057
C -1.085994 2.720155 2.667467
C -1.161723 2.896965 2.481240
C -1.318181 3.098540 2.354958
C -1.316293 3.270143 2.149058
C -1.296642 3.485624 1.848146
C -1.331861 3.619746 1.601330
C -1.445231 3.762039 1.444120
C -1.464681 3.885809 1.297029
C -1.263932 3.904626 1.320610
C -1.121393 3.956839 1.327776
C -0.894628 3.890409 1.412262
C -0.649061 3.816585 1.576978
C -0.430348 3.759966 1.641027
C -0.198038 3.823375 1.564464
C -0.007825 3.827005 1.582740
C 0.075790 3.863401 1.491027
C 0.311665 3.838606 1.415091
C 0.490526 3.853743 1.353140
C 0.515941 3.868243 1.288759
C 0.496311 3.966555 1.173610
C 0.424338 4.000313 1.064357
C 0.293102 4.098424 0.827727
C 0.377092 4.078720 0.697708
C 0.471347 4.153052 0.528830
C 0.394142 4.230238 0.415257
C 0.435025 4.279058 0.270840
C 0.583676 4.263244 0.169501
