277
chr9 3D structure from Hi-C (resolution 500000bp)
C -1.471709 1.997238 -1.204195
C -1.415442 2.001285 -1.292339
C -1.396987 2.181910 -1.359005
C -1.379355 2.339851 -1.361540
C -1.291809 2.473228 -1.462996
C -1.327243 2.635682 -1.481179
C -1.412710 2.697964 -1.426830
C -1.493361 2.831751 -1.444992
C -1.657489 2.927445 -1.360017
C -1.795193 2.805499 -1.336666
C -1.882473 2.593743 -1.383385
C -1.874745 2.465674 -1.505661
C -1.761273 2.588253 -1.612933
C -1.498554 2.677255 -1.730887
C -1.212698 2.629320 -1.898761
C -0.846308 2.718669 -2.065569
C -0.536001 2.895780 -2.124706
C -0.218249 3.053255 -2.161039
C 0.118712 3.106103 -2.150580
C 0.401837 2.980831 -2.138962
C 0.620020 3.072119 -2.061700
C 0.730988 3.155408 -1.988233
C 0.815492 3.092160 -1.992408
C 0.999473 3.096951 -2.031490
C 1.131755 3.147209 -1.996016
C 1.058469 3.167584 -1.963482
C 0.888791 3.135461 -1.971559
C 0.721627 2.962950 -2.068142
C 0.661616 2.658190 -2.150475
C 0.612845 2.470915 -2.139745
C 0.690665 2.288208 -2.124435
C 0.753115 2.169184 -2.231993
C 0.810557 2.026510 -2.331680
C 0.841440 1.986987 -2.448412
C 0.852829 1.889675 -2.508032
C 0.623596 1.935520 -2.494567
C 0.560605 2.067961 -2.647626
C 0.191833 2.041543 -2.754766
C -0.314608 1.908105 -2.748577
C -0.663171 1.952900 -2.804246
C -0.745219 1.861141 -2.758575
C -0.599548 1.875717 -2.810612
C -0.136180 1.866141 -2.894782
C 0.082814 1.726115 -2.879883
C 0.440190 1.597338 -2.919919
C 0.978826 1.556125 -3.032891
C 1.493008 1.456017 -3.085417
C 1.835157 1.491008 -3.170919
C 1.897845 1.381234 -3.216177
C 1.877845 1.433170 -3.298659
C 1.623014 1.393975 -3.299354
C 1.266844 1.409982 -3.311450
C 0.895963 1.426014 -3.341443
C 0.584253 1.472370 -3.393071
C 0.303378 1.338557 -3.500611
C 0.148148 1.295570 -3.511768
C -0.043048 1.158234 -3.536390
C 0.059144 1.157587 -3.730157
C 0.259344 1.131699 -3.953565
C 0.222763 1.101090 -4.034944
C 0.148748 1.046088 -4.068924
C 0.005706 1.056191 -3.962196
C -0.282781 1.051330 -3.913492
C -0.769870 1.062427 -3.673025
C -1.246524 1.062016 -3.200840
C -1.776500 1.122229 -2.625755
C -2.149773 1.264037 -2.133505
C -2.589008 1.424499 -1.656987
C -2.984614 1.541004 -1.210132
C -3.315872 1.670996 -0.870397
C -3.353349 1.642412 -0.816020
C -3.462055 1.602372 -0.840313
C -3.406736 1.516933 -1.040499
C -3.217626 1.326697 -1.261335
C -3.030917 1.083231 -1.679384
C -2.078820 1.217414 -1.805355
C -1.016264 1.403833 -1.690213
C 0.001125 1.776992 -1.378483
C 1.086235 1.561745 -1.435316
C 2.042565 1.435737 -1.473704
C 3.019332 1.463121 -1.457428
C 3.840439 1.588787 -1.250769
C 4.011161 1.462993 -1.264599
C 4.157895 1.349245 -1.307580
C 3.999856 1.478258 -1.200796
C 3.761383 2.216353 -0.729633
C 3.490460 2.863071 -0.101093
C 3.108658 3.331497 0.542315
C 2.839428 3.664668 1.288216
C 2.396766 3.922192 1.985689
C 1.932078 4.033761 2.614631
C 1.786863 3.780143 3.033968
C 1.776315 3.409823 3.432947
C 1.835437 2.942450 3.798135
C 1.884539 2.408783 4.124530
C 1.916001 1.886801 4.397878
C 1.935694 1.501931 4.595668
C 1.887768 1.346548 4.706545
C 1.659793 1.516170 4.645203
C 1.377596 1.849428 4.474545
C 1.098372 2.358777 4.160700
C 0.819465 3.019071 3.729423
C 0.507594 3.727200 3.240646
C 0.140891 4.339362 2.765569
C -0.189388 4.754476 2.382226
C -0.344451 4.870214 2.233825
C 0.234498 4.058958 2.210725
C 0.793474 3.204814 2.297150
C 1.219418 2.870284 2.464033
C 1.730861 2.514538 2.670923
C 2.393863 2.071059 2.891482
C 3.096301 1.547533 3.094980
C 3.724030 0.912315 3.268778
C 3.609265 0.914932 3.405872
C 3.434321 0.834186 3.578243
C 3.350027 0.234743 3.803555
C 3.289065 -0.285309 4.010124
C 3.380160 -0.573067 4.005252
C 3.533728 -0.720932 3.821620
C 3.727166 -0.721819 3.547592
C 3.928694 -0.605171 3.072380
C 4.231122 -0.346430 2.613317
C 4.521785 -0.071491 2.029497
C 4.836676 -0.141332 1.572505
C 4.945452 -0.354095 1.124344
C 4.883452 -0.579970 0.572120
C 4.938107 -0.710305 0.169627
C 4.979038 -0.692180 0.006204
C 4.909032 -0.464978 -0.036763
C 4.898903 -0.273760 0.098191
C 4.797088 0.123375 0.182731
C 4.660763 0.721451 0.402498
C 4.605064 1.365073 0.866450
C 4.406829 1.130598 1.035944
C 3.387687 0.942491 0.787343
C 2.537471 0.513417 0.408626
C 1.829693 0.026453 -0.093599
C 1.131949 -0.447052 -0.770493
C 0.611696 -1.069146 -1.376617
C 0.156275 -1.794357 -2.079646
C -0.485751 -1.763118 -2.529328
C -0.289166 -1.880893 -2.618343
C -0.170520 -2.013018 -2.712286
C 0.011413 -2.100870 -2.833283
C 0.371015 -2.142024 -2.862617
C 0.529923 -2.212936 -2.872064
C 0.529477 -2.267879 -2.763634
C 0.705982 -2.225040 -2.617709
C 0.906019 -2.183370 -2.479367
C 0.983408 -2.167208 -2.352016
C 0.857842 -2.258904 -2.200369
C 0.594844 -2.419296 -2.129366
C 0.506281 -2.540825 -2.038428
C 0.445527 -2.550311 -1.905032
C 0.560296 -2.640947 -1.911985
C 0.646242 -2.726554 -1.912722
C 0.647027 -2.782650 -1.974064
C 0.930855 -2.740239 -2.010778
C 1.229810 -2.617603 -1.864371
C 1.421520 -2.551582 -1.773501
C 1.661950 -2.532897 -1.783628
C 1.858920 -2.549395 -1.805552
C 1.885970 -2.538178 -1.760135
C 1.807379 -2.585702 -1.685327
C 1.340492 -2.686481 -1.658486
C 0.792736 -2.728534 -1.697503
C 0.233023 -2.714718 -1.754539
C -0.292453 -2.719561 -1.746644
C -0.999516 -2.756070 -1.696545
C -1.476132 -2.657478 -1.635332
C -1.590795 -2.582083 -1.575858
C -1.733414 -2.414163 -1.500248
C -1.761737 -2.262141 -1.355910
C -1.788685 -2.251574 -1.264871
C -1.715764 -2.219279 -1.163965
C -1.879343 -2.083754 -1.118033
C -2.007940 -2.007905 -1.021406
C -2.297031 -1.939352 -0.993628
C -2.345235 -1.922847 -0.821055
C -2.578216 -1.890439 -0.821264
C -2.711164 -1.757401 -0.689696
C -3.032732 -1.646393 -0.581654
C -3.002075 -1.545877 -0.319699
C -3.120418 -1.505138 -0.146039
C -3.056771 -1.468198 0.098867
C -3.208032 -1.433873 0.196780
C -3.120189 -1.381436 0.379667
C -3.267104 -1.317019 0.435808
C -3.284767 -1.301530 0.473965
C -3.329825 -1.305754 0.444526
C -3.420302 -1.443902 0.395678
C -3.533492 -1.578446 0.471111
C -3.395607 -1.509746 0.494765
C -3.309965 -1.620717 0.522328
C -3.019508 -1.728487 0.528952
C -2.857179 -2.063214 0.512652
C -2.738869 -2.339118 0.462778
C -2.418508 -2.413140 0.342460
C -1.962082 -2.535375 0.085527
C -1.272259 -2.891829 0.108639
C -0.843410 -3.006725 -0.067045
C -0.379885 -3.214625 -0.124818
C 0.197275 -3.192908 -0.173565
C 0.837844 -3.249448 -0.220643
C 1.297523 -3.341907 -0.219319
C 1.546193 -3.381885 -0.191481
C 1.264291 -3.305118 -0.353751
C 1.080082 -3.376497 -0.299400
C 0.876645 -3.485888 -0.299203
C 0.867295 -3.533547 -0.203642
C 0.711850 -3.542615 -0.119912
C 0.482654 -3.486861 -0.056446
C 0.292221 -3.432567 0.038384
C 0.289464 -3.418241 0.138220
C 0.288790 -3.425473 0.248519
C 0.177194 -3.301024 0.350197
C -0.113540 -3.290021 0.514414
C -0.296475 -3.204460 0.669057
C -0.411551 -3.137056 0.834648
C -0.525892 -3.112354 1.062795
C -0.775382 -3.109572 1.199607
C -0.927578 -3.043816 1.363325
C -0.985848 -2.950119 1.430873
C -1.069399 -2.713337 1.401398
C -1.188498 -2.547946 1.377499
C -1.183863 -2.522142 1.442637
C -1.071721 -2.378873 1.474105
C -0.878917 -2.267274 1.389741
C -0.517955 -2.259308 1.315570
C -0.206746 -2.236821 1.366208
C 0.007860 -2.377972 1.376845
C 0.245956 -2.486429 1.416686
C 0.496566 -2.496183 1.388039
C 0.682768 -2.584483 1.279606
C 0.878037 -2.631645 1.374148
C 0.899646 -2.664774 1.446753
C 0.876243 -2.746291 1.480088
C 0.820734 -2.666888 1.515294
C 0.504552 -2.566015 1.541428
C 0.140323 -2.406534 1.597948
C -0.291653 -2.183050 1.702467
C -0.666105 -2.029606 1.829451
C -0.946235 -1.851952 2.028839
C -1.273938 -1.698681 2.242804
C -1.399253 -1.497627 2.540266
C -1.444192 -1.400994 2.662155
C -1.447751 -1.389750 2.944983
C -1.503522 -1.393059 3.222546
C -1.490409 -1.287396 3.470370
C -1.705443 -1.177679 3.422367
C -1.872020 -1.027267 3.432654
C -2.293564 -0.801286 3.277360
C -2.256362 -0.508671 3.462406
C -2.214866 -0.239606 3.518793
C -2.120107 0.139542 3.575062
C -2.195770 0.357928 3.599818
C -2.302589 0.629924 3.560159
C -2.243741 0.855992 3.602429
C -2.087497 0.788663 3.683178
C -2.260798 0.719046 3.567190
C -2.430679 0.667368 3.431900
C -2.686909 0.541651 3.215950
C -2.856906 0.509901 3.067052
C -2.844851 0.556582 3.148392
C -2.930706 0.556875 3.067528
C -2.915455 0.735383 3.090862
C -2.817062 0.753349 3.170510
C -2.765574 0.684521 3.212897
C -2.668744 0.764645 3.249199
C -2.676263 0.950526 3.244273
C -2.606674 1.083421 3.295969
C -2.617087 1.330633 3.280198
C -2.694354 1.350818 3.152649
C -2.670513 1.696838 3.093531
C -2.729726 2.006228 3.025246
C -2.783921 2.177074 3.013563
C -2.712942 2.267014 2.994709
