498
chr1 3D structure from Hi-C (resolution 500000bp)
C 1.590776 4.950900 -0.916920
C 1.641047 4.745880 -1.172409
C 1.961020 4.601091 -1.323134
C 2.061678 4.406823 -1.506396
C 1.773287 4.127115 -1.958184
C 1.893621 3.802267 -2.068895
C 2.215935 3.478781 -2.171805
C 2.584297 3.211344 -2.265369
C 2.630656 2.985660 -2.272450
C 2.285999 2.888276 -2.268738
C 1.981608 2.909375 -2.192146
C 1.977464 2.856862 -2.167062
C 1.739651 2.894026 -2.176360
C 1.336249 3.033605 -2.134520
C 0.849037 3.239679 -2.068709
C 0.439118 3.483382 -2.051075
C 0.156980 3.615014 -2.079887
C 0.055611 3.707052 -2.094420
C -0.137091 3.858874 -2.123441
C -0.240850 3.922782 -2.178284
C -0.183417 3.910935 -2.296128
C -0.039307 3.792559 -2.338194
C 0.345523 3.634307 -2.423526
C 0.933841 3.507382 -2.478949
C 1.161309 3.265485 -2.517917
C 1.377433 3.055347 -2.518685
C 1.556530 2.865737 -2.529687
C 1.649662 2.782527 -2.558267
C 1.481844 2.780624 -2.572679
C 1.126346 2.870649 -2.550945
C 0.701295 2.987541 -2.606793
C 0.539752 3.073905 -2.638672
C 0.431611 3.137132 -2.685308
C 0.401626 3.197613 -2.743250
C 0.394775 3.222095 -2.748326
C 0.538476 3.196152 -2.861425
C 0.636865 3.103836 -2.927861
C 0.642416 2.895959 -2.963146
C 0.507003 2.910921 -3.019306
C 0.241829 2.986957 -3.079974
C -0.065469 3.108204 -3.096724
C -0.229315 3.133501 -3.139319
C -0.213134 3.181140 -3.153049
C -0.430237 3.213873 -3.107982
C -0.726564 3.335844 -3.020698
C -0.800099 3.357564 -2.994196
C -0.920561 3.253775 -2.980932
C -1.107026 3.129879 -3.012977
C -1.281756 3.123293 -2.962085
C -1.554516 3.093952 -2.937931
C -1.658159 3.114159 -2.937438
C -1.699485 3.083705 -2.965439
C -1.837604 3.060815 -2.999158
C -1.909136 3.088403 -3.035007
C -1.835927 3.073436 -3.056991
C -1.571121 2.952273 -3.159427
C -1.193504 2.786715 -3.266456
C -0.688430 2.669786 -3.401417
C -0.365044 2.553584 -3.511936
C -0.110386 2.456382 -3.573089
C 0.061764 2.421972 -3.628888
C -0.014336 2.421341 -3.581192
C -0.232382 2.418455 -3.588866
C -0.435693 2.402572 -3.574478
C -0.495327 2.322535 -3.523454
C -0.355617 2.204593 -3.513552
C -0.197066 2.090774 -3.533488
C -0.221945 1.982485 -3.583254
C -0.118567 1.930774 -3.656658
C -0.136835 1.869581 -3.652528
C 0.006687 1.887208 -3.655519
C -0.083655 1.867111 -3.724229
C -0.412000 1.905762 -3.768847
C -0.600955 1.921024 -3.802159
C -0.464362 1.883736 -3.808772
C -0.540552 1.796495 -3.820014
C -0.685347 1.775450 -3.817691
C -1.093861 1.686275 -3.836859
C -1.406110 1.621415 -3.770698
C -1.355211 1.495622 -3.718664
C -1.405174 1.378042 -3.701671
C -1.564385 1.254688 -3.648474
C -1.455767 1.181136 -3.649410
C -1.331918 1.108036 -3.695444
C -1.149345 1.085437 -3.720988
C -0.917312 1.060426 -3.717219
C -0.952753 1.091437 -3.692564
C -1.028213 1.090766 -3.628075
C -1.105545 1.112883 -3.571202
C -1.038214 1.110274 -3.432336
C -0.749232 0.988953 -3.276679
C -0.506001 0.845739 -3.098732
C -0.240711 0.695344 -3.011620
C 0.245917 0.481243 -2.921739
C 0.774409 0.311195 -2.759024
C 1.487969 0.056054 -2.660607
C 2.018297 -0.229615 -2.646645
C 2.236327 -0.380764 -2.554318
C 2.310963 -0.464824 -2.505571
C 2.078975 -0.547263 -2.542974
C 1.640147 -0.532684 -2.621636
C 1.194731 -0.461003 -2.802897
C 0.622215 -0.305951 -2.897727
C 0.187242 -0.132896 -2.999857
C -0.106488 0.018437 -3.104888
C -0.239575 0.100986 -3.242457
C -0.215828 0.152326 -3.280592
C 0.011493 0.130316 -3.228956
C 0.453335 0.039476 -3.128609
C 0.782918 -0.088482 -3.081623
C 1.066785 -0.250514 -3.031823
C 1.371922 -0.427214 -2.985527
C 1.660618 -0.573261 -2.836172
C 1.911136 -0.674290 -2.745574
C 1.886546 -0.746234 -2.793801
C 1.665165 -0.795217 -2.812861
C 1.717326 -0.837835 -2.730341
C 1.851281 -0.891484 -2.571435
C 1.933706 -0.984504 -2.497412
C 1.912388 -1.066472 -2.502426
C 1.840255 -1.138305 -2.518759
C 1.937353 -1.169620 -2.427598
C 1.945809 -1.238000 -2.409594
C 1.835604 -1.323302 -2.446502
C 1.602563 -1.345973 -2.507898
C 1.457621 -1.391165 -2.595896
C 1.332338 -1.421701 -2.578842
C 1.309820 -1.452304 -2.532951
C 1.483691 -1.566582 -2.478684
C 1.552141 -1.653477 -2.465117
C 1.730819 -1.702737 -2.378783
C 1.654329 -1.765628 -2.439850
C 1.631269 -1.808662 -2.337025
C 1.787044 -1.883538 -2.211223
C 2.030874 -2.015689 -2.026431
C 2.089042 -2.092822 -1.889449
C 2.369964 -2.196834 -1.678738
C 2.259300 -2.232735 -1.587728
C 2.532778 -2.362265 -1.354146
C 2.694078 -2.436498 -1.274777
C 2.763077 -2.548220 -1.207296
C 2.774395 -2.647656 -1.175880
C 2.760906 -2.755234 -1.240325
C 2.774454 -2.819178 -1.282326
C 2.960804 -2.943126 -1.305704
C 2.972313 -2.994822 -1.419624
C 2.888510 -3.071482 -1.501207
C 2.822522 -3.106148 -1.530002
C 2.641432 -3.057922 -1.577162
C 2.460004 -3.048209 -1.677378
C 2.321326 -3.054016 -1.601272
C 2.197001 -3.086312 -1.603789
C 1.815039 -2.963133 -1.736891
C 1.769524 -2.991996 -1.712055
C 1.718427 -3.032376 -1.873899
C 1.784322 -3.163236 -1.917942
C 1.824422 -3.282257 -1.797550
C 1.849176 -3.395273 -1.791315
C 1.844076 -3.499176 -1.696296
C 2.130957 -3.736850 -1.429303
C 2.096717 -3.781280 -1.464254
C 2.093400 -3.815490 -1.250904
C 2.069146 -3.848525 -1.202257
C 2.165505 -3.911414 -1.048906
C 1.997464 -3.884144 -1.194821
C 1.908502 -3.819684 -1.183001
C 1.678291 -3.664469 -1.268455
C 1.535032 -3.579166 -1.231653
C 1.359979 -3.570564 -1.301591
C 1.177771 -3.502512 -1.370044
C 0.825388 -3.293953 -1.666945
C 0.674642 -3.199612 -1.699924
C 0.587060 -3.228120 -1.869433
C 0.646027 -3.377280 -1.929217
C 0.536335 -3.344779 -1.922671
C 0.358868 -3.232902 -2.130422
C 0.136410 -3.074072 -2.272343
C 0.133089 -3.115725 -2.221554
C 0.094144 -3.143186 -2.228488
C -0.039383 -3.071543 -2.290426
C -0.221081 -2.899321 -2.341995
C -0.282623 -2.927466 -2.405979
C -0.368908 -2.859771 -2.406664
C -0.435277 -2.832595 -2.438733
C -0.583354 -2.743900 -2.423415
C -0.614476 -2.720778 -2.333127
C -0.620460 -2.736796 -2.170168
C -0.509190 -2.924878 -2.004905
C -0.287655 -3.148677 -1.854005
C 0.056560 -3.458238 -1.496273
C 0.319279 -3.739714 -1.144449
C 0.431198 -3.940572 -0.992385
C 0.405651 -4.077451 -0.983310
C 0.560495 -4.244815 -0.876140
C 0.550419 -4.303133 -0.831514
C 0.504126 -4.252522 -0.799889
C 0.206729 -4.128196 -1.025297
C -0.101932 -3.892553 -1.328972
C -0.212439 -3.858243 -1.370545
C -0.336942 -3.761016 -1.422331
C -0.405418 -3.752261 -1.404710
C -0.401855 -3.814912 -1.401397
C -0.413019 -3.890254 -1.295745
C -0.228004 -4.021048 -1.076727
C -0.024855 -4.393951 -0.826835
C 0.118805 -4.511027 -0.664584
C 0.234856 -4.667480 -0.532443
C 0.186871 -4.718928 -0.523920
C 0.130887 -4.727243 -0.461692
C -0.001796 -4.734947 -0.498522
C -0.143732 -4.706889 -0.513371
C -0.276247 -4.523824 -0.563401
C -0.476636 -4.389180 -0.712050
C -0.579918 -4.367912 -0.841821
C -0.819492 -4.017697 -1.083575
C -1.109263 -3.473588 -1.419811
C -1.384036 -2.933242 -1.783830
C -1.634026 -2.426838 -2.125015
C -1.820979 -2.052520 -2.348629
C -2.009225 -1.737619 -2.532906
C -2.119014 -1.288152 -2.613905
C -2.114249 -1.184185 -2.695649
C -2.162670 -1.238716 -2.631946
C -2.186767 -1.396331 -2.524135
C -2.213705 -1.528814 -2.503763
C -2.193488 -1.668652 -2.444993
C -2.152711 -1.800386 -2.384878
C -2.108466 -2.030442 -2.284903
C -2.129492 -2.194811 -2.150908
C -2.046189 -2.296314 -2.042624
C -1.996637 -2.245987 -1.999905
C -1.951918 -2.311428 -1.883166
C -1.867463 -2.350374 -1.751071
C -1.704676 -2.557914 -1.478203
C -1.649334 -2.681756 -1.279287
C -1.598611 -2.702938 -1.139300
C -1.600134 -2.748538 -1.087035
C -1.933686 -3.119786 -0.977349
C -1.836717 -3.611541 -0.439786
C -1.687280 -4.022420 -0.004161
C -1.277365 -4.200926 0.386593
C -0.237163 -3.946157 0.575751
C 0.862993 -3.506771 0.541628
C 2.022312 -3.052421 0.601932
C 3.539307 -2.254826 0.739009
C 4.615565 -1.295665 0.500520
C 5.437772 -0.914246 0.529883
C 5.677072 -0.749268 0.596197
C 5.530458 -0.003451 0.768132
C 5.342461 0.437164 1.226672
C 5.173560 0.161317 1.860623
C 5.027306 -0.199049 2.380897
C 4.918950 -0.475766 2.780311
C 4.952241 0.365382 2.504768
C 5.208533 1.449126 2.086774
C 5.189562 1.567940 1.842432
C 5.128255 1.731176 1.659511
C 5.058413 2.511266 1.339577
C 5.154547 2.686979 1.176538
C 5.208792 2.807218 1.078709
C 5.256491 2.428034 1.413919
C 5.340912 2.054623 1.719815
C 5.466406 1.686498 1.961124
C 5.618694 1.353898 2.103342
C 5.765120 1.096103 2.126697
C 5.738719 1.480907 1.934318
C 5.725236 1.846083 1.687387
C 4.683565 0.948241 1.783929
C 3.843975 -0.006723 1.967080
C 3.388253 -0.899673 2.198082
C 3.130621 -1.729247 2.426759
C 3.227405 -2.197512 2.207387
C 3.322496 -2.630628 2.079159
C 3.402061 -3.028612 2.065126
C 4.493896 -2.312046 1.790142
C 5.356335 -1.695040 1.525156
C 5.654164 -1.414184 1.486948
C 5.757664 -1.260823 1.488259
C 5.706322 -0.843626 1.359026
C 5.655385 -0.519293 1.163117
C 5.627709 -0.297695 0.869236
C 5.527296 -0.496257 1.055939
C 5.406448 -0.698084 1.202103
C 5.408189 -0.794629 1.091941
C 4.254630 -0.947808 0.747805
C 3.880960 -0.528360 1.138488
C 3.476125 -1.353095 1.893013
C 1.867094 -2.081407 2.153548
C 0.481419 -1.749420 1.679720
C -1.099302 -1.453871 1.185330
C -2.587097 -1.325000 0.767436
C -2.655399 -0.861280 0.516769
C -3.653091 -1.628720 0.197323
C -4.841796 -1.201104 -0.457865
C -4.949092 -0.943766 -0.754688
C -5.199239 -1.171767 -0.921743
C -5.100985 -0.982561 -1.052856
C -4.864697 -0.462513 -1.208586
C -4.872850 -0.172247 -1.316023
C -4.913652 0.116862 -1.374394
C -4.717241 0.411992 -1.365730
C -4.358691 0.734226 -1.175296
C -4.045087 0.971669 -0.954964
C -3.799452 0.920673 -0.808353
C -3.813557 0.983346 -0.766099
C -3.777427 1.028737 -0.681415
C -3.724138 1.034027 -0.685203
C -3.750019 1.201184 -0.775056
C -3.831873 1.500297 -0.873430
C -3.854646 1.750572 -0.974343
C -3.845046 1.905174 -0.973625
C -3.746465 1.821821 -0.858314
C -3.704089 1.569594 -0.716960
C -3.700997 1.238147 -0.499391
C -3.607400 0.722731 -0.213673
C -3.490860 0.228538 0.036608
C -3.394494 -0.153853 0.306662
C -3.408464 -0.293191 0.427494
C -3.407369 -0.363399 0.486971
C -3.444911 -0.236713 0.462787
C -3.482394 -0.082771 0.447551
C -3.343379 -0.017896 0.508831
C -3.253161 -0.038836 0.624402
C -3.107119 -0.272840 0.850203
C -2.838714 -0.733581 1.200328
C -2.573413 -1.214379 1.587231
C -2.315915 -1.687936 1.958181
C -2.073341 -1.997223 2.193485
C -2.099104 -2.080840 2.289560
C -2.034587 -2.198019 2.390218
C -2.071177 -2.121853 2.352809
C -2.252817 -1.839548 2.127000
C -2.457609 -1.392988 1.852370
C -2.663101 -1.089650 1.644023
C -2.828627 -0.981144 1.575447
C -2.969478 -0.862543 1.509277
C -3.126769 -0.703432 1.439236
C -3.154462 -0.678545 1.474537
C -3.146989 -0.760176 1.667220
C -3.097017 -0.975258 1.849382
C -3.052846 -1.035724 1.932093
C -3.078319 -0.972385 1.937416
C -3.084032 -0.930691 2.007507
C -3.130737 -0.784027 2.021300
C -3.245311 -0.584367 1.976311
C -3.341893 -0.413677 1.933572
C -3.405629 -0.278691 1.879482
C -3.332139 -0.246986 1.901950
C -3.092432 -0.295258 1.965479
C -2.902109 -0.383828 2.044177
C -2.653562 -0.596206 2.206942
C -2.362732 -0.808777 2.358862
C -2.070759 -0.996240 2.449404
C -1.915373 -1.124781 2.568182
C -1.845762 -1.172460 2.663683
C -1.980134 -1.068613 2.673416
C -1.972935 -0.983057 2.625824
C -2.190968 -0.685427 2.511545
C -2.458538 -0.298565 2.374277
C -2.654326 0.032789 2.202517
C -2.731206 0.258547 2.096525
C -2.831426 0.507329 1.973728
C -2.884276 0.705405 1.882357
C -2.981733 0.907365 1.760582
C -2.931357 0.970780 1.723513
C -2.770855 0.826760 1.808191
C -2.716539 0.718098 2.001278
C -2.680778 0.584276 2.156812
C -2.545459 0.278341 2.419295
C -2.361311 -0.021554 2.702701
C -2.197286 -0.303621 3.069381
C -1.970385 -0.656302 3.375276
C -1.851311 -0.929414 3.615477
C -1.699562 -1.150672 3.826972
C -1.372988 -1.366042 3.978793
C -1.177366 -1.514740 4.062071
C -0.952655 -1.673101 4.156608
C -0.810176 -1.811906 4.222027
C -0.726129 -1.858556 4.275730
C -0.625487 -1.813996 4.291614
C -0.485322 -1.790278 4.291874
C -0.608541 -1.644288 4.330836
C -0.750011 -1.385530 4.289057
C -0.943359 -1.144579 4.247354
C -0.954385 -0.981825 4.297339
C -0.873947 -0.916316 4.335324
C -0.840699 -0.828009 4.367356
C -0.867896 -0.803799 4.413842
C -0.709379 -0.855945 4.414940
C -0.478071 -0.986845 4.473884
C -0.259722 -1.072420 4.576938
C -0.224438 -1.059283 4.519783
C -0.256927 -0.985214 4.451927
C -0.437158 -0.818963 4.426199
C -0.741862 -0.488613 4.316683
C -1.029547 -0.214859 4.214416
C -1.249832 0.014422 4.098751
C -1.541855 0.306682 3.865341
C -1.848333 0.680313 3.517382
C -2.087750 1.074067 3.110575
C -2.154786 1.399573 2.625586
C -2.078039 1.634595 2.183454
C -2.176990 1.963917 1.752636
C -2.301197 2.359330 1.313380
C -2.314159 2.607697 0.936532
C -2.197076 2.744784 0.794423
C -2.190318 2.876108 0.678483
C -2.160591 2.951338 0.606851
C -2.165015 2.940919 0.620603
C -2.150310 3.063358 0.698612
C -2.205045 3.009729 0.780535
C -2.235869 2.921188 0.929894
C -2.270168 2.861371 1.061233
C -2.147140 2.671080 1.307541
C -2.005826 2.433923 1.658447
C -1.792494 2.199040 1.930606
C -1.586313 1.847751 2.104608
C -1.380289 1.662731 2.426927
C -1.142935 1.536681 2.668275
C -1.060758 1.396879 2.804019
C -1.164553 1.462429 2.795566
C -1.341253 1.621906 2.694379
C -1.533321 1.829596 2.606233
C -1.485561 1.806295 2.722167
C -1.280849 1.672963 2.765407
C -1.245676 1.574155 2.859401
C -0.993286 1.351984 3.022029
C -0.614403 1.028164 3.337771
C -0.251404 0.719141 3.590215
C 0.173356 0.375881 3.936925
C 0.406218 0.211088 4.043070
C 0.435298 0.187492 4.151425
C 0.586229 0.115515 4.183220
C 0.603962 0.227899 4.264625
C 0.577304 0.358012 4.268425
C 0.563292 0.379790 4.224001
C 0.494963 0.479317 4.119876
C 0.234189 0.701781 4.054832
C 0.170631 0.888933 3.972625
C 0.026969 1.088909 3.945714
C -0.196635 1.253287 3.781160
C -0.348002 1.403719 3.688830
C -0.503822 1.635806 3.604423
C -0.627049 1.860353 3.513769
C -0.615309 2.068353 3.483624
C -0.827822 2.192220 3.341395
C -0.813629 2.227117 3.263238
C -0.623327 2.181400 3.282613
C -0.641773 2.303014 3.102943
C -0.685488 2.373841 2.917871
C -0.741897 2.403620 2.740798
C -0.670151 2.381326 2.643782
C -0.426162 2.457131 2.556610
C -0.460699 2.607712 2.391230
C -0.489644 2.880430 2.248195
C -0.433960 2.862729 2.130633
C -0.360211 2.907873 2.126822
C -0.296135 2.952710 2.103132
C -0.257171 2.909932 2.021486
C -0.305746 2.809515 2.015378
C -0.199199 2.634186 2.057617
C -0.115717 2.461892 2.135098
C -0.050200 2.449223 2.277222
C 0.068925 2.400502 2.378361
C 0.114058 2.367961 2.416912
C 0.015632 2.474322 2.437593
C -0.104941 2.676353 2.285213
C -0.316119 2.978193 2.125400
C -0.471218 3.106715 1.970830
C -0.515763 3.095146 1.985612
C -0.455461 2.952797 2.065556
C -0.263374 2.674901 2.301018
C 0.069113 2.337552 2.555735
C 0.467006 2.012728 2.988383
C 0.942295 1.563976 3.428954
C 1.338677 1.204529 3.770478
C 1.623283 0.995368 3.961067
C 1.800245 0.858912 4.054394
C 1.882751 0.817675 4.080154
C 1.888379 0.782326 4.024425
C 1.832194 0.726940 3.907885
C 1.775612 0.874032 3.810096
C 1.744464 0.876606 3.715640
C 2.222639 0.900378 3.620560
C 2.399723 1.230825 3.591483
C 2.272936 1.414359 3.422892
C 2.139035 1.673536 3.205790
C 2.095999 1.938074 3.197124
C 2.038929 2.150945 3.062264
C 1.894163 2.399926 2.879459
C 1.241653 2.628859 2.679988
C 0.982077 2.478216 2.612839
C 1.116237 2.338068 2.654260
C 1.343823 2.210182 2.912319
C 1.402536 2.188792 2.870614
C 1.430774 2.018537 2.882929
C 1.522542 1.926763 2.996368
C 1.736520 1.747551 3.231463
