498
chr1 3D structure from Hi-C (resolution 500000bp)
C -5.380972 0.533584 0.185475
C -5.276799 0.293364 0.205487
C -5.261387 0.110839 0.549778
C -5.162783 -0.072570 0.719125
C -4.921176 -0.570393 0.572802
C -4.652703 -0.814612 0.771553
C -4.459835 -0.984752 1.266769
C -4.301583 -1.096692 1.648237
C -4.098605 -1.211857 1.849795
C -3.895157 -1.247107 1.539722
C -3.792184 -1.246015 1.240427
C -3.768188 -1.286501 1.246966
C -3.741245 -1.252277 1.001053
C -3.754312 -1.195425 0.534851
C -3.792497 -1.121142 -0.023472
C -3.899848 -1.054569 -0.531769
C -3.982341 -1.055735 -0.797467
C -4.027492 -1.066580 -0.958133
C -4.105281 -1.061416 -1.247397
C -4.161760 -1.127673 -1.370748
C -4.229670 -1.175140 -1.367720
C -4.177978 -1.217506 -1.245755
C -4.170947 -1.245810 -0.845765
C -4.183625 -1.290980 -0.187742
C -4.050984 -1.298605 0.125937
C -3.919277 -1.373178 0.503567
C -3.817927 -1.391322 0.723588
C -3.729608 -1.421893 0.887163
C -3.743245 -1.410804 0.805912
C -3.727783 -1.480725 0.525686
C -3.763952 -1.542828 0.112265
C -3.845645 -1.634207 -0.038459
C -3.907681 -1.668609 -0.144900
C -3.966439 -1.787409 -0.166077
C -3.990234 -1.859836 -0.115568
C -3.999251 -2.011628 0.036590
C -3.940133 -2.085734 0.153259
C -3.824326 -2.172500 0.168112
C -3.830606 -2.209776 0.063104
C -3.818468 -2.232942 -0.238357
C -3.872358 -2.248469 -0.480840
C -3.876618 -2.328225 -0.670338
C -3.944669 -2.273699 -0.723400
C -3.950929 -2.319601 -0.925399
C -3.896859 -2.242496 -1.278911
C -3.819988 -2.245939 -1.374101
C -3.683715 -2.257591 -1.513203
C -3.591963 -2.217551 -1.699587
C -3.540986 -2.159752 -1.869880
C -3.467475 -2.158187 -2.099191
C -3.428366 -2.099383 -2.228499
C -3.446992 -2.154209 -2.278272
C -3.469652 -2.161970 -2.442481
C -3.492089 -2.206169 -2.489918
C -3.425805 -2.302062 -2.430193
C -3.383513 -2.409255 -2.146321
C -3.279285 -2.523536 -1.699734
C -3.305592 -2.653786 -1.190164
C -3.235504 -2.736620 -0.825472
C -3.173546 -2.845089 -0.565612
C -3.173200 -2.894073 -0.403171
C -3.170355 -2.895241 -0.440235
C -3.114552 -2.871354 -0.742655
C -3.073939 -2.914200 -0.927571
C -2.941132 -2.895799 -0.969539
C -2.914504 -2.905946 -0.816903
C -2.876018 -2.911168 -0.602138
C -2.791846 -3.011625 -0.519637
C -2.696786 -3.076037 -0.437109
C -2.674102 -3.153532 -0.357429
C -2.674883 -3.187912 -0.259499
C -2.721271 -3.190789 -0.298250
C -2.675374 -3.288496 -0.574369
C -2.673382 -3.332051 -0.714238
C -2.683908 -3.320403 -0.759798
C -2.667626 -3.293288 -0.885938
C -2.595729 -3.321291 -0.999259
C -2.496536 -3.330833 -1.365014
C -2.342250 -3.380765 -1.698118
C -2.189878 -3.383278 -1.654074
C -2.021548 -3.406668 -1.688747
C -1.896764 -3.412202 -1.647261
C -1.824440 -3.465790 -1.513760
C -1.804179 -3.486921 -1.361183
C -1.802690 -3.472668 -1.173527
C -1.805357 -3.423094 -0.954489
C -1.856187 -3.342746 -1.024066
C -1.825625 -3.354063 -1.096791
C -1.787590 -3.331022 -1.219957
C -1.740139 -3.226446 -1.108611
C -1.667329 -3.065703 -0.804400
C -1.586771 -2.955810 -0.492221
C -1.474322 -2.839502 -0.231585
C -1.336659 -2.743439 0.326035
C -1.265661 -2.560070 0.853025
C -1.160924 -2.395260 1.588799
C -1.086291 -2.279200 2.184187
C -0.942419 -2.223159 2.428125
C -0.782212 -2.263546 2.396396
C -0.674674 -2.420635 2.214728
C -0.629581 -2.555366 1.777715
C -0.647675 -2.721710 1.408972
C -0.659648 -2.905627 0.861168
C -0.717241 -3.090613 0.424081
C -0.807425 -3.206153 0.118205
C -0.914871 -3.256470 0.050546
C -1.001388 -3.217333 0.098549
C -1.009044 -3.189428 0.368123
C -0.935550 -3.131396 0.740473
C -0.899146 -3.030177 1.083256
C -0.782182 -2.973227 1.376670
C -0.677180 -2.915112 1.715072
C -0.580570 -2.784901 2.015710
C -0.494350 -2.759140 2.252119
C -0.431802 -2.772075 2.216056
C -0.353826 -2.770643 2.025020
C -0.279421 -2.809104 2.100924
C -0.207142 -2.662063 2.246007
C -0.128376 -2.650309 2.315630
C -0.039890 -2.645958 2.354936
C 0.020379 -2.634321 2.341832
C 0.060307 -2.475606 2.466967
C 0.088178 -2.487977 2.518848
C 0.146129 -2.436509 2.444458
C 0.178194 -2.464129 2.237101
C 0.194540 -2.492468 2.171227
C 0.244562 -2.554895 2.117919
C 0.333003 -2.491496 2.126677
C 0.423386 -2.597619 2.280077
C 0.498572 -2.379183 2.401285
C 0.538510 -2.323174 2.538573
C 0.635254 -2.381578 2.461464
C 0.737792 -2.371943 2.420734
C 0.812648 -2.197417 2.548466
C 0.881811 -2.182444 2.795483
C 0.962763 -1.943396 2.911122
C 1.031575 -1.929759 3.137847
C 1.111564 -1.824369 3.065180
C 1.174805 -1.757882 3.373477
C 1.293464 -1.533723 3.533994
C 1.400739 -1.506373 3.597628
C 1.502353 -1.381387 3.630570
C 1.573269 -1.407784 3.657820
C 1.695734 -1.330178 3.671863
C 1.763665 -1.348095 3.870208
C 1.811101 -1.421793 3.889368
C 1.839283 -1.559960 3.796885
C 1.862997 -1.644408 3.737122
C 1.874776 -1.707597 3.529356
C 1.928018 -1.694912 3.393711
C 1.950077 -1.660827 3.273284
C 2.014982 -1.639514 3.154226
C 2.016424 -1.573333 2.832165
C 2.043799 -1.519363 2.856030
C 2.138659 -1.444616 2.801804
C 2.296723 -1.309425 2.867973
C 2.404731 -1.313035 2.885444
C 2.509155 -1.358019 2.979116
C 2.644024 -1.281085 3.039611
C 2.802366 -1.221435 3.309406
C 2.889531 -1.238236 3.277446
C 2.909546 -1.327630 3.300080
C 2.877962 -1.341218 3.347183
C 2.933460 -1.335968 3.443083
C 2.881791 -1.529905 3.332814
C 2.797483 -1.697489 3.232785
C 2.726287 -1.734284 2.990129
C 2.608520 -1.928413 2.815774
C 2.559430 -2.028397 2.657279
C 2.515475 -2.200037 2.463914
C 2.321846 -2.473859 2.094555
C 2.276526 -2.511006 1.854018
C 2.290808 -2.615515 1.752569
C 2.328688 -2.758717 1.834573
C 2.354797 -2.740943 1.708501
C 2.324245 -2.832629 1.541371
C 2.209849 -2.988733 1.301254
C 2.316859 -2.918231 1.285642
C 2.321973 -3.001874 1.283967
C 2.261744 -3.072436 1.186246
C 2.167429 -3.147920 0.960012
C 2.184236 -3.211280 0.960391
C 2.127200 -3.199929 0.866744
C 2.097803 -3.218169 0.781673
C 1.977047 -3.255627 0.643331
C 1.955644 -3.162403 0.569971
C 2.040551 -2.987717 0.539906
C 2.204643 -2.847760 0.685573
C 2.402131 -2.619576 0.959536
C 2.690742 -2.409399 1.301196
C 2.992186 -2.256696 1.535415
C 3.253701 -2.155350 1.651494
C 3.433734 -2.174777 1.686977
C 3.595553 -2.148953 1.834500
C 3.685531 -2.102504 1.866634
C 3.695331 -2.217221 1.711876
C 3.602369 -2.331197 1.391742
C 3.437030 -2.435889 1.140492
C 3.392895 -2.493608 1.023773
C 3.323441 -2.506918 0.891711
C 3.329897 -2.427454 0.858194
C 3.398469 -2.334540 0.869245
C 3.491761 -2.160621 0.942556
C 3.645203 -2.096394 1.115963
C 3.956074 -2.006015 1.337858
C 4.086712 -1.862556 1.492807
C 4.273203 -1.783978 1.628053
C 4.353256 -1.786154 1.588643
C 4.390411 -1.745695 1.535527
C 4.415695 -1.788714 1.440763
C 4.410239 -1.700177 1.395080
C 4.273053 -1.665647 1.271210
C 4.158559 -1.771271 1.091991
C 4.080234 -1.951747 0.912669
C 3.714500 -2.187211 0.592539
C 3.223722 -2.472551 0.139916
C 2.658832 -2.735130 -0.347820
C 2.132620 -3.016036 -0.748511
C 1.738218 -3.224141 -1.057107
C 1.397733 -3.347857 -1.343618
C 1.034573 -3.282306 -1.516820
C 0.918441 -3.278630 -1.588875
C 0.992824 -3.323432 -1.573220
C 1.135637 -3.299954 -1.454834
C 1.311519 -3.261751 -1.443068
C 1.453735 -3.206873 -1.357484
C 1.599025 -3.178533 -1.221975
C 1.769668 -3.189740 -1.111884
C 1.943125 -3.120708 -1.049279
C 2.035940 -2.991694 -1.007692
C 2.043900 -2.919250 -1.089604
C 2.099217 -2.818346 -1.050659
C 2.173269 -2.754499 -1.027191
C 2.394698 -2.608429 -0.941497
C 2.590611 -2.402697 -0.872050
C 2.678128 -2.334340 -0.839282
C 2.716683 -2.284551 -0.799101
C 3.098007 -2.355478 -1.032470
C 3.480691 -2.432604 -1.252148
C 3.918416 -1.987895 -0.839173
C 3.975520 -1.455476 -0.194396
C 3.451797 -0.992710 0.728592
C 2.631578 -0.632571 1.640250
C 1.797414 -0.321056 2.557296
C 0.710008 0.104212 3.835021
C -0.359504 0.462150 5.076215
C -1.381260 0.405365 5.679934
C -1.942097 0.489451 5.873257
C -2.059364 0.733753 5.760158
C -1.850948 1.179388 5.668011
C -2.114388 1.669627 5.154336
C -2.389173 2.218289 4.613935
C -1.902397 2.827998 4.499184
C -2.012497 3.235640 4.361725
C -2.477934 3.287432 4.263720
C -2.923878 3.194785 4.115270
C -3.372158 3.050825 3.937110
C -3.329341 2.887959 4.160826
C -3.303650 2.657642 4.414339
C -4.089771 2.301703 4.279454
C -4.363654 2.045092 4.211476
C -4.453498 1.834622 4.238600
C -4.335719 1.674043 4.384104
C -4.028982 1.519146 4.652414
C -3.555239 1.396967 5.015508
C -3.008598 1.383093 5.363634
C -2.510686 1.540171 5.588875
C -2.154630 1.933240 5.607283
C -1.928899 2.352521 5.516959
C -1.897570 2.748589 5.311162
C -2.047208 3.121079 5.021552
C -2.291901 3.465261 4.721619
C -2.074339 3.677616 4.649330
C -1.728179 3.761776 4.624081
C -1.248266 3.598581 4.752560
C -0.745158 3.330766 4.970108
C -0.389431 2.874325 5.306475
C 0.859712 2.656940 5.197812
C 1.987676 2.529832 5.183447
C 2.373195 2.504660 5.098467
C 2.561041 2.527244 5.029572
C 1.719693 2.661450 4.657370
C 0.873240 2.871525 4.191393
C 0.257944 3.281817 3.597335
C 0.132693 2.806077 2.783110
C -0.421586 2.991142 2.898200
C -0.864664 3.158789 2.870028
C -1.986329 3.147669 2.103164
C -1.308463 2.419328 1.059341
C -0.509052 1.520012 -0.123284
C 0.438705 0.575762 -1.197388
C -0.036302 0.499716 -1.331873
C 0.035493 -0.309927 -2.488532
C 0.231170 -1.202310 -3.862979
C 0.216714 -1.249644 -4.041573
C 0.543113 -1.517835 -4.177911
C 0.376854 -1.390709 -4.165305
C 0.010816 -1.238771 -4.035389
C -0.258144 -1.265597 -4.162016
C -0.543245 -1.234710 -4.267760
C -0.802079 -1.141430 -4.126845
C 0.037474 -1.687022 -4.432276
C -0.250214 -1.363546 -4.172817
C -0.207221 -1.269142 -3.863303
C -0.243372 -1.154233 -3.906610
C -0.266239 -1.052881 -3.868377
C -0.305755 -1.007066 -3.838313
C -0.439225 -0.946406 -3.945124
C -0.729463 -0.922767 -4.063221
C -0.995438 -0.892892 -4.193495
C -1.129226 -0.862944 -4.245455
C -1.010482 -0.800401 -4.093861
C -0.775652 -0.730370 -3.971342
C -0.372253 -0.638763 -3.925904
C 0.128216 -0.558160 -3.748658
C 0.647455 -0.483052 -3.547913
C 1.044584 -0.379344 -3.345543
C 1.204827 -0.292107 -3.341535
C 1.257755 -0.260140 -3.355316
C 1.099871 -0.240337 -3.438117
C 1.022953 -0.210363 -3.479577
C 1.002636 -0.125280 -3.375079
C 1.050971 -0.049098 -3.272860
C 1.278206 0.102100 -3.088756
C 1.817679 0.337779 -2.783316
C 2.373003 0.553945 -2.424801
C 2.931246 0.774114 -2.046382
C 3.251488 0.948960 -1.696329
C 3.334108 1.029609 -1.617409
C 3.474424 1.142101 -1.543690
C 3.460573 1.127947 -1.606511
C 3.165292 0.975608 -1.766092
C 2.732656 0.847071 -2.036386
C 2.454220 0.718437 -2.365998
C 2.321511 0.624463 -2.607753
C 2.306922 0.594405 -2.763169
C 2.120234 0.556791 -2.951993
C 2.139941 0.579624 -3.054437
C 2.289711 0.699369 -3.026380
C 2.509205 0.793145 -2.931364
C 2.553353 0.875537 -2.887429
C 2.511757 0.951752 -2.936292
C 2.522423 1.029678 -2.947301
C 2.476891 1.077259 -2.994017
C 2.243561 1.082243 -3.147784
C 2.068618 1.066272 -3.290313
C 1.975047 1.100273 -3.357970
C 1.959214 1.126466 -3.218213
C 1.921744 1.206488 -3.012805
C 1.940196 1.249865 -2.851774
C 2.101172 1.368471 -2.579759
C 2.307602 1.497058 -2.227515
C 2.505141 1.629746 -2.012387
C 2.603051 1.713800 -1.867953
C 2.689568 1.807198 -1.866171
C 2.691070 1.850953 -1.984495
C 2.576471 1.872599 -2.083777
C 2.375406 1.838129 -2.323405
C 2.050728 1.743005 -2.623799
C 1.673723 1.635331 -2.848224
C 1.407815 1.588656 -3.009331
C 1.163160 1.496542 -3.094252
C 0.922926 1.373561 -3.177542
C 0.741265 1.303683 -3.201852
C 0.628418 1.297622 -3.231130
C 0.767240 1.423408 -3.103662
C 0.945161 1.563524 -2.995583
C 1.128189 1.694279 -2.862320
C 1.438172 1.912674 -2.654520
C 1.759790 2.169368 -2.417360
C 2.103819 2.404214 -2.168429
C 2.487079 2.620620 -1.812159
C 2.739258 2.757401 -1.599659
C 2.976894 2.895085 -1.371343
C 3.178799 2.990173 -1.123611
C 3.265621 3.050054 -0.991986
C 3.411692 3.104512 -0.744017
C 3.463637 3.220737 -0.647000
C 3.443182 3.279665 -0.543338
C 3.405478 3.343797 -0.394579
C 3.337923 3.386064 -0.233878
C 3.239397 3.455371 -0.222739
C 3.039341 3.483621 -0.369424
C 2.878167 3.479165 -0.552579
C 2.825292 3.499312 -0.532588
C 2.784713 3.563673 -0.577342
C 2.690747 3.653127 -0.715579
C 2.680638 3.691559 -0.670109
C 2.649165 3.702785 -0.603718
C 2.719589 3.816743 -0.441588
C 2.736669 3.943246 -0.252064
C 2.659340 3.915465 -0.268657
C 2.526767 3.929865 -0.309226
C 2.405213 3.925856 -0.485656
C 2.122580 3.933266 -1.005743
C 1.913449 3.875712 -1.374380
C 1.729920 3.788311 -1.578602
C 1.449944 3.608006 -1.968977
C 1.024598 3.379658 -2.376917
C 0.635451 3.023601 -2.687032
C 0.247551 2.589704 -2.802463
C -0.135049 2.216978 -2.801419
C -0.589016 1.889816 -2.923495
C -1.011545 1.526426 -3.133193
C -1.337976 1.256243 -3.180254
C -1.492855 1.110786 -3.080095
C -1.649939 1.017954 -3.067069
C -1.780936 0.992072 -3.089684
C -1.821952 0.999339 -3.068801
C -1.890786 1.112094 -3.170855
C -1.846428 1.145871 -3.182379
C -1.773088 1.266767 -3.222863
C -1.677964 1.430902 -3.241276
C -1.411049 1.652185 -3.069467
C -1.080430 1.988344 -2.889123
C -0.758584 2.178194 -2.632160
C -0.416002 2.285291 -2.337088
C -0.180132 2.598836 -2.152657
C 0.018057 2.821879 -1.965465
C 0.118966 2.962623 -1.907562
C 0.004937 2.939985 -2.096313
C -0.165255 2.821122 -2.228023
C -0.343845 2.774800 -2.464294
C -0.284707 2.838392 -2.368292
C -0.211090 2.842387 -2.116704
C -0.110295 2.876966 -1.924994
C 0.102762 3.017016 -1.582220
C 0.435491 3.282679 -1.088993
C 0.714641 3.560752 -0.721647
C 1.015582 3.902701 -0.283725
C 1.098652 4.130846 -0.146056
C 1.114908 4.240156 -0.098847
C 1.087523 4.345790 -0.030112
C 1.085409 4.344066 -0.010702
C 1.065468 4.352790 -0.041104
C 1.006367 4.265591 -0.089694
C 0.953195 4.198581 -0.173848
C 0.825003 4.048228 -0.330121
C 0.740906 4.018072 -0.480017
C 0.641530 3.978347 -0.631106
C 0.429569 3.881855 -0.921621
C 0.182841 3.872499 -1.186285
C 0.005814 3.851251 -1.368289
C -0.179032 3.758783 -1.490499
C -0.338021 3.806989 -1.579111
C -0.549727 3.649304 -1.773467
C -0.578007 3.555394 -1.761524
C -0.552353 3.559339 -1.617999
C -0.630127 3.386570 -1.579599
C -0.793481 3.163904 -1.595617
C -0.983901 2.984597 -1.657391
C -0.965029 2.939674 -1.502232
C -1.037725 2.998711 -1.277591
C -1.272145 2.911487 -1.359841
C -1.530617 2.898751 -1.450874
C -1.643823 2.824273 -1.440074
C -1.640596 2.902118 -1.463172
C -1.598493 2.926249 -1.453443
C -1.679162 2.784651 -1.512329
C -1.673245 2.695728 -1.611408
C -1.546673 2.708896 -1.469567
C -1.417755 2.733191 -1.277130
C -1.334645 2.818635 -1.216451
C -1.287450 2.882264 -1.133293
C -1.300243 2.985613 -1.055780
C -1.370072 3.090485 -1.155541
C -1.552880 2.966596 -1.243591
C -1.783075 2.871633 -1.493931
C -1.907752 2.753571 -1.658988
C -1.971519 2.769285 -1.742551
C -1.828941 2.816663 -1.552594
C -1.589187 2.968298 -1.316795
C -1.294186 3.123227 -0.955590
C -0.812007 3.521015 -0.516786
C -0.368782 3.864300 0.036230
C -0.078583 4.165789 0.398335
C 0.125661 4.387827 0.734174
C 0.226446 4.545538 0.928393
C 0.307347 4.538641 1.040204
C 0.421753 4.462516 1.142639
C 0.326790 4.338083 1.058695
C 0.235231 4.260281 1.044628
C 0.307096 4.169947 1.066751
C 0.670469 4.053715 1.600427
C 0.305182 4.142424 1.661361
C 0.088783 4.026888 1.497720
C -0.281031 3.879038 1.244814
C -0.546560 3.915976 1.156437
C -0.859267 3.897288 0.960728
C -1.153709 3.761656 0.762150
C -1.787441 3.642055 0.035024
C -1.541013 3.366166 -0.105382
C -1.356228 3.432552 0.088093
C -1.196676 3.670863 0.375359
C -1.161657 3.697091 0.494248
C -0.974861 3.657697 0.601063
C -0.872737 3.757403 0.733425
C -0.589456 3.932965 1.025031
