161
chr18 3D structure from Hi-C (resolution 500000bp)
C -0.633070 2.843155 -0.939859
C -0.471961 2.730528 -1.098316
C -0.575257 2.442598 -1.397839
C -0.662564 2.211206 -1.598299
C -0.480895 2.059686 -1.820695
C -0.405293 1.971250 -2.078970
C -0.551632 1.661073 -2.394161
C -0.611610 1.563287 -2.567355
C -0.692477 1.602671 -2.640988
C -0.697620 1.703813 -2.558688
C -0.593908 1.916987 -2.379997
C -0.676372 2.170844 -2.144675
C -0.743096 2.403124 -1.987499
C -0.831535 2.491510 -1.839738
C -1.001226 2.395431 -1.725869
C -1.247592 2.229510 -1.752179
C -1.402527 2.113620 -1.780429
C -1.645031 1.899440 -1.868785
C -1.831196 1.557097 -1.986238
C -1.963012 1.220550 -2.144564
C -2.141730 0.962205 -2.221403
C -2.291036 0.901847 -2.235311
C -2.401437 0.815588 -2.080979
C -2.462468 0.853632 -1.876907
C -2.529702 1.012696 -1.643441
C -2.546058 1.327909 -1.366306
C -2.589119 1.673408 -0.880472
C -2.693608 1.949540 -0.286053
C -2.976985 1.946300 0.205986
C -3.242622 1.751287 0.559565
C -3.509387 1.355123 0.890355
C -3.731731 0.838161 1.250594
C -3.919407 0.365809 1.676275
C -4.067056 0.028370 2.042474
C -3.941460 -0.019568 2.295966
C -3.548518 0.243050 2.556539
C -2.968152 0.828968 2.871302
C -2.352432 1.630912 3.101572
C -1.839397 2.464047 3.081210
C -1.452951 2.869110 2.697840
C -1.284073 2.844805 2.168558
C -1.075161 2.727393 1.655771
C -0.950214 2.380912 1.081257
C -1.162404 1.817940 0.466381
C -1.505910 1.187735 -0.047154
C -1.615930 0.611408 -0.426403
C -1.478929 0.438697 -0.424097
C -1.138007 0.616148 -0.373900
C -0.953414 0.612061 -0.388749
C -1.084079 0.464864 -0.507313
C -0.696745 0.734684 -0.366317
C -0.161863 1.059471 -0.279946
C 0.302150 1.372948 -0.087453
C 0.574236 1.589113 -0.075092
C 0.839241 1.683940 0.055972
C 1.096798 1.869162 0.227894
C 1.589080 2.235133 0.519842
C 1.804833 2.282280 0.518665
C 1.874517 2.178753 0.518259
C 1.775222 2.001568 0.331360
C 1.679875 1.723589 -0.080364
C 1.560833 1.457366 -0.455442
C 1.604011 1.341843 -0.862376
C 1.659916 1.210324 -1.136117
C 1.634119 1.073664 -1.403477
C 1.724929 1.019262 -1.721615
C 1.835565 0.930312 -1.843895
C 1.785192 0.831997 -1.778032
C 1.765128 0.717393 -1.943837
C 1.570003 0.398087 -2.004197
C 1.406909 0.216281 -1.999485
C 1.347482 0.177063 -1.846666
C 1.467614 0.171991 -1.463377
C 1.526204 0.214217 -1.215218
C 1.836690 0.280609 -1.119960
C 2.149110 0.492910 -0.736647
C 2.489967 0.621019 -0.424749
C 2.786647 0.696219 -0.321720
C 3.053670 0.629020 -0.289189
C 2.923804 0.532491 -0.403520
C 2.853040 0.408317 -0.505259
C 2.681541 0.249899 -0.543204
C 2.578424 -0.097009 -0.679265
C 2.504892 -0.319877 -0.778052
C 2.486900 -0.574139 -0.865555
C 2.357801 -0.814300 -1.043605
C 2.232159 -1.028791 -1.179119
C 2.065265 -1.195932 -1.246112
C 1.878099 -1.305898 -1.260166
C 1.411932 -1.428526 -1.479739
C 0.896986 -1.512633 -1.718570
C 0.447152 -1.548835 -1.911129
C -0.072980 -1.619557 -1.949520
C -0.409317 -1.657726 -1.978839
C -0.782015 -1.770724 -2.073221
C -1.125419 -1.877815 -2.133546
C -1.164279 -1.889091 -1.965085
C -1.253614 -2.041971 -1.881572
C -1.260471 -2.132455 -1.802623
C -1.028039 -2.198578 -1.779884
C -0.813887 -2.417518 -1.792470
C -0.419896 -2.424078 -1.644711
C 0.109683 -2.417417 -1.384343
C 0.516607 -2.430852 -1.240429
C 1.016062 -2.398745 -0.945037
C 1.034827 -2.551914 -0.733776
C 1.090843 -2.625434 -0.485024
C 1.107297 -2.501614 -0.271235
C 1.140028 -2.626702 -0.132835
C 0.990800 -2.672977 -0.036012
C 0.660553 -2.760027 0.002814
C 0.253305 -2.776797 -0.039550
C 0.175182 -2.659768 -0.067818
C -0.084325 -2.555004 -0.050181
C -0.417578 -2.550174 -0.051809
C -0.603883 -2.351434 -0.116456
C -0.687003 -2.315998 -0.057734
C -0.574185 -2.363049 0.094969
C -0.280551 -2.273151 0.207684
C 0.055870 -2.154719 0.400050
C 0.299675 -2.075025 0.540418
C 0.521493 -1.997752 0.672495
C 0.380752 -2.159708 0.847796
C 0.307969 -2.147384 0.843199
C 0.271510 -2.134352 0.955348
C 0.383623 -2.054408 1.072643
C 0.511270 -2.015252 1.162111
C 0.788966 -1.906747 1.246594
C 1.133452 -1.796039 1.367950
C 1.617257 -1.508002 1.418880
C 2.030735 -1.370557 1.616817
C 2.326524 -1.053714 1.696170
C 2.289961 -0.973197 1.797344
C 2.156228 -0.984480 1.948156
C 1.943259 -1.037220 2.123672
C 1.759476 -1.097681 2.351717
C 1.579054 -1.206390 2.476549
C 1.312327 -1.196542 2.501520
C 1.165271 -1.153878 2.612019
C 1.075748 -1.028695 2.690422
C 1.017525 -0.720716 2.797131
C 1.012992 -0.486054 2.797431
C 0.953995 -0.250894 2.837658
C 0.960764 0.094338 2.909707
C 1.049424 0.287627 2.903349
C 0.869001 0.233861 2.633200
C 0.540723 0.093642 2.469396
C 0.258915 -0.196974 2.288349
C 0.071013 -0.336924 2.269837
C -0.051152 -0.382159 2.118617
C -0.303504 -0.583501 2.018178
C -0.582770 -0.731545 1.985923
C -0.635039 -0.577581 2.272942
C -0.498046 -0.291676 2.434218
C -0.550101 -0.145048 2.633072
C -0.766178 -0.099603 2.571654
C -1.069145 -0.151284 2.537080
C -1.307740 -0.149175 2.447812
C -1.390192 -0.043013 2.517704
C -1.580510 -0.153625 2.383572
C -1.938522 -0.435096 2.269526
