161
chr18 3D structure from Hi-C (resolution 500000bp)
C -1.546791 0.955707 -2.511948
C -1.598880 0.928374 -2.488947
C -1.388779 0.939754 -2.574575
C -1.222856 0.913718 -2.688870
C -1.386505 0.906102 -2.690518
C -1.478488 0.756842 -2.684716
C -1.200558 0.722794 -2.863257
C -1.159953 0.662177 -3.000930
C -1.112559 0.516523 -3.018894
C -1.163589 0.404435 -3.020122
C -1.272498 0.285315 -2.885116
C -1.532022 0.032816 -2.808109
C -1.676370 -0.113555 -2.855267
C -1.695004 -0.293132 -2.808941
C -1.465329 -0.450105 -2.802805
C -1.284013 -0.519869 -2.987193
C -1.273985 -0.685569 -3.069902
C -1.125928 -0.823253 -3.225963
C -0.726390 -0.775761 -3.340474
C -0.252986 -0.741637 -3.384882
C 0.057857 -0.751624 -3.529108
C 0.127855 -0.847733 -3.539813
C 0.186294 -0.987472 -3.427341
C 0.247517 -1.155736 -3.266969
C 0.078671 -1.292160 -3.118085
C -0.280295 -1.627953 -2.888039
C -0.832263 -1.921851 -2.605494
C -1.472192 -2.257762 -2.161955
C -2.149671 -2.405907 -1.774721
C -2.914876 -2.351343 -1.272529
C -3.613536 -2.182996 -0.726499
C -4.121603 -2.121439 -0.086995
C -4.405733 -2.117414 0.460493
C -4.408016 -2.288632 0.884339
C -4.193541 -2.512422 1.160585
C -3.728843 -2.897680 1.284696
C -3.045772 -3.478282 1.260466
C -2.272393 -4.108138 1.006508
C -1.578376 -4.574243 0.512502
C -1.107181 -4.531759 0.030102
C -0.592849 -4.315671 -0.458896
C -0.356549 -3.827768 -0.768847
C -0.184557 -3.194152 -1.033656
C 0.005569 -2.653367 -1.381129
C 0.145514 -2.139246 -1.651987
C 0.134101 -1.593847 -1.646704
C 0.104975 -1.316729 -1.569798
C -0.138912 -1.017257 -1.404075
C -0.175007 -0.811084 -1.383202
C -0.230394 -0.429677 -1.552006
C -0.540238 -0.091386 -1.357145
C -1.067761 0.342007 -1.079260
C -1.498228 0.588178 -0.833905
C -1.793886 0.856495 -0.636558
C -2.079876 1.111878 -0.360459
C -2.417432 1.288651 -0.114954
C -2.707740 1.209925 0.266036
C -2.875045 1.343055 0.469995
C -2.765255 1.334194 0.544786
C -2.477308 1.457541 0.406796
C -2.041391 1.627213 0.098868
C -1.715291 1.713887 -0.109058
C -1.492726 1.934942 -0.324146
C -1.273284 2.106365 -0.455793
C -1.036911 2.272065 -0.635124
C -0.895969 2.586092 -0.798650
C -0.757412 2.716933 -0.817504
C -0.639387 2.699038 -0.768705
C -0.283954 2.802655 -0.951421
C 0.155406 2.648679 -1.071984
C 0.421330 2.480481 -1.087977
C 0.501641 2.403389 -0.984402
C 0.448941 2.388248 -0.701410
C 0.282986 2.340258 -0.425133
C -0.016574 2.378288 -0.119529
C -0.475080 2.451233 0.261572
C -0.869622 2.578941 0.726374
C -1.091016 2.764413 1.048551
C -1.088733 2.929765 1.141033
C -0.995088 2.769712 1.124324
C -0.852518 2.726728 1.063113
C -0.534708 2.739423 0.944235
C -0.197498 2.689275 0.865911
C 0.142899 2.721109 0.752302
C 0.474446 2.827880 0.584776
C 0.774105 2.785310 0.540467
C 1.128599 2.732852 0.254391
C 1.345710 2.663932 0.117102
C 1.486659 2.437685 -0.050292
C 1.791303 2.127664 -0.414397
C 2.084800 1.732287 -0.743963
C 2.204492 1.233419 -1.020279
C 2.336165 0.748760 -1.348761
C 2.368744 0.397830 -1.410014
C 2.634421 0.078190 -1.592710
C 2.822986 -0.287931 -1.678778
C 2.797575 -0.488011 -1.547528
C 2.824383 -0.802931 -1.526422
C 2.870243 -0.987482 -1.360075
C 2.815116 -1.178438 -1.107231
C 2.936568 -1.438432 -0.796914
C 2.761794 -1.468875 -0.490540
C 2.523318 -1.370668 -0.009626
C 2.430602 -1.381829 0.422023
C 2.373331 -1.298737 0.889056
C 2.473541 -1.206583 1.077879
C 2.548404 -1.098048 1.311306
C 2.464600 -0.762440 1.364757
C 2.506952 -0.579589 1.582072
C 2.601880 -0.421765 1.592380
C 2.718765 -0.320559 1.412244
C 2.757886 -0.115252 1.175534
C 2.701908 0.017006 1.049032
C 2.641569 0.172399 0.801557
C 2.768043 0.218060 0.675091
C 2.683547 0.204568 0.459881
C 2.656414 0.302930 0.415348
C 2.657069 0.520271 0.576501
C 2.481182 0.744015 0.782517
C 2.301022 0.839317 1.071475
C 2.154136 0.935814 1.252939
C 1.929650 1.076918 1.344520
C 2.141975 1.282775 1.242759
C 2.175519 1.288591 1.072448
C 2.118314 1.222774 1.153885
C 2.057172 1.225590 1.303375
C 1.917209 1.328859 1.481714
C 1.754770 1.426933 1.779595
C 1.604196 1.425838 2.072577
C 1.216146 1.368216 2.480941
C 0.873176 1.385881 2.915438
C 0.508490 1.369624 3.068620
C 0.244746 1.246185 3.099148
C 0.051036 1.126217 3.112010
C -0.021552 0.897983 3.166329
C -0.135243 0.688755 3.330320
C -0.188157 0.474035 3.412182
C -0.303250 0.296159 3.328462
C -0.473502 0.140218 3.276814
C -0.607156 -0.012487 3.283334
C -0.732536 -0.212357 3.238895
C -0.822285 -0.317929 3.186763
C -0.990513 -0.457958 3.093869
C -1.064589 -0.595429 3.083156
C -0.957916 -0.737109 3.102209
C -0.697404 -0.836364 2.840772
C -0.330718 -1.076966 2.608607
C 0.027501 -1.251117 2.496631
C 0.115633 -1.389807 2.321460
C 0.288585 -1.421926 2.129265
C 0.395231 -1.514663 1.847261
C 0.454571 -1.609059 1.660930
C 0.230310 -1.815719 1.801396
C -0.113787 -1.793557 1.937598
C -0.349681 -1.947005 1.944131
C -0.214568 -2.110662 1.789619
C -0.061849 -2.355202 1.646045
C -0.022059 -2.536888 1.603760
C -0.075005 -2.671739 1.636173
C 0.152117 -2.755209 1.517629
C 0.512362 -3.001476 1.305523
