214
chr14 3D structure from Hi-C (resolution 500000bp)
C 6.358316 -3.752556 -0.297777
C 6.114371 -4.133886 -0.327579
C 5.946033 -4.336424 -0.622502
C 5.850668 -4.358919 -1.010795
C 5.662045 -4.477210 -1.415642
C 5.568650 -4.314676 -1.907033
C 5.630610 -3.809681 -2.460038
C 5.847727 -3.041320 -2.904406
C 6.103436 -1.992343 -2.601622
C 6.296633 -0.925658 -1.904291
C 6.360163 0.086717 -0.874502
C 6.244379 0.929229 0.425861
C 6.028731 1.473441 1.817479
C 5.823453 1.672458 3.090320
C 5.647508 1.579674 4.123801
C 5.502829 1.078178 4.477376
C 5.416269 0.320844 4.571871
C 5.478806 -0.508220 4.412456
C 5.769226 -1.155341 3.974598
C 6.139125 -1.543754 3.355087
C 6.448028 -1.630727 2.630198
C 6.659103 -1.391627 1.874203
C 6.811827 -0.791300 1.147216
C 6.913783 0.161894 0.600576
C 6.895955 1.234527 0.297395
C 6.691016 2.188565 0.275082
C 6.322599 3.022724 0.537408
C 5.772712 3.751860 1.107385
C 5.086021 4.400760 1.830827
C 4.392817 4.979129 2.479015
C 3.838330 5.454369 2.848499
C 3.484879 5.793414 2.893725
C 3.350088 5.989847 2.593142
C 3.433341 5.948413 1.822743
C 3.592069 5.635902 0.648587
C 3.921222 5.189036 -0.603296
C 3.922578 4.627407 -1.614417
C 3.703133 3.702381 -2.216414
C 3.350651 2.680323 -2.644710
C 2.839434 1.541358 -2.833812
C 2.194650 0.794520 -2.739447
C 1.657056 0.200841 -2.443076
C 1.095328 -0.578289 -2.077572
C 0.905267 -1.249796 -1.816149
C 0.882588 -1.504743 -1.781276
C 0.820828 -1.677336 -1.782051
C 0.766309 -1.379356 -1.832064
C 0.756753 -1.125828 -1.903934
C 0.733631 -0.607709 -2.058665
C 0.696693 0.155718 -2.200553
C 0.665657 0.856032 -2.346686
C 0.603357 1.484626 -2.526110
C 0.596256 2.150030 -2.680862
C 0.621012 2.466057 -2.887472
C 0.596544 2.492999 -3.028336
C 0.532048 2.391283 -3.121463
C 0.498152 2.210535 -3.212030
C 0.429660 1.970638 -3.243348
C 0.331758 1.409411 -3.195705
C 0.213883 0.790245 -3.110570
C 0.100339 0.376761 -3.036033
C 0.003441 0.106151 -3.036503
C -0.054957 -0.120156 -3.000527
C -0.108957 -0.235253 -2.942091
C -0.140377 -0.367846 -2.929411
C -0.148750 -0.284583 -2.881579
C -0.139095 -0.388261 -2.842635
C -0.172297 -0.657122 -2.758725
C -0.211817 -0.712380 -2.605446
C -0.289078 -0.709343 -2.512687
C -0.324640 -0.617531 -2.427432
C -0.365836 -0.301503 -2.309658
C -0.444175 0.135382 -2.329463
C -0.534339 0.763986 -2.336910
C -0.601497 1.334486 -2.301524
C -0.721661 1.437848 -2.415258
C -0.821436 1.514184 -2.470853
C -0.953110 1.572754 -2.639889
C -1.057281 1.544541 -2.859884
C -1.122215 1.488494 -2.956317
C -1.230824 1.449469 -3.109777
C -1.328304 1.372522 -3.324802
C -1.311019 1.792290 -3.324934
C -1.293108 2.135943 -3.265484
C -1.295345 2.339587 -3.134431
C -1.343229 2.464954 -2.943188
C -1.382577 2.310591 -2.814897
C -1.377598 2.077823 -2.605184
C -1.461979 2.078009 -2.461475
C -1.613403 1.851947 -2.449407
C -1.784710 1.630776 -2.441849
C -1.976275 1.450729 -2.412266
C -2.123100 1.315005 -2.382922
C -2.280133 1.428718 -2.364166
C -2.406911 1.665709 -2.352211
C -2.451644 1.646504 -2.273955
C -2.316158 1.214247 -2.088440
C -2.159918 0.616540 -1.928835
C -2.033197 0.106422 -1.797044
C -1.939698 -0.372228 -1.756604
C -1.835476 -0.894083 -1.700031
C -1.776633 -1.350628 -1.709543
C -1.725413 -1.738178 -1.701217
C -1.867375 -1.667408 -1.744625
C -2.034175 -1.431191 -1.751914
C -2.098444 -1.275575 -1.725525
C -2.113487 -1.387883 -1.642131
C -2.153833 -1.491857 -1.562790
C -2.293444 -1.526275 -1.491642
C -2.459271 -1.340314 -1.416839
C -2.572942 -1.147968 -1.349261
C -2.601039 -1.061162 -1.289633
C -2.664465 -0.919267 -1.252151
C -2.712623 -0.754743 -1.194967
C -2.811365 -0.573005 -1.135029
C -2.837517 -0.557030 -1.046289
C -2.853225 -0.502566 -0.945859
C -2.873055 -0.630861 -0.837886
C -2.915512 -0.654030 -0.749137
C -2.955601 -0.782725 -0.643499
C -3.054595 -0.804792 -0.597178
C -3.102566 -0.565331 -0.585671
C -3.094558 -0.231882 -0.609355
C -2.923265 -0.247793 -0.566922
C -2.809943 -0.461869 -0.524925
C -2.731591 -0.764775 -0.421427
C -2.673544 -0.973241 -0.290093
C -2.594672 -1.186700 -0.165595
C -2.521607 -1.582964 -0.043232
C -2.366429 -1.943644 0.130047
C -2.327594 -2.268621 0.168645
C -2.198799 -2.297440 0.218209
C -2.046058 -2.401284 0.237940
C -1.900137 -2.605075 0.177731
C -1.791981 -2.752853 0.186177
C -1.641425 -2.907644 0.297550
C -1.548739 -3.159448 0.376979
C -1.530266 -3.290515 0.564774
C -1.464732 -3.504501 0.684373
C -1.362868 -3.569551 0.724511
C -1.287969 -3.634471 0.806772
C -1.122763 -3.574139 0.895063
C -1.025337 -3.580686 0.951310
C -0.917443 -3.707249 1.014327
C -0.748114 -3.817005 1.071826
C -0.748090 -3.719462 1.199847
C -0.787183 -3.659961 1.388016
C -0.843593 -3.619431 1.533656
C -1.033300 -3.537006 1.595177
C -1.214016 -3.372362 1.662019
C -1.389313 -3.083957 1.715702
C -1.555884 -2.818151 1.724444
C -1.664573 -2.506185 1.619457
C -1.862641 -2.009068 1.500282
C -2.031322 -1.376416 1.352183
C -2.104160 -0.797017 1.168223
C -2.206558 -0.251022 0.948037
C -2.384828 0.290943 0.824074
C -2.566056 0.726635 0.685456
C -2.636068 1.009251 0.623318
C -2.666181 1.211708 0.574873
C -2.629142 1.430945 0.522387
C -2.677968 1.624868 0.550068
C -2.656248 1.729934 0.597093
C -2.548392 1.888651 0.575313
C -2.459842 2.224391 0.566649
C -2.417721 2.521076 0.580472
C -2.333456 2.707873 0.564144
C -2.341764 2.771221 0.658704
C -2.215227 2.803595 0.735673
C -2.091351 2.899766 0.724737
C -2.014667 2.871653 0.761013
C -1.963872 2.673134 0.790808
C -1.944243 2.435444 0.864082
C -1.980973 2.138220 0.989750
C -2.042576 1.727691 1.098695
C -2.167603 1.285264 1.218459
C -2.204051 0.843598 1.388197
C -2.263720 0.422617 1.573755
C -2.287915 -0.039518 1.814019
C -2.375592 -0.327855 2.242737
C -2.361341 -0.585716 2.406559
C -2.255572 -0.720314 2.631784
C -1.593654 -0.247838 3.314446
C -1.038324 0.253184 4.013585
C -0.864864 0.517704 4.398012
C -0.791693 0.784710 4.400355
C -0.666934 0.798376 4.176523
C -0.552860 0.896453 4.195345
C -0.460266 1.037225 4.111415
C -0.882892 0.613414 3.467839
C -1.264953 0.284176 2.819321
C -1.260991 0.298982 2.403269
C -1.160502 0.514085 2.320285
C -1.057048 0.938575 2.207195
C -0.991315 1.130550 2.121621
C -0.900043 1.127202 2.066054
C -0.879390 0.975182 2.130236
C -0.898902 0.906400 2.203681
C -0.929820 0.862924 2.310877
C -0.867810 0.486876 2.392377
C -0.809108 -0.102513 2.524056
C -0.762977 -0.608993 2.661804
C -0.714027 -0.904935 2.805290
C -0.601456 -1.146977 2.912884
C -0.487553 -1.510156 3.125349
C -0.297989 -2.064655 3.368915
C -0.164547 -2.371693 3.577429
C 0.342249 -2.566545 3.970155
C 0.989786 -2.422682 4.422639
C 1.404911 -2.279709 4.838936
C 1.649450 -2.240545 5.086542
C 2.028552 -2.313837 5.290208
C 2.495540 -2.254374 5.514564
