214
chr14 3D structure from Hi-C (resolution 500000bp)
C -2.163388 6.900471 -0.066592
C -2.006725 6.880954 0.425490
C -1.968722 6.789312 0.890160
C -2.104576 6.624392 1.260827
C -2.338187 6.329965 1.967080
C -2.669812 5.882857 2.627846
C -3.104419 5.293300 3.131281
C -3.706040 4.572025 3.416720
C -4.444571 3.760982 3.417713
C -5.131809 2.547587 2.683752
C -5.548703 1.391571 1.659835
C -5.800854 0.464179 0.523963
C -6.000998 -0.150788 -0.606961
C -6.195265 -0.566669 -1.545639
C -6.347129 -0.862922 -2.154999
C -6.421517 -1.114003 -2.480394
C -6.466533 -1.034350 -2.081296
C -6.570607 -1.007848 -1.285534
C -6.672805 -1.022973 -0.276967
C -6.717957 -1.199313 0.697560
C -6.619772 -1.768976 1.217519
C -6.427086 -2.412103 1.316870
C -6.199183 -2.992227 1.072283
C -6.009688 -3.349730 0.595737
C -5.985895 -2.789993 -0.060135
C -5.987697 -2.192783 -0.729968
C -6.011580 -1.571458 -1.228208
C -6.077927 -0.581351 -1.294728
C -6.113942 0.601100 -1.099371
C -6.089211 1.926447 -0.732937
C -5.994532 3.247005 -0.371338
C -5.762002 3.753460 -0.159395
C -5.507718 4.128755 -0.218563
C -5.161651 4.392477 -0.636093
C -4.716426 4.449534 -1.361683
C -4.421983 4.252544 -2.268199
C -3.852322 3.822412 -3.026897
C -3.267802 3.043421 -3.362391
C -2.717898 2.183663 -3.466246
C -2.182654 1.198638 -3.351406
C -1.692306 0.499236 -3.036307
C -1.354985 -0.180967 -2.596540
C -0.946555 -0.937658 -2.012652
C -0.899250 -1.499537 -1.495586
C -0.929476 -1.703474 -1.342793
C -0.937870 -1.846280 -1.201818
C -0.839741 -1.619203 -1.239839
C -0.766573 -1.448493 -1.428074
C -0.632925 -0.986569 -1.668598
C -0.452397 -0.365106 -2.069752
C -0.283555 0.165097 -2.525867
C -0.135866 0.630811 -2.860618
C 0.026556 1.192572 -3.246955
C 0.098813 1.524889 -3.484614
C 0.155516 1.547194 -3.569052
C 0.183372 1.434827 -3.664882
C 0.174669 1.297431 -3.629620
C 0.183566 1.121048 -3.485695
C 0.203121 0.685132 -3.279462
C 0.192768 0.097720 -3.034311
C 0.191168 -0.376592 -2.918698
C 0.209718 -0.656003 -2.791760
C 0.251669 -0.884996 -2.704645
C 0.294335 -1.003149 -2.642269
C 0.298847 -1.112696 -2.596698
C 0.337886 -1.034629 -2.572360
C 0.333403 -1.108331 -2.543320
C 0.288495 -1.278450 -2.397015
C 0.296849 -1.307284 -2.269230
C 0.321268 -1.212225 -2.110782
C 0.340081 -1.083402 -2.012689
C 0.435369 -0.779725 -2.025623
C 0.536930 -0.383629 -2.144685
C 0.692849 0.199327 -2.263481
C 0.867859 0.722908 -2.363286
C 0.981922 0.760712 -2.442769
C 1.151410 0.703860 -2.554011
C 1.341203 0.722398 -2.686903
C 1.446892 0.767172 -2.742661
C 1.552708 0.657307 -2.844885
C 1.671232 0.470566 -2.984161
C 1.780878 0.305627 -3.131661
C 1.884155 0.624815 -3.270160
C 1.924179 0.911316 -3.329152
C 1.934242 1.084695 -3.254692
C 1.986522 1.069435 -3.253962
C 1.941678 0.957632 -3.074973
C 1.893751 0.849151 -2.814174
C 1.930744 0.859500 -2.639141
C 2.028009 0.693978 -2.564154
C 2.123726 0.483017 -2.448165
C 2.241335 0.370773 -2.334034
C 2.349393 0.226021 -2.218413
C 2.524944 0.298833 -2.218099
C 2.694272 0.404029 -2.288635
C 2.725762 0.401545 -2.253846
C 2.487236 0.079777 -2.025783
C 2.218033 -0.375517 -1.748230
C 1.956782 -0.857368 -1.531863
C 1.810242 -1.256806 -1.399192
C 1.615913 -1.739753 -1.220475
C 1.479538 -2.051530 -1.063819
C 1.362773 -2.415783 -0.907458
C 1.537418 -2.406837 -0.928601
C 1.626309 -2.143969 -0.963401
C 1.735315 -2.094155 -0.991466
C 1.654869 -2.108209 -0.800350
C 1.671120 -2.124311 -0.685987
C 1.722940 -2.108287 -0.580793
C 1.900074 -1.949243 -0.568071
C 2.007908 -1.850145 -0.553560
C 2.103773 -1.835292 -0.552720
C 2.201347 -1.619569 -0.548103
C 2.309491 -1.513789 -0.566495
C 2.426252 -1.330838 -0.531705
C 2.499781 -1.371082 -0.478171
C 2.536995 -1.303199 -0.435120
C 2.517989 -1.316641 -0.304728
C 2.612656 -1.357525 -0.219171
C 2.658977 -1.501937 -0.067474
C 2.761681 -1.532131 -0.002752
C 2.886591 -1.364835 -0.097204
C 2.940136 -1.049712 -0.203286
C 2.867501 -1.046601 -0.130792
C 2.736986 -1.200682 -0.010920
C 2.592544 -1.414829 0.147819
C 2.399922 -1.505008 0.304422
C 2.209908 -1.662130 0.428336
C 2.037873 -1.933753 0.695052
C 1.883137 -2.165436 0.955271
C 1.821855 -2.397860 1.103503
C 1.691194 -2.380983 1.135265
C 1.632563 -2.369966 1.272682
C 1.542109 -2.562809 1.300934
C 1.411607 -2.682014 1.351868
C 1.187528 -2.809178 1.445570
C 0.995339 -3.003579 1.576462
C 0.817826 -3.069434 1.734664
C 0.717023 -3.204312 1.891936
C 0.493987 -3.304393 1.894843
C 0.469852 -3.289634 2.003734
C 0.382696 -3.166384 2.079066
C 0.321560 -3.172390 2.093184
C 0.205854 -3.254748 2.139310
C 0.114399 -3.302751 2.238152
C 0.158401 -3.193733 2.355784
C 0.212143 -3.035534 2.498845
C 0.174909 -2.923880 2.582649
C 0.371648 -2.851793 2.658684
C 0.618754 -2.640717 2.728765
C 0.841786 -2.387958 2.781613
C 1.013131 -2.169427 2.737578
C 1.193236 -1.928367 2.566048
C 1.488946 -1.589803 2.322169
C 1.713005 -1.163633 1.990526
C 1.957225 -0.710289 1.695446
C 2.138121 -0.317848 1.364023
C 2.338410 0.082554 0.992735
C 2.530803 0.374194 0.723637
C 2.640802 0.552955 0.563048
C 2.664314 0.732848 0.423598
C 2.810150 0.935847 0.359496
C 2.822498 1.088141 0.311478
C 2.803266 1.204408 0.311649
C 2.778944 1.349642 0.315436
C 2.749714 1.652951 0.209385
C 2.762678 1.983344 0.098169
C 2.754493 2.177178 0.061708
C 2.646717 2.297392 0.042859
C 2.538658 2.399267 -0.002703
C 2.426341 2.483339 -0.050012
C 2.347048 2.511672 -0.046165
C 2.237423 2.380713 0.025183
C 2.143923 2.183512 0.164499
C 2.144603 1.913435 0.386079
C 2.162550 1.546547 0.671341
C 2.144084 1.175758 0.948553
C 2.105101 0.867670 1.216044
C 2.057194 0.556134 1.522170
C 1.962405 0.233874 1.869030
C 1.905439 0.113842 2.367370
C 1.764227 -0.042046 2.593892
C 1.572102 -0.085587 2.848262
C 0.923799 0.466389 3.396120
C 0.379386 1.040207 3.945250
C 0.292876 1.371974 4.219753
C 0.348895 1.608627 4.154192
C 0.248145 1.546497 3.896201
C 0.223356 1.667745 3.837821
C 0.258729 1.783331 3.646987
C 0.750672 1.356646 3.104828
C 1.261530 1.031782 2.539578
C 1.284978 0.993419 2.117084
C 1.211691 1.202994 1.910820
C 1.289461 1.556316 1.714905
C 1.282457 1.726998 1.584276
C 1.179432 1.730056 1.576646
C 1.090889 1.582121 1.631949
C 0.976004 1.453956 1.738086
C 0.892333 1.399368 1.794283
C 0.773354 1.049625 1.994511
C 0.529887 0.562716 2.216234
C 0.271975 0.093779 2.453538
C 0.164598 -0.175837 2.641514
C 0.044076 -0.326332 2.873341
C -0.134232 -0.505983 3.121538
C -0.406012 -0.905751 3.545446
C -0.614507 -1.077484 3.790719
C -1.098075 -0.945617 4.217886
C -1.730181 -0.699361 4.470766
C -2.321008 -0.693510 4.639177
C -2.638589 -0.622814 4.763075
C -3.073272 -0.732316 4.895888
C -3.555231 -0.666189 4.970304
