129
chr20 3D structure from Hi-C (resolution 500000bp)
C -2.747206 1.149614 -1.130883
C -2.677506 1.054453 -1.284036
C -2.649836 1.045384 -1.320372
C -2.715603 0.992891 -1.396845
C -2.584921 0.831217 -1.680538
C -2.441110 0.705580 -1.736388
C -2.419965 0.519477 -1.686140
C -2.445215 0.390511 -1.564327
C -2.526274 0.202809 -1.473749
C -2.523597 -0.135521 -1.244444
C -2.579218 -0.398129 -0.927907
C -2.685581 -0.702278 -0.381273
C -2.880046 -0.983550 -0.115946
C -2.991551 -1.274277 -0.008298
C -2.983194 -1.501003 0.251146
C -2.887786 -1.759066 0.517438
C -2.745829 -1.946609 0.639025
C -2.553156 -2.059692 0.549296
C -2.386806 -2.191409 0.317155
C -2.195858 -2.238789 0.336550
C -1.970753 -2.413786 0.451474
C -1.913463 -2.551421 0.619467
C -1.860301 -2.684094 0.683811
C -1.842967 -2.748827 0.561069
C -1.763517 -2.884696 0.477929
C -1.728322 -2.995474 0.274178
C -1.691612 -3.012624 -0.145142
C -1.748453 -2.920640 -0.483560
C -1.646927 -2.928773 -0.853976
C -1.531501 -2.789601 -1.214040
C -1.398457 -2.754395 -1.364873
C -1.242554 -2.695410 -1.496616
C -1.101041 -2.513884 -1.648664
C -0.974800 -2.450123 -1.713893
C -0.704458 -2.385309 -1.849225
C -0.511959 -2.339477 -2.026363
C -0.310899 -2.297366 -2.095983
C -0.181797 -2.239568 -2.310227
C 0.060724 -2.299897 -2.320308
C 0.284266 -2.447375 -2.093792
C 0.508085 -2.595262 -1.779905
C 0.662086 -2.769495 -1.368209
C 0.803358 -2.844821 -1.073733
C 1.012164 -2.997500 -0.854243
C 1.082840 -2.984233 -0.488685
C 1.000109 -2.853065 -0.120260
C 1.028870 -2.885490 0.235185
C 1.092217 -2.847933 0.468688
C 0.964478 -2.806315 0.744216
C 0.507056 -2.485840 1.325537
C -0.108991 -1.783350 1.948242
C -0.698499 -1.138999 2.405625
C -1.323907 -0.620082 2.722623
C -1.980911 -0.033930 3.025242
C -2.416396 0.382711 3.448129
C -2.476426 0.853894 3.762726
C -2.210322 0.968147 3.843705
C -1.831372 0.561219 3.935401
C -1.425614 0.039884 4.077012
C -0.828535 -0.388840 4.123472
C -0.522053 -0.277323 3.827492
C -0.423538 0.102771 3.277984
C -0.488963 0.402717 2.604685
C -0.619055 0.835556 1.909494
C -0.886838 1.496229 1.261065
C -1.156053 2.219263 0.602111
C -1.580552 2.935631 0.155086
C -1.603152 3.221318 -0.200960
C -1.725484 3.263747 -0.589016
C -1.766345 3.305517 -0.903894
C -1.683885 3.301221 -1.288955
C -1.542671 3.234830 -1.579015
C -1.239742 3.061429 -1.883313
C -0.869400 2.800189 -2.253957
C -0.637427 2.436988 -2.431546
C -0.108349 1.970655 -2.513956
C 0.313841 1.551829 -2.600460
C 0.662210 1.133752 -2.480436
C 1.007855 0.679530 -2.450730
C 1.185857 0.418255 -2.612114
C 1.508240 0.150159 -2.598719
C 1.885114 -0.127938 -2.491280
C 2.055959 -0.228754 -2.315817
C 2.163300 -0.177421 -2.117260
C 2.079990 0.021623 -2.138506
C 2.123004 0.277457 -2.121202
C 2.202155 0.487738 -1.972247
C 2.159223 0.781583 -1.932253
C 2.037051 1.204487 -1.986113
C 1.982659 1.670156 -1.965887
C 1.962475 1.972635 -1.822644
C 1.967788 2.189424 -1.681930
C 1.944239 2.326591 -1.613869
C 1.961784 2.462232 -1.379570
C 1.895697 2.607110 -1.222126
C 1.846470 2.846611 -0.960625
C 1.629986 2.944937 -0.826851
C 1.471297 3.026464 -0.740008
C 1.423092 3.010405 -0.475228
C 1.565669 2.758175 -0.324147
C 1.701398 2.378153 -0.221304
C 2.013557 1.833534 -0.004681
C 2.339911 1.229079 0.101266
C 2.669651 0.698822 0.213969
C 2.858258 0.299043 0.344495
C 3.092817 -0.193958 0.391775
C 3.134376 -0.475101 0.661103
C 3.135108 -0.729611 1.031525
C 2.989187 -0.729821 1.249459
C 2.894944 -0.727723 1.389407
C 2.737915 -0.671312 1.478872
C 2.579375 -0.552946 1.517408
C 2.509397 -0.272016 1.548173
C 2.334907 0.066783 1.538374
C 2.234361 0.463924 1.369069
C 2.205694 0.751548 1.292021
C 2.056938 0.857865 1.278552
C 1.981069 0.787468 1.558624
C 2.010269 0.642720 1.901199
C 1.996838 0.453132 2.170429
C 2.042374 0.304420 2.351998
C 1.895641 0.398045 2.568343
C 1.678649 0.632846 2.611694
C 1.434586 1.026390 2.733980
C 1.214767 1.611184 2.619080
C 0.847146 2.128567 2.597102
C 0.631524 2.516050 2.531606
C 0.328367 2.974796 2.445400
C 0.148222 3.242392 2.370807
