129
chr20 3D structure from Hi-C (resolution 500000bp)
C -2.420475 1.126234 -2.540131
C -2.325552 1.110179 -2.470620
C -2.452889 1.153676 -2.284390
C -2.541986 1.201411 -2.112969
C -2.689661 1.130315 -1.861809
C -2.599021 0.911750 -1.849233
C -2.534879 0.749300 -1.826798
C -2.494327 0.450178 -1.805674
C -2.613221 0.154657 -1.753652
C -2.415313 -0.319334 -1.900535
C -2.242216 -0.812196 -2.152646
C -2.101181 -1.287006 -2.327363
C -1.937789 -1.592928 -2.471867
C -1.672490 -1.945930 -2.572754
C -1.482733 -2.154277 -2.615713
C -1.131490 -2.497985 -2.607134
C -1.004641 -2.715506 -2.474074
C -0.811972 -2.842773 -2.297632
C -0.502306 -2.930081 -2.082312
C -0.390791 -3.012050 -1.769308
C -0.279164 -3.171172 -1.459913
C -0.146189 -3.420647 -1.182789
C -0.121671 -3.532856 -1.043260
C -0.100262 -3.483049 -0.888155
C -0.212453 -3.489513 -0.647342
C -0.550953 -3.538017 -0.432981
C -0.863645 -3.523545 -0.244314
C -1.320308 -3.327199 -0.291311
C -1.621537 -3.163223 -0.289008
C -1.867612 -2.929623 -0.225870
C -2.056870 -2.821621 -0.260950
C -2.198038 -2.713443 -0.327115
C -2.310195 -2.324636 -0.338255
C -2.353289 -2.016062 -0.347457
C -2.380163 -1.777608 -0.128555
C -2.548506 -1.526438 -0.032358
C -2.561036 -1.273702 0.092957
C -2.675752 -1.088449 0.350057
C -2.725017 -0.999585 0.661707
C -2.530365 -1.103340 0.863220
C -2.166722 -1.395933 0.988880
C -1.687309 -1.747233 1.109616
C -1.308704 -1.988899 1.299421
C -1.129519 -2.282298 1.499626
C -0.793034 -2.360942 1.512529
C -0.424645 -2.364173 1.418563
C -0.220981 -2.440981 1.595166
C -0.433623 -2.267571 1.797820
C -0.655456 -2.100559 2.061701
C -0.825968 -1.786374 2.480096
C -0.967378 -1.233507 2.900496
C -1.235792 -0.793082 3.361494
C -1.719531 -0.398988 3.749733
C -2.168052 0.010108 3.910449
C -1.920011 0.218729 4.266498
C -1.533179 0.179517 4.355729
C -1.053145 -0.065510 4.243738
C -0.537886 -0.414780 4.157646
C -0.015264 -0.740679 4.152909
C 0.623445 -1.019387 4.085095
C 1.062207 -0.870698 3.812888
C 0.825830 -0.486829 3.269863
C 0.448597 0.203375 2.862450
C 0.047407 0.941719 2.472677
C -0.573089 1.577805 1.955056
C -1.189776 2.113737 1.482118
C -1.686560 2.761937 1.167486
C -1.831885 3.037202 1.097581
C -1.789472 3.271190 1.143832
C -1.802757 3.491635 0.981299
C -1.962576 3.630871 0.755330
C -1.827744 3.722763 0.596886
C -1.514157 3.762815 0.344927
C -1.267644 3.629235 0.029923
C -1.100733 3.402152 -0.403981
C -0.815138 2.899136 -1.084405
C -0.427594 2.261469 -1.577733
C 0.010684 1.721652 -1.920756
C 0.439814 1.244702 -2.166317
C 0.861017 0.839002 -2.575512
C 1.194365 0.488788 -2.816084
C 1.481832 0.139812 -2.882565
C 1.709739 0.066971 -2.774137
C 1.807693 0.252846 -2.616481
C 1.811979 0.464078 -2.471353
C 1.680783 0.671247 -2.450241
C 1.421822 1.007260 -2.340757
C 1.288921 1.372654 -2.316479
C 1.179349 1.757980 -2.333297
C 0.971252 2.167794 -2.258148
C 0.959008 2.390517 -2.132168
C 0.980077 2.585465 -2.025740
C 1.162646 2.784168 -1.911185
C 1.361204 2.807931 -1.710614
C 1.420751 2.896880 -1.473269
C 1.544512 3.104348 -1.155142
C 1.554831 3.172999 -0.930388
C 1.470231 3.207413 -0.714885
C 1.575620 3.144309 -0.556058
C 1.685249 2.852654 -0.513335
C 1.786956 2.434990 -0.460920
C 2.125605 1.811590 -0.517187
C 2.416234 1.129793 -0.644646
C 2.680652 0.532722 -0.648930
C 2.943602 0.148396 -0.736871
C 3.037760 -0.393102 -0.817923
C 3.134123 -0.832678 -0.783598
C 3.285951 -1.117162 -0.669207
C 3.273993 -1.263420 -0.386269
C 3.214931 -1.282626 -0.193719
C 3.100424 -1.299513 -0.117054
C 2.900273 -1.260732 0.081194
C 2.891012 -0.870173 0.260207
C 2.796296 -0.429692 0.435461
C 2.685504 -0.005692 0.619958
C 2.686158 0.319599 0.635875
C 2.568340 0.417032 0.730193
C 2.717545 0.420224 0.941654
C 2.908133 0.256502 1.221983
C 2.980328 0.004127 1.440065
C 3.001071 -0.253330 1.655898
C 2.949804 -0.147740 1.838180
C 2.668051 0.123350 2.034657
C 2.542043 0.608198 2.172755
C 2.252059 1.167524 2.333591
C 1.931482 1.706748 2.521398
C 1.740604 2.079796 2.586897
C 1.528482 2.631259 2.695414
C 1.314385 2.867648 2.759052
