342
chr6 3D structure from Hi-C (resolution 500000bp)
C -0.844505 2.113413 -3.132683
C -1.013359 2.100252 -3.122359
C -0.962036 2.038454 -3.113873
C -1.023836 1.964538 -3.085420
C -1.178167 1.841816 -3.028200
C -1.336290 1.728674 -2.969159
C -1.517124 1.637772 -2.907798
C -1.613355 1.558649 -2.871827
C -1.707607 1.434262 -2.804480
C -1.889194 1.302416 -2.745868
C -1.974145 1.212773 -2.741360
C -2.079445 1.122262 -2.730160
C -2.131136 0.963507 -2.704912
C -2.091759 0.733479 -2.653722
C -2.349771 0.559700 -2.518115
C -2.478791 0.377203 -2.397715
C -2.632975 0.221210 -2.270291
C -2.750746 0.091201 -2.124421
C -2.809493 0.059407 -2.058891
C -2.655929 0.065851 -2.083710
C -2.513878 0.180917 -2.245447
C -2.269881 0.279830 -2.483149
C -2.022269 0.327534 -2.758967
C -1.777883 0.429641 -2.981574
C -1.496931 0.488897 -3.238231
C -1.175978 0.490349 -3.414742
C -1.155084 0.414131 -3.519537
C -1.036650 0.369654 -3.532464
C -0.919719 0.280766 -3.541289
C -0.789267 0.206912 -3.496100
C -0.726498 0.072215 -3.428561
C -0.870648 -0.099778 -3.291177
C -1.188270 -0.288719 -3.134950
C -1.300642 -0.386888 -2.936788
C -1.659378 -0.627635 -2.689967
C -2.008781 -0.858377 -2.374959
C -2.363555 -1.044243 -2.124933
C -2.573527 -1.091081 -2.050193
C -2.534616 -1.104324 -2.068038
C -2.412296 -1.205074 -2.149429
C -2.517609 -1.254759 -2.181097
C -2.428005 -1.259217 -2.321677
C -2.444417 -1.227747 -2.421202
C -2.407922 -1.251739 -2.473806
C -2.455227 -1.382682 -2.428321
C -2.566235 -1.488384 -2.399692
C -2.444888 -1.414718 -2.415602
C -2.088473 -1.249008 -2.541073
C -1.789855 -1.037116 -2.596980
C -1.231487 -0.620442 -2.771114
C -0.691273 -0.005915 -2.954181
C -0.214169 0.516054 -3.147267
C 0.242297 0.992623 -3.286500
C 0.478212 1.317462 -3.362345
C -0.146843 1.175117 -2.870335
C -0.740500 0.969211 -2.352664
C -1.447232 0.529897 -1.779051
C -2.167056 -0.074341 -1.138460
C -2.810430 -0.624928 -0.443444
C -3.448078 -1.184160 0.309968
C -2.972575 -1.620405 0.546392
C -2.844210 -1.717204 0.867977
C -2.739165 -1.753277 1.127282
C -1.686214 -1.175371 0.673555
C -0.764889 -0.704378 0.072317
C 0.121785 -0.164040 -0.593624
C 0.939166 0.425357 -1.292063
C 0.676929 0.825102 -1.461391
C 1.389448 1.176892 -2.311417
C 2.190147 1.504778 -3.115659
C 2.039486 1.220178 -3.272084
C 1.982803 1.064316 -3.336521
C 1.884889 0.836407 -3.355712
C 1.808093 0.550339 -3.338504
C 1.655712 0.309950 -3.329644
C 1.577982 0.047303 -3.310244
C 1.451504 -0.236240 -3.306334
C 1.331206 -0.412354 -3.351580
C 1.190644 -0.619171 -3.341241
C 1.174252 -0.798149 -3.365294
C 1.219442 -0.872055 -3.419484
C 1.261482 -0.828802 -3.444505
C 1.477397 -0.736005 -3.420358
C 1.724624 -0.624378 -3.382867
C 1.876079 -0.588009 -3.288500
C 1.956289 -0.658012 -3.268872
C 1.826938 -0.732454 -3.175251
C 1.675000 -0.943834 -3.066943
C 1.530057 -1.138053 -3.002668
C 1.164932 -1.391780 -2.965057
C 0.621042 -1.701299 -2.868353
C 0.261137 -1.913034 -2.739669
C -0.103993 -2.049339 -2.514307
C -0.415934 -2.314984 -2.292097
C -0.741521 -2.473158 -2.066298
C -0.981380 -2.664202 -1.869629
C -1.247588 -2.807686 -1.563938
C -1.373969 -2.929683 -1.355205
C -1.604559 -3.098863 -1.202377
C -1.581402 -3.188386 -1.189529
C -1.375934 -3.139127 -1.276288
C -1.169110 -3.050160 -1.489555
C -0.982558 -2.968400 -1.582429
C -0.704505 -2.931463 -1.805685
C -0.513795 -2.822309 -1.977467
C -0.386140 -2.887519 -2.022959
C -0.379491 -2.941537 -1.939191
C -0.463716 -3.010907 -1.895236
C -0.468183 -3.169114 -1.741840
C -0.426792 -3.300162 -1.619870
C -0.779965 -3.249342 -1.378114
C -0.543039 -3.292321 -1.422187
C -0.857219 -3.184768 -1.166482
C -1.182712 -3.125477 -0.987560
C -0.462340 -2.592612 -1.010388
C 0.168862 -2.076791 -1.034508
C 0.759927 -1.714877 -1.110494
C 1.602166 -1.672422 -1.269380
C 1.059598 -1.690679 -0.758135
C 1.911755 -1.737756 -1.034182
C 2.674554 -1.796375 -1.241690
C 2.328009 -2.335682 -1.136001
C 1.910726 -2.881654 -0.991645
C 1.487857 -3.183713 -0.826629
C 1.146936 -3.228644 -0.651670
C 1.635103 -3.197876 -0.806950
C 1.437528 -3.296235 -0.585410
C 1.244409 -3.358336 -0.394055
C 1.113525 -3.358749 -0.215990
C 0.964727 -3.329391 -0.007429
C 0.826925 -3.427759 0.176446
C 0.793007 -3.548915 0.397669
C 0.707433 -3.696952 0.435092
C 0.460040 -3.717404 0.540421
C 0.296938 -3.717907 0.632220
C 0.027729 -3.751757 0.711718
C -0.104278 -3.623647 0.688269
C -0.263495 -3.551964 0.698378
C -0.537336 -3.508103 0.697986
C -0.655151 -3.385747 0.826735
C -0.706434 -3.218566 0.920474
C -0.869725 -3.061188 1.083367
C -0.881604 -2.803241 1.135559
C -0.972128 -2.723630 1.213832
C -0.989811 -2.661147 1.367100
C -1.020737 -2.632228 1.485191
C -1.023647 -2.646165 1.618149
C -1.097369 -2.658754 1.777632
C -0.912538 -2.652329 1.752062
C -0.712196 -2.760061 1.880535
C -0.506272 -2.832008 2.008920
C -0.306518 -2.882024 2.087053
C -0.083817 -2.882967 2.208470
C 0.060249 -2.873847 2.253541
C 0.394566 -2.848938 2.239077
C 0.548672 -2.890209 2.219070
C 0.682385 -2.901130 2.086570
C 0.801847 -2.814897 1.980945
C 1.005599 -2.816599 1.830275
C 1.228158 -2.787383 1.718812
C 1.538390 -2.738692 1.514172
C 1.738194 -2.700755 1.273843
C 2.006846 -2.622018 1.162268
C 2.126656 -2.461509 1.052990
C 2.389705 -2.451934 0.920513
C 2.555331 -2.343333 0.795242
C 2.638829 -2.297350 0.611024
C 2.660247 -2.189540 0.479714
C 2.758603 -2.101516 0.364814
C 2.625916 -2.067001 0.485828
C 2.737451 -2.038837 0.507689
C 2.788397 -1.834377 0.435163
C 2.767619 -1.647674 0.330709
C 2.897168 -1.431008 0.115637
C 2.899812 -1.197360 0.001881
C 2.795810 -0.972125 -0.071304
C 2.889449 -0.680044 -0.345379
C 2.893098 -0.557038 -0.360159
C 2.740038 -0.620429 -0.145282
C 2.658482 -0.658166 0.197318
C 2.520039 -0.784137 0.676521
C 2.425595 -1.014331 1.151690
C 2.485918 -1.158783 1.498734
C 2.646959 -1.271498 1.717031
C 2.703879 -1.298532 1.912299
C 2.791179 -1.369495 2.037100
C 2.977235 -1.376449 2.022703
C 3.076780 -1.211895 2.074014
C 3.225266 -0.941523 1.962553
C 3.344000 -0.746402 1.966837
C 3.283183 -0.585060 1.970527
C 3.258980 -0.426190 1.918635
C 3.299686 -0.157314 1.930211
C 3.161537 -0.015668 2.005024
C 3.125351 0.111392 2.001643
C 2.920838 0.101764 2.007413
C 2.690409 0.008222 2.115528
C 2.467170 -0.090584 2.334192
C 2.292721 -0.120920 2.467092
C 2.071814 -0.259392 2.588226
C 1.879746 -0.358938 2.747100
C 1.680097 -0.519125 2.891890
C 1.558505 -0.659754 3.128242
C 1.278331 -0.728808 3.297900
C 0.910484 -0.875860 3.409659
C 0.643739 -1.017712 3.559624
C 0.417785 -1.113752 3.605220
C 0.098753 -1.108144 3.381095
C -0.258157 -1.089796 3.170288
C -0.008595 -0.686426 2.545159
C 0.354774 -0.344345 1.914396
C 0.872515 0.022809 1.280642
C 1.264559 0.336929 0.673249
C 1.602096 0.782469 0.000641
C 2.067031 1.087107 -0.394325
C 2.652396 1.412163 -0.901192
C 2.802102 1.384801 -0.844773
C 2.853631 1.443696 -0.800725
C 2.910607 1.535244 -0.783316
C 2.962889 1.642902 -0.709352
C 2.986168 1.677367 -0.511648
C 2.728097 1.518066 -0.045432
C 2.001357 1.163601 0.599218
C 1.243306 0.828354 1.102513
C 0.691861 0.589130 1.511960
C 0.148002 0.294056 2.135533
C -0.262262 0.003614 2.690162
C -0.670706 -0.268910 3.214279
C -0.772380 -0.227010 3.351796
C -0.346452 0.086030 3.146024
C -0.104117 0.319868 3.074962
C 0.007947 0.349436 3.123705
C 0.059646 0.551631 2.997656
C -0.100672 0.686610 2.955887
C -0.077955 0.800682 2.676640
C -0.161680 0.817013 2.518238
C -0.199352 0.751077 2.669357
C -0.393289 0.632383 2.826715
C -0.640299 0.555978 2.955210
C -0.792220 0.444090 3.045779
C -0.906354 0.358528 3.123063
C -0.798149 0.351462 3.302795
C -0.649388 0.407351 3.470820
C -0.722926 0.536156 3.539274
C -0.412570 0.762474 3.490784
C -0.211059 1.006202 3.498717
C 0.064681 1.239382 3.499039
C 0.392144 1.460063 3.405964
C 0.438745 1.678940 3.332377
C 0.644523 1.770076 3.208177
C 0.824552 1.751013 3.167109
C 0.946316 1.791592 3.066914
C 1.457794 1.861807 2.793751
C 2.027726 1.737187 2.261924
C 2.221834 1.704001 2.082144
C 2.353809 1.678592 2.058807
C 2.327069 1.724908 1.811736
C 2.249563 1.778937 1.596862
C 2.161809 1.802974 1.398551
C 1.909841 1.855844 1.296694
C 1.474476 2.072670 1.560744
C 1.386225 2.167275 1.497321
C 1.457559 2.221157 1.309522
C 1.574008 2.346718 1.399671
C 1.742540 2.456524 1.353827
C 1.865514 2.589641 1.120223
C 1.839666 2.676942 0.991347
C 1.852295 2.768841 0.713158
C 1.893874 2.870516 0.519509
C 1.825200 2.996935 0.284914
C 1.689072 3.077190 -0.085117
C 1.562750 3.152774 -0.352735
C 1.406027 3.199880 -0.451520
C 1.332659 3.259728 -0.617315
C 1.188337 3.260921 -0.592819
C 1.002697 3.357612 -0.622176
C 0.837845 3.341102 -0.402483
C 0.804078 3.418981 -0.224726
C 0.240676 2.953391 0.185000
C 0.332775 3.044100 0.492650
C 0.371445 3.040739 0.858371
C 0.323132 3.045409 1.132169
C 0.246506 2.916401 1.305732
C 0.106313 2.894352 1.309795
C -0.040883 2.784500 1.379857
C 0.397215 3.326215 1.131364
C 0.166346 3.242627 1.164506
C 0.010080 3.200775 1.173678
C -0.113941 3.211046 1.246123
C -0.316158 3.174897 1.491450
C -0.460509 3.089400 1.711667
C -0.687216 3.068032 1.978040
C -0.884764 2.895486 2.224901
C -1.064056 2.789609 2.314384
C -1.194954 2.820381 2.168520
C -1.157031 2.719240 1.876300
C -1.011544 2.887028 1.355416
C -0.957837 2.991781 0.976443
C -0.827573 3.027386 0.551214
C -0.768195 3.177526 0.207802
C -0.755175 3.259922 0.134678
C -0.842595 3.185519 0.180635
C -1.076718 3.220972 0.363446
C -1.250277 2.996472 0.781265
C -1.468947 2.754976 1.125793
C -1.605265 2.655616 1.285850
C -1.724385 2.577374 1.347490
C -1.660478 2.534731 1.143709
C -1.708604 2.588559 0.997767
C -1.751262 2.638955 0.798031
C -1.789295 2.823755 0.366824
C -1.630428 3.040369 -0.089511
C -1.661791 3.104501 -0.324363
C -1.464562 3.098567 -0.483561
C -1.499464 3.178162 -0.634837
C -1.582417 3.125826 -0.655152
C -1.566049 3.038242 -0.646327
C -1.618704 2.900568 -0.425792
C -1.854847 2.794230 -0.222385
C -2.037267 2.611253 0.064074
C -2.387796 2.455189 0.449894
C -2.600464 2.195313 0.840135
C -2.701347 2.034319 1.090068
C -2.746514 1.960459 1.252265
C -2.785258 1.871201 1.381176
C -2.793179 1.715111 1.569657
C -2.830352 1.633721 1.692402
C -2.894112 1.477141 1.717601
C -2.930771 1.549567 1.638673
C -2.896271 1.616645 1.421722
C -2.956916 1.639832 1.242700
C -3.049021 1.631995 1.036855
C -3.109072 1.687451 0.808602
C -3.151986 1.685435 0.683173
C -3.263624 1.681942 0.530169
C -3.353016 1.431664 0.592021
C -3.537389 1.182015 0.686276
C -3.694091 0.994371 0.736137
C -3.880990 0.766763 0.699187
C -3.952833 0.607232 0.763134
C -4.037197 0.504679 0.699184
C -4.061145 0.441706 0.651070
