342
chr6 3D structure from Hi-C (resolution 500000bp)
C -1.456598 2.105292 3.695821
C -1.480540 2.088696 3.676378
C -1.549677 1.981925 3.609026
C -1.619446 1.870866 3.600173
C -1.796794 1.879390 3.472533
C -1.871384 1.708589 3.431012
C -2.058583 1.680018 3.360319
C -2.203383 1.715397 3.223739
C -2.411030 1.726802 3.033027
C -2.573137 1.763728 2.901546
C -2.667377 1.782751 2.741607
C -2.790670 1.826449 2.635333
C -2.887867 1.791006 2.421028
C -2.969313 1.576764 2.116499
C -3.196846 1.308239 1.763315
C -3.368148 1.084473 1.486070
C -3.522434 0.930547 1.265446
C -3.679054 0.822103 1.056618
C -3.811145 0.692972 0.907667
C -3.822603 0.623173 0.897869
C -3.779563 0.633946 1.103430
C -3.696485 0.812868 1.375140
C -3.648243 0.895556 1.648215
C -3.483668 0.914293 1.923085
C -3.391995 0.866656 2.211041
C -3.204641 0.742296 2.499065
C -3.151834 0.728244 2.720329
C -3.084425 0.622293 2.841986
C -3.019632 0.408453 2.922725
C -2.890306 0.219284 2.966736
C -2.884571 0.044038 2.862185
C -2.969280 0.015030 2.632630
C -3.150023 -0.182043 2.407243
C -3.247254 -0.401311 2.100421
C -3.406429 -0.594142 1.686487
C -3.592308 -0.704217 1.294791
C -3.767011 -0.893557 0.908036
C -3.900008 -0.982006 0.776285
C -3.889391 -1.115445 0.744629
C -3.925549 -1.060855 0.548676
C -4.093921 -1.010603 0.455414
C -4.162579 -0.972000 0.490366
C -4.188669 -1.017759 0.570588
C -4.220691 -1.012002 0.533655
C -4.277247 -1.090032 0.441717
C -4.300221 -1.223709 0.482099
C -4.141405 -1.317948 0.708414
C -3.846535 -1.273787 1.020097
C -3.550485 -1.191622 1.320863
C -3.082010 -0.898162 1.836734
C -2.868737 -0.182271 2.181529
C -2.768096 0.375567 2.311804
C -2.324884 0.720045 2.786182
C -2.092597 0.876800 3.088178
C -1.527843 0.334377 3.094958
C -0.969540 -0.235367 3.033398
C -0.538029 -1.014244 2.727601
C 0.174569 -2.188481 2.629985
C 0.991991 -3.178826 2.588003
C 0.629198 -2.642724 1.890747
C 0.359319 -2.020377 1.197234
C -0.371556 -0.861576 0.629279
C -1.178688 0.280494 0.154044
C -2.036905 1.411730 -0.193425
C -2.351970 2.008357 0.294682
C -2.590745 2.537785 0.848981
C -2.035140 1.714310 1.532858
C -1.586713 0.927069 2.270911
C -1.090711 0.260540 3.080596
C -0.528299 -0.446990 3.843536
C 0.037142 -1.124012 4.560370
C 0.066880 -1.336409 4.477460
C -0.119055 -1.428464 4.324234
C -0.329079 -1.481331 4.183006
C -0.461719 -1.444491 4.019332
C -0.657801 -1.587219 3.871713
C -0.863653 -1.653020 3.761066
C -1.100580 -1.767988 3.650620
C -1.328912 -1.691592 3.525982
C -1.406210 -1.682949 3.549169
C -1.424072 -1.750765 3.565490
C -1.366811 -1.886987 3.561817
C -1.190441 -2.024616 3.591292
C -0.993539 -2.215946 3.596809
C -0.822553 -2.330724 3.548592
C -0.753521 -2.577368 3.502579
C -0.831536 -2.752762 3.252460
C -0.963453 -2.839199 2.997787
C -1.134234 -2.921284 2.821698
C -1.375662 -2.968477 2.592761
C -1.617528 -3.026594 2.292347
C -1.837986 -2.968686 1.940773
C -2.023128 -2.903036 1.620240
C -2.129160 -3.017567 1.296113
C -2.199778 -3.155536 1.005151
C -2.206704 -3.321406 0.665664
C -2.270226 -3.403807 0.436559
C -2.232847 -3.508952 0.275633
C -2.136536 -3.713090 0.191442
C -2.002441 -3.853376 0.126419
C -1.872090 -3.852083 0.173864
C -1.718565 -3.815045 0.358804
C -1.732955 -3.681071 0.542497
C -1.839118 -3.572436 0.527718
C -2.010940 -3.363416 0.453419
C -2.212141 -3.239352 0.237913
C -2.364683 -3.187841 0.045738
C -2.370479 -3.234712 -0.122450
C -2.353519 -3.346738 -0.385131
C -2.189231 -3.478693 -0.574511
C -1.793698 -3.647635 -0.446728
C -1.454062 -3.841214 -0.323553
C -0.964999 -4.059671 -0.101878
C -1.290153 -3.564011 -0.230357
C -1.720635 -2.748084 -0.372331
C -1.126942 -2.747552 -0.320993
C -0.596270 -2.868713 -0.287791
C -0.265195 -2.966189 -0.473949
C 0.020053 -2.975691 -0.774593
C 0.212997 -2.962253 -0.964237
C 1.036299 -3.621766 -0.857216
C 1.892973 -4.471171 -0.873778
C 1.658074 -4.403757 -1.131736
C 1.246891 -4.188983 -1.301449
C 0.922868 -3.912140 -1.477540
C 0.656207 -3.659422 -1.532507
C 0.516097 -3.487469 -1.780521
C 0.425860 -3.291815 -1.994737
C 0.274185 -3.221848 -2.071852
C 0.105905 -3.166370 -2.107523
C 0.139318 -3.160468 -2.335837
C 0.143823 -3.164681 -2.527795
C 0.144412 -3.299780 -2.697505
C -0.064813 -3.356073 -2.645819
C -0.197193 -3.367360 -2.698381
C -0.429055 -3.319055 -2.799101
C -0.707101 -3.098315 -2.710518
C -0.829379 -2.923816 -2.611376
C -1.018232 -2.877723 -2.578402
C -1.130449 -2.734464 -2.535171
C -1.195347 -2.500182 -2.621198
C -1.338921 -2.363537 -2.619125
C -1.288476 -2.087842 -2.365174
C -1.356908 -1.956310 -2.415580
C -1.626843 -1.924550 -2.432654
C -1.800504 -1.804748 -2.474932
C -2.019322 -1.741535 -2.495717
C -2.317185 -1.624623 -2.495532
C -2.496241 -1.424272 -2.473150
C -2.573852 -1.438308 -2.791886
C -2.390822 -1.493877 -3.029428
C -2.168867 -1.494046 -3.277542
C -2.002530 -1.482306 -3.479291
C -1.747083 -1.417454 -3.678975
C -1.552091 -1.377148 -3.778788
C -1.590166 -1.291970 -3.814619
C -1.670567 -1.166199 -3.802365
C -1.798133 -1.015393 -3.703077
C -1.851825 -0.850314 -3.686491
C -1.891473 -0.696972 -3.632326
C -2.086918 -0.444751 -3.569092
C -2.226542 -0.194672 -3.448474
C -2.206565 -0.045612 -3.416219
C -2.247950 0.140847 -3.244220
C -2.274871 0.354630 -3.335020
C -2.440745 0.603426 -3.217533
C -2.430397 0.867942 -3.113924
C -2.394063 1.050245 -3.035765
C -2.372073 1.213800 -3.062212
C -2.262695 1.200060 -3.123441
C -2.165470 1.211572 -3.308660
C -2.284442 1.263742 -3.137566
C -2.242725 1.395078 -2.923709
C -2.365613 1.532680 -2.777042
C -2.384103 1.642164 -2.517671
C -2.295346 1.685974 -2.230579
C -2.186140 1.815160 -1.950391
C -2.210923 2.033559 -1.676117
C -1.861292 1.927191 -1.837409
C -1.534206 1.650038 -2.141744
C -1.162143 1.354456 -2.462744
C -0.849758 0.993115 -2.866782
C -0.432446 0.609911 -3.333665
C -0.120026 0.193800 -3.728286
C 0.375312 -0.353084 -4.002231
C 0.695427 -0.700034 -3.987895
C 1.079932 -1.116648 -3.873624
C 1.418386 -1.401492 -3.775515
C 1.699615 -1.505353 -3.634027
C 1.925354 -1.738575 -3.512172
C 2.095033 -1.647378 -3.405976
C 2.127660 -1.525075 -3.377799
C 2.104432 -1.335893 -3.475750
C 1.960377 -1.035452 -3.625281
C 1.875773 -0.737394 -3.665994
C 1.682522 -0.487812 -3.563045
C 1.522371 0.007845 -3.552616
C 1.368770 0.217110 -3.574050
C 1.190598 0.531880 -3.505456
C 1.027561 0.742498 -3.448767
C 0.761879 1.089220 -3.510093
C 0.568744 1.305653 -3.582230
C 0.579299 1.457324 -3.798374
C 0.446805 1.620919 -3.879231
C 0.377768 1.873620 -3.912572
C 0.412200 1.961711 -3.998089
C 0.233363 2.277059 -3.863558
C 0.077614 2.486103 -3.404885
C -0.100596 2.777708 -2.886250
C -0.368455 3.087053 -2.294006
C -0.537057 3.277378 -1.695403
C -0.738701 3.434478 -1.111618
C -0.970187 3.625311 -0.514586
C -0.926937 3.660450 0.004296
C -0.861572 3.676695 0.302332
C -0.931685 3.681564 0.510560
C -0.960422 3.761986 0.507359
C -1.007513 3.813950 0.560675
C -0.912711 3.929544 0.601232
C -0.834775 4.058938 0.445604
C -0.740809 4.114721 0.214752
C -0.632681 4.057219 -0.185036
C -0.503776 4.102161 -0.608103
C -0.336578 4.045085 -0.897133
C -0.144771 3.932195 -1.146272
C 0.011842 3.794951 -1.607994
C 0.217681 3.601109 -1.928968
C 0.341739 3.495950 -2.239938
C 0.503629 3.519129 -2.289894
C 0.688550 3.400687 -2.148977
C 0.883929 3.286338 -2.123882
C 1.076873 3.166281 -2.291754
C 1.126710 3.120416 -2.117964
C 1.261077 3.069211 -2.052098
C 1.302379 2.971303 -1.833511
C 1.375402 2.758456 -1.768764
C 1.538353 2.511808 -1.903344
C 1.754198 2.342235 -2.122266
C 1.977487 2.239656 -2.259765
C 2.278175 1.945773 -2.441288
C 2.479590 1.646581 -2.582903
C 2.707025 1.482246 -2.685866
C 3.002875 1.257082 -2.729896
C 3.245408 1.094574 -2.757341
C 3.319779 0.828458 -2.613383
C 3.447801 0.421169 -2.417702
C 3.503284 0.156093 -2.341987
C 3.560486 0.066986 -2.134983
C 3.657434 0.133172 -2.044744
C 3.659831 0.242127 -1.999303
C 3.689712 0.100288 -1.928233
C 3.693727 0.052720 -1.830979
C 3.651759 -0.110499 -1.810917
C 3.652432 -0.531727 -1.673352
C 3.554300 -0.517406 -1.634916
C 3.581488 -0.585167 -1.679467
C 3.374737 -0.483889 -1.526559
C 3.041293 -0.166379 -1.275047
C 2.765162 0.165694 -1.009778
C 2.602910 0.831885 -0.824971
C 2.500615 1.635647 -0.747429
C 2.357298 2.038459 -0.570978
C 2.115452 2.349657 -0.317539
C 2.229676 2.582838 -0.353943
C 2.414957 2.777926 -0.442597
C 2.380572 3.032438 -0.346353
C 2.202410 3.176715 -0.155270
C 1.975283 3.375109 0.162256
C 1.824607 3.493199 0.423642
C 1.673624 3.526111 0.800347
C 1.393218 3.531135 1.321927
C 1.131519 3.543440 1.747678
C 1.083733 3.439721 1.943210
C 1.113823 3.427465 2.123327
C 1.222400 3.405372 2.096193
C 1.373079 3.363008 2.066597
C 1.645358 3.253062 1.802293
C 1.841038 3.348745 1.564562
C 2.126384 3.442799 1.267957
C 2.534352 3.435873 1.011678
C 2.869439 3.339236 0.754691
C 3.108121 3.121641 0.551685
C 3.211440 2.861229 0.409337
C 3.219919 2.731821 0.410662
C 3.266650 2.436727 0.416025
C 3.208762 2.272014 0.732158
C 3.114173 2.159224 0.892155
C 3.125829 1.895635 0.863773
C 3.260142 1.609024 0.872331
C 3.480197 1.213562 0.735612
C 3.673201 0.929711 0.587490
C 3.949726 0.738664 0.438695
C 4.130483 0.385640 0.089773
C 4.178934 0.235560 0.054314
C 3.929460 0.372274 0.385037
C 3.487959 0.691736 0.665838
C 3.050796 1.177431 1.231414
C 2.693562 1.430728 1.585895
C 2.372386 1.568061 1.952223
C 2.204452 1.807110 2.355765
C 2.269073 1.730253 2.346342
C 2.470638 1.633036 2.178164
C 2.834234 1.499473 2.077377
C 3.182609 1.229048 1.722334
C 3.529398 0.973763 1.550750
C 3.638031 0.855763 1.433480
C 3.731216 0.724033 1.392009
C 3.598177 0.737050 1.521282
C 3.460915 0.617129 1.779543
C 3.393632 0.531833 1.980530
C 3.172650 0.623972 2.441408
C 2.819202 0.789530 2.798571
C 2.629657 0.823614 3.052009
C 2.413795 0.835339 3.163751
C 2.206453 0.931570 3.366227
C 2.166706 0.972587 3.450458
C 1.985455 0.988740 3.501185
C 2.059966 0.882207 3.311277
C 2.264486 0.603513 3.239467
C 2.523540 0.345508 3.068696
C 2.809840 -0.009307 2.781525
C 3.168784 -0.426480 2.377356
C 3.397062 -0.670386 2.019455
C 3.560045 -0.848814 1.795327
C 3.660220 -0.930989 1.639918
C 3.749150 -1.058965 1.327662
C 3.774157 -1.250501 1.097956
C 3.790541 -1.330743 1.009296
C 3.713873 -1.354668 1.063041
C 3.596869 -1.332320 1.242138
C 3.476787 -1.342291 1.422481
C 3.354824 -1.437226 1.615950
C 3.222212 -1.455478 1.885092
C 3.144411 -1.423312 2.067507
C 3.084942 -1.554183 2.133308
C 3.058007 -1.756353 2.195019
C 3.052049 -2.078322 2.133778
C 3.097101 -2.311497 2.098639
C 3.102881 -2.658881 2.079506
C 3.131241 -2.817521 1.977402
C 3.093851 -2.999215 1.974390
C 3.012199 -3.023296 2.207274
