118
chr19 3D structure from Hi-C (resolution 500000bp)
C 0.751936 2.448968 -2.060263
C 0.756039 2.569503 -1.909756
C 0.690237 2.600303 -1.770085
C 0.765807 2.580494 -1.579708
C 0.945000 2.709759 -1.234751
C 0.988865 2.746325 -0.968643
C 0.964340 2.731730 -0.627003
C 0.886811 2.723326 -0.326126
C 0.821542 2.703763 -0.091468
C 0.770081 2.755777 0.147634
C 0.667177 2.691293 0.210469
C 0.462191 2.649148 0.318175
C 0.447497 2.596084 0.441193
C 0.284638 2.400214 0.387918
C 0.061613 2.022003 0.237908
C -0.268282 1.649100 0.044762
C -0.445400 1.307717 -0.087612
C -0.604427 1.258068 -0.118996
C -0.663340 1.235116 -0.202791
C -0.861973 1.197634 -0.401992
C -1.059319 1.280415 -0.609382
C -1.148724 1.470872 -0.708403
C -1.031130 1.751857 -0.636187
C -0.994653 1.864660 -0.421275
C -1.063900 1.889131 -0.196639
C -1.120799 1.868680 0.105367
C -1.163047 1.727512 0.425407
C -1.020291 1.648578 0.971917
C -0.811036 1.583884 1.380533
C -0.661754 1.504487 1.725603
C -0.547219 1.576678 1.843160
C -0.260047 1.546718 1.908235
C -0.068279 1.490971 1.894522
C 0.121299 1.552481 1.932763
C 0.226201 1.496432 1.993009
C 0.241926 1.420906 2.082789
C -0.081226 1.106713 1.853881
C -0.472506 0.673198 1.644376
C -1.090759 0.329509 1.507554
C -1.623235 0.013534 1.182448
C -2.160837 -0.387220 0.821196
C -2.597152 -0.679392 0.297157
C -2.870216 -0.961023 -0.104392
C -2.798675 -1.069141 -0.201319
C -2.738314 -1.131919 -0.448383
C -2.596130 -1.201945 -0.594177
C -2.550527 -1.136753 -0.067054
C -2.554666 -0.856565 0.419932
C -2.656416 -0.459287 0.771190
C -2.889270 0.061956 0.819148
C -3.110515 0.485661 0.592383
C -3.155832 0.601021 0.406796
C -3.073139 0.402854 0.340751
C -2.835385 0.030922 -0.141534
C -2.586947 -0.468082 -0.570356
C -2.210214 -1.021833 -0.744396
C -1.757746 -1.593795 -0.591604
C -1.425806 -2.164706 -0.105487
C -1.182045 -2.449734 0.365644
C -1.088108 -2.461109 0.516146
C -1.034027 -2.519194 0.633274
C -0.928643 -2.429773 0.812477
C -0.806607 -2.353848 0.967552
C -0.713839 -2.324184 1.093512
C -0.536002 -2.298108 1.137758
C -0.373003 -2.187502 1.430380
C -0.226681 -2.050019 1.465992
C -0.043034 -1.706750 1.516472
C 0.208169 -1.581609 1.639141
C 0.286075 -1.640591 1.413023
C 0.293455 -1.715208 1.000950
C 0.314053 -1.823619 0.555540
C 0.437240 -1.892074 0.107954
C 0.693604 -1.886422 0.200102
C 0.946878 -1.936626 0.284537
C 1.026454 -1.812465 0.200084
C 1.288277 -1.597035 0.377969
C 1.518909 -1.318031 0.721742
C 1.734991 -0.987415 1.193997
C 1.898327 -0.732399 1.509866
C 1.973194 -0.540956 1.597633
C 2.074390 -0.514580 1.422002
C 2.168258 -0.748219 1.268488
C 2.086613 -0.991854 1.131865
C 2.036122 -1.145059 0.924033
C 1.939624 -1.275443 0.536942
C 1.886496 -1.279798 0.245827
C 1.890017 -1.191189 0.075692
C 1.781056 -0.994700 0.105115
C 1.762123 -0.686268 0.109418
C 1.924591 -0.226912 0.160421
C 2.182920 0.042796 0.151809
C 2.403196 0.294924 0.228983
C 2.550150 0.471576 0.176801
C 2.570801 0.567298 -0.014086
C 2.556669 0.580168 -0.173534
C 2.580665 0.685159 -0.421545
C 2.476040 0.533747 -0.645216
C 2.306041 0.371678 -0.710203
C 2.163451 0.210313 -0.820754
C 1.852922 0.003695 -0.860016
C 1.490886 -0.297896 -1.037130
C 1.146728 -0.513262 -1.181056
C 0.738566 -0.812487 -1.241567
C 0.350160 -1.008361 -1.366911
C -0.088111 -0.916109 -1.832112
C -0.430297 -0.684061 -2.281919
C -0.309207 -0.623227 -2.511844
C -0.192782 -0.676355 -2.508898
C -0.086475 -0.779168 -2.478328
C -0.096711 -0.868634 -2.444613
C 0.028395 -0.818364 -2.412308
C 0.156316 -0.953959 -2.207779
C 0.276523 -1.195970 -1.866984
C 0.231330 -1.186501 -2.032092
C 0.168568 -1.119389 -2.068428
C 0.119116 -1.030477 -2.207851
C 0.287753 -0.811975 -2.380365
