118
chr19 3D structure from Hi-C (resolution 500000bp)
C 0.576453 3.068296 0.980139
C 0.509698 3.047619 1.111437
C 0.409868 2.968538 1.208320
C 0.396547 2.879770 1.352025
C 0.384045 2.698868 1.764320
C 0.322031 2.572830 2.007385
C 0.377981 2.293647 2.226698
C 0.438255 1.963577 2.341113
C 0.497596 1.659865 2.520286
C 0.506409 1.456564 2.724603
C 0.412555 1.297311 2.728127
C 0.223888 1.207113 2.702089
C 0.110042 1.090753 2.573691
C -0.069232 0.975524 2.287683
C -0.315101 0.880788 1.755925
C -0.682500 0.869141 1.178398
C -0.919851 0.784104 0.663354
C -0.998592 0.747962 0.514388
C -1.103229 0.708478 0.441698
C -1.248136 0.724492 0.408125
C -1.503323 0.885063 0.387128
C -1.658600 1.051007 0.550610
C -1.664228 1.099637 0.968672
C -1.654438 0.989902 1.342024
C -1.766602 0.833405 1.483220
C -1.908710 0.722640 1.559048
C -1.857690 0.404768 1.617464
C -1.681713 -0.050195 1.870348
C -1.492891 -0.392186 2.079670
C -1.352515 -0.675995 2.216209
C -1.281751 -0.780486 2.339503
C -1.119769 -0.872722 2.415923
C -0.888826 -0.963096 2.494989
C -0.874302 -0.855358 2.600243
C -1.023524 -0.817814 2.570159
C -1.157884 -0.765469 2.464780
C -1.400348 -0.714229 2.018655
C -1.656877 -0.716877 1.417521
C -2.100831 -0.614347 0.894899
C -2.501900 -0.580745 0.361114
C -2.834158 -0.600156 -0.274513
C -2.920682 -0.474967 -0.909129
C -2.934622 -0.448716 -1.312369
C -2.826048 -0.441558 -1.538448
C -2.781651 -0.275182 -1.668353
C -2.517728 -0.285821 -1.829396
C -2.498139 0.165162 -1.840370
C -2.405823 0.740419 -1.698912
C -2.255931 1.390916 -1.534258
C -2.093480 2.078243 -1.540662
C -1.951310 2.661758 -1.632441
C -1.770086 2.694068 -1.880336
C -1.655202 2.570952 -2.015086
C -1.355356 1.934273 -2.219837
C -1.166489 1.169251 -2.451384
C -1.018706 0.332617 -2.599805
C -0.991607 -0.534243 -2.434214
C -0.996787 -1.441815 -2.195790
C -0.940331 -1.863908 -1.866121
C -0.902978 -2.059675 -1.718866
C -0.833385 -2.234928 -1.683417
C -0.722115 -2.339430 -1.527585
C -0.656358 -2.431924 -1.313718
C -0.573961 -2.515714 -1.270755
C -0.422665 -2.534769 -1.236554
C -0.360138 -2.682486 -1.017154
C -0.277747 -2.571736 -0.844663
C -0.133432 -2.365864 -0.510355
C -0.063892 -2.367266 -0.171028
C 0.056166 -2.218521 -0.300227
C 0.116916 -2.016468 -0.581921
C 0.246093 -1.773586 -0.889321
C 0.478531 -1.517922 -1.123508
C 0.680660 -1.674260 -0.954365
C 0.835213 -1.843136 -0.772818
C 1.019541 -1.733344 -0.700776
C 1.090603 -1.768415 -0.221870
C 1.254510 -1.792111 0.312334
C 1.381832 -1.833043 0.950739
C 1.506750 -1.841272 1.341579
C 1.662985 -1.707214 1.441377
C 1.871937 -1.615441 1.279809
C 2.013946 -1.691881 0.982652
C 2.126252 -1.715266 0.589335
C 2.216541 -1.656838 0.295673
C 2.224157 -1.551036 -0.143430
C 2.187019 -1.429301 -0.320246
C 2.155225 -1.234894 -0.288811
C 2.042602 -1.007466 -0.120356
C 2.044190 -0.773728 0.093005
C 2.176438 -0.505440 0.354201
C 2.292940 -0.334689 0.650491
C 2.359605 -0.252065 0.960358
C 2.463788 -0.063180 1.082415
C 2.437326 0.109979 1.055942
C 2.420729 0.214405 0.951946
C 2.447986 0.482611 0.909465
C 2.340067 0.552161 0.749527
C 2.206141 0.604291 0.555043
C 2.106390 0.611224 0.358836
C 1.856603 0.542412 0.094561
C 1.713792 0.511948 -0.344141
C 1.553848 0.510889 -0.688216
C 1.233336 0.367683 -1.070851
C 1.033171 0.346696 -1.395634
C 0.944835 0.656628 -1.844152
C 0.968156 1.174580 -2.069013
C 1.143127 1.400276 -2.058182
C 1.186907 1.377517 -2.116806
C 1.175236 1.259358 -2.197259
C 1.174038 1.196200 -2.287966
C 1.066620 1.226082 -2.194998
C 0.913799 0.975121 -2.132581
C 0.758574 0.629768 -2.038609
C 0.871582 0.758829 -2.107363
C 0.809029 0.807127 -2.069393
C 0.811767 1.013995 -2.060170
C 0.957615 1.295861 -1.914460
