229
chr13 3D structure from Hi-C (resolution 500000bp)
C 5.267325 -2.879790 3.515337
C 5.206747 -3.200757 3.285434
C 5.195019 -3.464610 2.918851
C 5.180590 -3.681528 2.464871
C 5.045238 -4.036633 1.835196
C 5.015198 -4.281397 1.044791
C 5.196219 -4.321973 0.265967
C 5.444738 -4.172711 -0.269639
C 5.165398 -3.323146 0.290956
C 4.788685 -2.273567 1.025372
C 4.423325 -1.033886 1.865046
C 4.160372 0.263380 2.788324
C 3.970029 1.442093 3.690348
C 3.765869 2.348788 4.483287
C 3.533200 2.999856 5.159621
C 3.721721 2.839005 5.053566
C 4.001966 2.409635 4.940681
C 4.396619 1.827412 4.782245
C 4.806478 1.200769 4.575820
C 5.168276 0.555265 4.266616
C 5.472329 -0.047852 3.722333
C 5.603881 -0.625018 2.500966
C 5.797629 -0.918899 1.132400
C 6.046895 -1.011554 -0.113974
C 6.248326 -1.061957 -1.029185
C 6.368134 -1.000782 -1.548172
C 6.298289 -0.457647 -1.695077
C 6.149931 0.225524 -1.497119
C 6.192114 0.948583 -0.641694
C 6.306444 1.477860 0.149512
C 6.381705 1.900263 0.604035
C 6.377235 2.213738 0.626353
C 6.297564 2.383263 0.277039
C 6.217343 2.304202 -0.270000
C 5.987542 2.296894 -0.936725
C 5.449803 2.320156 -1.656308
C 4.648378 2.522824 -1.883972
C 3.805323 2.827759 -1.923502
C 2.930251 3.148545 -1.629862
C 2.149500 3.424969 -1.328839
C 1.569049 3.424788 -1.073584
C 1.213463 3.277205 -0.874282
C 1.150966 3.214494 -0.747885
C 1.207218 3.109165 -0.877675
C 1.137784 3.120418 -0.789893
C 1.102943 3.167411 -0.814407
C 0.935191 3.216251 -0.656676
C 0.776174 3.238252 -0.518264
C 0.776379 3.384335 -0.602269
C 0.609012 3.437196 -0.372056
C 0.558840 3.568384 -0.421789
C 0.482266 3.589409 -0.481785
C 0.453110 3.574901 -0.602671
C 0.432737 3.579790 -0.670347
C 0.420865 3.645127 -0.884218
C 0.281015 3.499733 -0.859684
C 0.196836 3.555426 -0.874093
C -0.005232 3.580560 -0.804018
C -0.047303 3.514519 -0.874450
C -0.050899 3.321144 -0.982859
C 0.012063 3.116227 -1.234731
C -0.108402 3.013017 -1.226726
C -0.319071 3.165714 -1.214679
C -0.397412 3.132404 -1.470182
C -0.393243 2.966320 -1.715284
C -0.276721 2.681496 -2.071640
C -0.198422 2.582829 -2.320721
C -0.182364 2.519800 -2.515629
C -0.038190 2.330652 -2.679619
C 0.076952 2.006868 -2.814175
C 0.071142 1.798336 -2.830370
C 0.111294 1.630686 -2.871295
C 0.027216 1.559371 -2.960205
C -0.161608 1.508175 -2.975290
C -0.352935 1.445091 -2.947301
C -0.619224 1.512325 -2.881475
C -0.845757 1.635293 -2.812539
C -0.982516 1.762673 -2.640427
C -1.229282 2.008174 -2.374339
C -1.524467 2.278478 -1.958340
C -1.743665 2.570629 -1.590408
C -1.902238 2.878439 -1.191080
C -2.042630 3.016024 -1.064920
C -2.160615 3.062754 -0.964003
C -2.286641 3.087263 -1.080526
C -2.365685 2.974339 -1.179496
C -2.421749 2.889231 -1.196147
C -2.427577 2.842419 -1.057204
C -2.352093 2.762197 -0.983695
C -2.386922 2.768942 -0.782747
C -2.429035 2.708539 -0.603111
C -2.454227 2.540779 -0.574627
C -2.440098 2.414967 -0.491353
C -2.433973 2.403635 -0.391231
C -2.455883 2.226704 -0.504093
C -2.544182 2.147661 -0.500931
C -2.477525 2.121795 -0.398834
C -2.416181 2.263692 -0.254260
C -2.377200 2.446897 0.106127
C -2.276764 2.552835 0.337219
C -2.115438 2.528677 0.394245
C -1.967130 2.580696 0.567525
C -1.710482 2.381746 0.460538
C -1.346798 2.024599 0.133710
C -0.870683 1.551108 -0.371212
C -0.333719 0.989160 -0.805263
C 0.094098 0.551107 -1.227036
C 0.507265 0.022567 -1.624752
C 0.907051 -0.518788 -2.110277
C 1.144674 -0.853287 -2.499113
C 1.222832 -1.021948 -2.779706
C 1.204583 -1.188083 -2.900390
C 1.087377 -1.208703 -3.019988
C 0.991792 -1.215564 -3.081385
C 0.867760 -1.083144 -3.013412
C 0.740751 -0.972924 -2.866510
C 0.535856 -0.801523 -2.587166
C 0.228597 -0.609959 -2.293488
C 0.013324 -0.501586 -2.064343
C -0.158466 -0.414346 -2.006759
C -0.297267 -0.518791 -1.978711
C -0.569342 -0.492121 -2.022403
C -0.850240 -0.530632 -2.211928
C -0.901657 -0.747006 -2.580598
C -0.807554 -1.110873 -2.848392
C -0.789826 -1.367199 -2.992238
C -0.809424 -1.536893 -3.081656
C -0.939412 -1.497919 -3.196666
C -0.904722 -1.708273 -3.313955
C -0.989495 -1.673846 -3.240500
C -1.164326 -1.623550 -3.150008
C -1.239959 -1.620822 -3.048036
C -1.363883 -1.588963 -2.998207
C -1.503002 -1.637833 -2.903056
C -1.648275 -1.736440 -2.787880
C -1.810335 -1.742841 -2.637826
C -1.912489 -1.929631 -2.610763
C -2.041214 -2.088491 -2.537969
C -2.273616 -2.059030 -2.409877
C -2.537544 -1.941098 -2.266926
C -2.756243 -1.853044 -2.148065
C -2.835740 -1.799252 -1.949708
C -2.927352 -1.581606 -1.715741
C -2.915891 -1.414911 -1.487213
C -2.941743 -1.137680 -1.220397
C -3.021361 -0.933143 -1.065568
C -3.013327 -0.943472 -0.933131
C -3.053892 -0.782428 -0.701618
C -3.145625 -0.598424 -0.528835
C -3.161936 -0.835401 -0.509210
C -3.215719 -0.848853 -0.393753
C -3.300496 -0.699846 -0.179368
C -3.322862 -0.748079 -0.044997
C -3.374325 -0.789941 0.116239
C -3.366086 -0.891409 0.157889
C -3.367836 -0.857169 0.283313
C -3.379130 -0.756308 0.437168
C -3.380949 -0.739142 0.545134
C -3.277305 -1.222215 0.477235
C -3.184596 -1.452157 0.477873
C -3.079989 -1.639861 0.445203
C -2.910085 -1.923910 0.396453
C -2.701011 -2.411645 0.243419
C -2.504216 -2.776387 0.129463
C -2.368018 -3.123540 0.040444
C -2.176978 -3.192241 -0.061913
C -1.967208 -3.296908 -0.151722
C -1.696707 -3.332751 -0.260720
C -1.486188 -3.392845 -0.319781
C -1.243411 -3.422592 -0.374603
C -1.017106 -3.433182 -0.364754
C -0.736478 -3.448130 -0.384200
C -0.555132 -3.531874 -0.279111
C -0.315972 -3.573446 -0.206501
C -0.166072 -3.625292 -0.058230
C 0.032303 -3.603387 0.079421
C 0.166378 -3.697780 0.228990
C 0.254305 -3.547503 0.295963
C 0.288385 -3.432535 0.354605
C 0.217025 -3.119610 0.441451
C 0.091183 -2.888466 0.534350
C -0.017027 -2.794489 0.604345
C -0.164766 -2.832387 0.720863
C -0.322292 -2.671421 0.877233
C -0.381248 -2.669802 1.119944
C -0.570206 -2.634803 1.285052
C -0.601151 -2.565563 1.387241
C -0.810695 -2.294433 1.540597
C -0.969996 -1.914700 1.681877
C -0.972336 -1.661470 1.738356
C -1.024517 -1.483186 1.767604
C -1.245638 -1.173029 1.741157
C -1.295064 -0.918039 1.831649
C -1.431786 -0.785198 1.928525
C -1.420208 -0.753662 1.972054
C -1.509929 -0.583339 2.032064
C -1.814160 -0.341917 2.177378
C -2.061214 -0.040211 2.278715
C -2.117250 -0.083217 2.332013
C -2.181344 -0.250326 2.385212
C -2.221289 -0.463908 2.418949
C -2.196233 -0.792429 2.475602
C -2.111650 -0.989772 2.581624
C -2.007225 -1.101500 2.718705
C -1.885756 -1.479018 2.867788
C -1.748410 -1.829346 3.004273
C -1.664779 -1.907967 3.093470
C -1.530355 -1.980871 3.254865
C -1.419513 -2.086018 3.358086
C -1.315149 -2.315749 3.385047
C -1.198605 -2.439298 3.314765
C -1.097605 -2.449716 3.199288
C -1.029626 -2.366791 3.117860
C -0.892091 -2.223392 3.041944
C -0.727957 -2.174454 2.929003
C -0.608481 -1.868287 2.893579
C -0.497192 -1.685896 2.836542
C -0.463125 -1.368868 2.812898
C -0.486765 -0.847019 2.854889
C -0.561733 -0.353104 2.949804
C -0.422705 -0.261387 3.136137
C -0.318902 -0.094932 3.461348
C -0.468073 0.202038 3.466436
C -0.604834 0.570942 3.533874
C -0.678464 0.809208 3.697500
C -0.721268 1.058217 3.832410
C -0.672408 1.121617 3.930933
C -0.907108 1.458258 3.909023
C -1.273463 1.971153 3.597312
