229
chr13 3D structure from Hi-C (resolution 500000bp)
C 5.927666 1.258572 2.913669
C 5.895645 0.624101 2.950793
C 5.778832 -0.015521 2.984379
C 5.601043 -0.631092 2.988211
C 5.405660 -1.772456 2.929262
C 5.194357 -2.852164 2.668776
C 4.982146 -3.691201 2.195487
C 4.816788 -4.291826 1.709442
C 4.395033 -4.009388 2.186630
C 4.019407 -3.364916 2.660311
C 3.781069 -2.397162 3.085638
C 3.689851 -1.252883 3.502730
C 3.689234 -0.113497 4.032867
C 3.711947 0.830278 4.762050
C 3.669510 1.531405 5.547679
C 3.848608 1.333535 5.409719
C 4.030099 0.804689 5.244692
C 4.217356 0.021869 5.053591
C 4.547428 -0.836195 4.491140
C 4.782400 -1.673651 3.775273
C 4.894754 -2.395103 2.803499
C 4.961258 -2.936270 1.623385
C 5.103921 -3.194414 0.294865
C 5.343986 -3.136265 -1.022744
C 5.693968 -2.517285 -1.932161
C 5.776466 -1.769635 -2.190187
C 5.849754 -0.992694 -2.092204
C 6.016724 -0.298734 -1.683475
C 6.266025 0.224993 -1.142259
C 6.508754 0.536877 -0.611196
C 6.671310 0.660556 -0.243957
C 6.641604 0.374934 -0.370200
C 6.562842 0.074619 -0.810144
C 6.378723 -0.039792 -1.441486
C 6.000913 0.232064 -1.987335
C 5.376576 0.675830 -2.399142
C 4.569803 1.267673 -2.426262
C 3.700189 1.933151 -2.067641
C 2.872269 2.591708 -1.601959
C 2.131560 3.123355 -1.115824
C 1.607180 3.349608 -0.680921
C 1.267262 3.353080 -0.421420
C 1.201839 3.341801 -0.313016
C 1.240870 3.272966 -0.310579
C 1.161048 3.320565 -0.350776
C 1.116921 3.236709 -0.254814
C 1.022001 3.220164 -0.099825
C 0.849123 3.260660 0.125426
C 0.876795 3.333784 0.338651
C 0.726467 3.370836 0.549122
C 0.679097 3.401974 0.708699
C 0.736007 3.434393 0.714060
C 0.828491 3.457089 0.599490
C 0.821272 3.479995 0.501720
C 0.930278 3.375868 0.426139
C 0.802471 3.259699 0.164092
C 0.699637 3.299735 0.063108
C 0.518926 3.427500 -0.108864
C 0.418285 3.351651 -0.198133
C 0.314609 3.279894 -0.393452
C 0.325208 3.139001 -0.668114
C 0.133039 3.282772 -0.848979
C -0.073649 3.431601 -0.784130
C -0.173929 3.390563 -0.878119
C -0.177727 3.267551 -1.048804
C -0.078968 3.132142 -1.445763
C 0.005077 3.030151 -1.680603
C 0.056448 2.945897 -1.831381
C 0.180228 2.733358 -2.039639
C 0.303078 2.459200 -2.216100
C 0.374721 2.287377 -2.285510
C 0.385850 2.116277 -2.428223
C 0.366368 2.018040 -2.521575
C 0.215063 1.997658 -2.563790
C 0.029468 1.955964 -2.472699
C -0.241927 1.984650 -2.308277
C -0.483235 2.090675 -2.216602
C -0.671254 2.232014 -2.076938
C -0.893668 2.462320 -1.789743
C -1.201636 2.694172 -1.369395
C -1.446746 2.915630 -0.914492
C -1.620538 3.167849 -0.477994
C -1.779537 3.302302 -0.358716
C -1.825095 3.338499 -0.054899
C -1.962566 3.351497 -0.101220
C -1.914393 3.283189 0.152822
C -1.903501 3.207246 0.208004
C -1.911336 3.131858 0.340586
C -1.883546 3.008923 0.401186
C -1.810656 3.011776 0.638173
C -1.860886 2.961297 0.521712
C -1.821444 2.818682 0.490463
C -1.910307 2.653229 0.159526
C -1.971452 2.613287 0.124895
C -2.022823 2.483137 -0.121041
C -2.124982 2.416663 -0.239555
C -2.196532 2.352323 -0.265005
C -2.301997 2.385627 -0.091032
C -2.401709 2.455897 0.057266
C -2.443383 2.539691 0.247982
C -2.382765 2.459983 0.287783
C -2.212742 2.441767 0.492685
C -1.888244 2.257526 0.406856
C -1.505876 1.872103 0.124382
C -0.932198 1.477883 -0.374556
C -0.352278 1.065341 -0.664505
C 0.091929 0.755668 -1.219137
C 0.545928 0.361239 -1.639187
C 0.865470 -0.052977 -2.268401
C 1.062557 -0.341482 -2.693144
C 1.184960 -0.511568 -2.983191
C 1.166282 -0.684229 -3.046240
C 1.090225 -0.700328 -3.124548
C 1.080464 -0.865425 -3.055980
C 0.961077 -0.775187 -3.059479
C 0.867713 -0.694394 -2.878329
C 0.660460 -0.521768 -2.611106
C 0.366601 -0.273043 -2.424487
C 0.145353 -0.125821 -2.285528
C 0.010651 -0.133039 -2.253561
C -0.185128 -0.061962 -2.245831
C -0.521399 -0.007672 -2.228850
C -0.810441 0.062586 -2.367983
C -0.959469 -0.129057 -2.697691
C -0.958013 -0.342758 -2.985163
C -1.008599 -0.509435 -3.252693
C -1.135007 -0.582769 -3.368307
C -1.231446 -0.611974 -3.412173
C -1.152059 -0.763216 -3.579612
C -1.219802 -0.800683 -3.565373
C -1.334399 -0.662367 -3.545733
C -1.470781 -0.596664 -3.427861
C -1.590161 -0.655718 -3.304206
C -1.657204 -0.741450 -3.206309
C -1.781481 -0.846436 -3.105221
C -1.946483 -0.965238 -2.928092
C -2.046882 -1.113849 -2.875158
C -2.230790 -1.222366 -2.750279
C -2.440983 -1.292701 -2.603571
C -2.696219 -1.201493 -2.385385
C -2.963802 -1.142505 -2.237915
C -3.148721 -1.066362 -2.064257
C -3.176623 -0.829499 -1.783693
C -3.139656 -0.766221 -1.540836
C -3.093150 -0.627564 -1.292646
C -3.095542 -0.506239 -1.082388
C -3.020520 -0.526429 -1.022052
C -2.999700 -0.319837 -0.813000
C -2.943453 -0.189680 -0.593360
C -3.037804 -0.407795 -0.623170
C -3.129274 -0.429029 -0.513314
C -3.204287 -0.353686 -0.294067
C -3.203226 -0.420182 -0.154088
C -3.296871 -0.434057 -0.014132
C -3.323748 -0.616499 0.043463
C -3.352978 -0.644041 0.092243
C -3.289780 -0.631222 0.199816
C -3.241385 -0.673111 0.243242
C -3.114276 -1.134159 0.035267
C -3.033093 -1.413258 -0.111700
C -2.912534 -1.618846 -0.270631
C -2.713072 -1.902491 -0.491133
C -2.510938 -2.346527 -0.701416
C -2.314947 -2.622780 -0.948498
C -2.180497 -2.893134 -1.119585
C -2.022506 -2.928588 -1.112455
C -1.799909 -2.997126 -1.218318
C -1.537353 -3.021068 -1.252654
C -1.370971 -3.023334 -1.178462
C -1.238248 -3.079636 -1.172883
C -1.140559 -3.176665 -1.016598
C -1.004248 -3.288437 -0.898156
C -0.772007 -3.365735 -0.946503
C -0.584005 -3.444412 -0.872639
C -0.460780 -3.507042 -0.762324
C -0.339835 -3.597969 -0.702589
C -0.218389 -3.667722 -0.581254
C -0.099914 -3.594653 -0.480934
C 0.000218 -3.449667 -0.456957
C -0.094761 -3.188177 -0.236864
C -0.132522 -2.985942 -0.001660
C -0.183604 -2.956634 0.190249
C -0.255549 -2.913956 0.386024
C -0.243265 -2.742763 0.525056
C -0.276458 -2.639751 0.674522
C -0.312565 -2.548193 0.843222
C -0.396785 -2.511311 0.942788
C -0.618059 -2.216358 1.077143
C -0.789129 -1.835542 1.211980
C -0.880978 -1.604559 1.265538
C -1.103230 -1.495681 1.316276
C -1.357387 -1.199400 1.408016
C -1.543317 -1.029759 1.533993
C -1.706959 -0.911330 1.673063
C -1.804253 -0.887753 1.767379
C -1.962166 -0.763730 1.907178
C -2.146807 -0.529267 2.067084
C -2.233533 -0.268172 2.163743
C -2.250903 -0.362594 2.194910
C -2.339920 -0.540509 2.169881
C -2.328849 -0.838391 2.133925
C -2.344187 -1.235325 2.068942
C -2.302441 -1.445991 2.053301
C -2.284731 -1.610266 2.171696
C -2.285436 -1.975443 2.268126
C -2.181311 -2.339499 2.280808
C -2.074085 -2.438797 2.416097
C -1.985264 -2.528857 2.533508
C -1.802834 -2.597173 2.657686
C -1.703901 -2.742607 2.699164
C -1.596497 -2.899274 2.633023
C -1.408903 -2.916996 2.587479
C -1.294764 -2.721979 2.648582
C -1.189680 -2.555155 2.629596
C -1.025893 -2.320069 2.616583
C -0.956729 -2.024491 2.599254
C -0.760296 -1.884237 2.570504
C -0.664998 -1.553127 2.587721
C -0.723886 -1.037092 2.702334
C -0.742480 -0.697213 2.795199
C -0.622127 -0.658016 2.983726
C -0.473971 -0.656193 3.309442
C -0.531426 -0.415857 3.394643
C -0.691242 -0.074305 3.534697
C -0.704022 0.125632 3.749427
C -0.685917 0.255477 3.951976
C -0.683431 0.300688 4.093202
C -0.802683 0.633472 4.111310
C -1.129375 1.145266 3.896081
