94
chr21 3D structure from Hi-C (resolution 500000bp)
C 0.054584 3.427733 -4.408524
C 0.250955 3.755423 -4.085866
C 0.612478 3.901751 -3.847725
C 1.018940 3.874312 -3.709674
C 1.469408 3.933554 -3.443006
C 2.013427 3.729872 -3.285710
C 2.630959 3.219073 -3.306108
C 3.124279 2.446088 -3.458323
C 3.452837 1.437748 -3.659345
C 3.500820 0.373802 -3.861683
C 3.210969 -0.539733 -4.131200
C 2.627516 -1.194885 -4.386918
C 1.917094 -1.559397 -4.605484
C 1.199213 -1.596907 -4.767765
C 0.432022 -1.333090 -4.861648
C -0.451810 -0.896048 -4.948800
C -1.350262 -0.545278 -4.904086
C -2.015730 -0.489949 -4.661561
C -2.452652 -0.619372 -4.324423
C -2.507690 -1.054506 -4.098950
C -2.301427 -1.765209 -3.781543
C -1.968390 -2.703973 -3.396454
C -1.749866 -3.627164 -2.937657
C -1.656341 -4.020839 -2.379394
C -1.579486 -4.130702 -1.801268
C -1.313646 -3.885069 -1.157433
C -1.280668 -3.455859 -0.233224
C -1.500130 -3.007695 0.590236
C -1.784229 -2.509628 1.275563
C -1.939364 -1.947382 1.780193
C -1.946201 -1.628603 1.970724
C -1.923410 -1.295626 2.060351
C -2.029888 -1.191852 2.146335
C -2.272333 -1.067747 1.924010
C -2.468231 -0.793944 1.709737
C -2.604531 -0.530091 1.375159
C -2.715378 -0.322284 1.083278
C -2.797987 -0.156933 0.923733
C -2.869072 0.003503 0.818440
C -3.013820 0.172393 0.547209
C -3.082470 0.369312 0.397288
C -3.260553 0.545647 0.226379
C -3.321546 0.790250 0.369241
C -3.276047 1.007330 0.617276
C -3.120543 1.194516 0.830993
C -2.953119 1.334635 1.004846
C -2.764271 1.410526 1.257206
C -2.433022 1.385995 1.619376
C -1.996356 1.369748 2.004730
C -1.702220 1.359528 2.108651
C -1.492556 1.352124 2.011765
C -1.411287 1.456258 1.788310
C -1.399594 1.618845 1.575704
C -1.385777 1.777300 1.356768
C -1.344586 1.958031 1.281676
C -1.131696 1.996256 1.272003
C -0.952642 2.053579 1.320359
C -0.803268 2.283563 1.361808
C -0.551308 2.330425 1.525953
C -0.201619 2.171157 1.628128
C 0.178216 2.044566 1.782406
C 0.462317 1.914911 1.699534
C 0.759302 1.940152 1.593637
C 1.140802 1.862232 1.502387
C 1.601875 1.543973 1.574738
C 2.049051 1.283813 1.648858
C 2.295147 1.193091 1.796068
C 2.395982 1.114760 1.918364
C 2.497220 1.089047 2.076156
C 2.407241 0.860878 2.154626
C 2.311884 0.618880 2.264758
C 2.168696 0.436445 2.403610
C 1.879636 0.258103 2.527995
C 1.650666 0.139752 2.555555
C 1.507139 -0.095298 2.506858
C 1.380193 -0.371429 2.475547
C 1.102248 -0.507833 2.351849
C 0.752471 -0.607539 2.136312
C 0.442266 -0.649062 1.842206
C 0.424663 -0.754981 1.631061
C 0.519992 -0.938156 1.489633
C 0.814330 -0.964130 1.360048
C 1.069490 -0.973366 1.165946
C 1.698891 -1.065144 0.997617
C 2.243229 -1.184774 1.041620
C 2.827303 -1.382877 1.029232
C 3.117740 -1.506976 0.974257
C 3.295642 -1.629324 0.941247
C 3.176009 -1.878478 0.914753
C 3.052440 -2.159526 0.941653
C 2.787454 -2.472520 0.988966
C 2.680628 -2.590195 0.981787
C 2.458481 -2.686337 1.064239
C 2.339816 -2.848412 1.087327
