94
chr21 3D structure from Hi-C (resolution 500000bp)
C 0.135145 2.599356 -4.433874
C 0.364560 2.964737 -4.115314
C 0.711369 3.149881 -3.857826
C 1.086999 3.151556 -3.701577
C 1.572593 3.266536 -3.437485
C 2.061563 3.135283 -3.283389
C 2.485929 2.717186 -3.291329
C 2.750114 2.014723 -3.417347
C 2.950043 1.147495 -3.603849
C 3.074309 0.216360 -3.691348
C 2.948606 -0.709934 -3.763078
C 2.560156 -1.512091 -3.819050
C 2.104397 -2.245455 -3.726442
C 1.751459 -2.977510 -3.399963
C 1.382536 -3.579104 -2.929186
C 0.793307 -4.046163 -2.498147
C -0.017433 -4.244195 -2.260613
C -0.804620 -4.152176 -2.136587
C -1.321783 -3.941638 -2.077383
C -1.585718 -3.627794 -2.296644
C -1.822227 -3.073512 -2.715181
C -2.035101 -2.321864 -3.256348
C -2.220292 -1.448320 -3.688843
C -2.276886 -0.653450 -3.720093
C -2.076297 0.153343 -3.517027
C -1.774341 0.681608 -2.964051
C -1.536870 1.296530 -2.161102
C -1.426515 1.825194 -1.307650
C -1.257694 2.207881 -0.520650
C -1.088533 2.365913 0.121991
C -0.991473 2.359752 0.372443
C -1.009686 2.187148 0.628790
C -1.091626 2.234433 0.731801
C -1.452744 2.061149 0.696847
C -1.706716 1.754688 0.591966
C -2.022500 1.557123 0.569991
C -2.206890 1.348486 0.563072
C -2.340826 1.221143 0.635992
C -2.472517 0.991861 0.547461
C -2.701452 0.678398 0.413838
C -2.813865 0.539278 0.346657
C -3.038709 0.378736 0.303087
C -3.121938 0.158629 0.317571
C -3.160136 0.078868 0.472511
C -3.065857 0.020708 0.642584
C -2.976870 0.088766 0.849398
C -2.807428 0.289640 1.042589
C -2.507435 0.430345 1.300313
C -2.103113 0.660686 1.656144
C -1.764277 0.702137 1.801030
C -1.568034 0.614881 1.792933
C -1.556376 0.394791 1.739063
C -1.586786 0.123358 1.659176
C -1.660784 -0.246848 1.591504
C -1.694508 -0.402929 1.687613
C -1.561171 -0.484579 1.756699
C -1.516831 -0.596753 1.935380
C -1.536934 -0.727464 2.103214
C -1.387826 -0.767937 2.229401
C -1.106549 -0.644967 2.425616
C -0.783907 -0.336540 2.554358
C -0.512251 -0.221586 2.422605
C -0.191431 0.002716 2.262438
C 0.195369 0.356797 2.144218
C 0.794971 0.747019 2.049049
C 1.334496 1.173048 1.959074
C 1.689850 1.377741 1.909746
C 1.888510 1.416785 1.928190
C 2.013896 1.386535 2.044427
C 1.973589 1.180217 2.078776
C 1.931044 0.939102 2.113048
C 1.836152 0.764067 2.168486
C 1.592994 0.513386 2.283317
C 1.409060 0.308947 2.319837
C 1.292033 0.020569 2.277271
C 1.238134 -0.186606 2.167774
C 0.917979 -0.420619 2.039121
C 0.662465 -0.652514 1.839485
C 0.370440 -0.882279 1.694994
C 0.384858 -0.961211 1.530512
C 0.524912 -0.937346 1.362125
C 0.859603 -0.814326 1.239035
C 1.108972 -0.768974 1.110889
C 1.770210 -0.709781 0.964192
C 2.325933 -0.645906 0.943227
C 2.856221 -0.679538 0.827015
C 3.130714 -0.764242 0.801584
C 3.279386 -0.955188 0.841017
C 3.138259 -1.206913 0.881590
C 3.113966 -1.441394 0.941871
C 2.911571 -1.760812 1.089447
C 2.792596 -1.896532 1.158759
C 2.686999 -1.960888 1.311916
C 2.641734 -2.114090 1.373384
