342
chr6 3D structure from Hi-C (resolution 500000bp)
C -0.795890 -2.563368 3.220762
C -0.779912 -2.654409 3.084776
C -0.776805 -2.648970 3.050861
C -0.795836 -2.585103 3.071467
C -0.872789 -2.746101 2.814105
C -0.972151 -2.747372 2.688371
C -1.031164 -2.683555 2.677003
C -1.045222 -2.603576 2.691986
C -1.058019 -2.508882 2.672873
C -1.126008 -2.506626 2.632034
C -1.154534 -2.422715 2.628265
C -1.118080 -2.307097 2.610286
C -1.047041 -2.313594 2.517631
C -1.032895 -2.353779 2.248680
C -0.997868 -2.578322 1.758078
C -1.026485 -2.767991 1.403840
C -0.959139 -2.909543 1.047692
C -0.925779 -3.137104 0.632610
C -0.959326 -3.158703 0.485927
C -1.013925 -2.960867 0.571598
C -1.099241 -2.824619 0.980344
C -1.224006 -2.583251 1.418203
C -1.315389 -2.445916 1.685688
C -1.466947 -2.182039 1.983112
C -1.570267 -1.941778 2.367551
C -1.670950 -1.864748 2.527795
C -1.692263 -1.871899 2.650319
C -1.702702 -1.768504 2.635007
C -1.751825 -1.713942 2.632598
C -1.803371 -1.551913 2.682367
C -1.751153 -1.555660 2.588951
C -1.730467 -1.746847 2.247809
C -1.698946 -1.889834 2.013758
C -1.702146 -2.034388 1.638169
C -1.708370 -2.279697 1.117869
C -1.666328 -2.564609 0.613952
C -1.618086 -2.810882 0.200334
C -1.695930 -2.876007 0.042505
C -1.877780 -2.818087 0.138256
C -1.953605 -2.774690 0.161028
C -2.118154 -2.807991 0.179179
C -2.198551 -2.786816 0.317787
C -2.273879 -2.719474 0.434777
C -2.362241 -2.709204 0.455644
C -2.338169 -2.861420 0.337102
C -2.264361 -2.866557 0.185547
C -2.264771 -2.685357 0.291306
C -2.136018 -2.401224 0.527690
C -2.176740 -2.219336 0.725290
C -2.162861 -1.888595 1.265009
C -2.341758 -1.825539 1.722193
C -2.559590 -1.616997 2.081060
C -2.702306 -1.461902 2.460935
C -2.815765 -1.475046 2.556459
C -2.448431 -2.233957 2.255486
C -1.834094 -2.886314 1.940114
C -1.270461 -3.646409 1.331614
C -0.505041 -4.078829 0.731355
C 0.223277 -4.631290 0.147764
C 0.263633 -3.636863 -0.057928
C 0.345022 -2.643072 -0.137490
C -0.007967 -0.966442 0.227297
C -0.403940 0.624268 0.810301
C -0.890560 1.989924 1.581714
C -1.560364 2.852513 2.385971
C -2.234610 3.716498 3.212867
C -2.189981 3.038193 3.536766
C -2.162294 2.352849 3.847232
C -2.272265 1.639577 3.988059
C -2.466805 1.004102 3.932929
C -2.578937 0.553813 3.791434
C -2.496028 0.573688 3.752330
C -2.415742 0.615625 3.655045
C -2.430720 0.608266 3.474508
C -2.487095 0.555194 3.248546
C -2.613368 0.458956 2.976474
C -2.722427 0.338234 2.758027
C -2.810698 0.189349 2.425196
C -2.963275 0.059847 2.123145
C -3.019799 -0.045863 1.996679
C -3.079434 -0.113925 2.008182
C -3.141318 -0.088632 2.051256
C -3.147899 0.019299 2.188154
C -3.172392 0.139406 2.309857
C -3.163947 0.239840 2.465745
C -3.155367 0.336062 2.526007
C -3.257019 0.303417 2.349083
C -3.317744 0.187243 2.076880
C -3.335756 0.021983 1.791783
C -3.279675 -0.185045 1.426649
C -3.200596 -0.411327 1.001852
C -3.123511 -0.554668 0.591889
C -3.096846 -0.731762 0.218285
C -2.991760 -0.972762 -0.146978
C -2.862454 -1.210029 -0.488507
C -2.797270 -1.393837 -0.827406
C -2.745638 -1.536487 -1.077314
C -2.690653 -1.661127 -1.316618
C -2.800589 -1.742649 -1.511922
C -2.817997 -1.772971 -1.580193
C -2.872822 -1.652334 -1.515304
C -2.881657 -1.430873 -1.201727
C -2.948519 -1.252055 -0.983729
C -2.965237 -1.038084 -0.726721
C -3.001859 -0.872861 -0.553831
C -2.976027 -0.792383 -0.597623
C -2.955203 -0.782939 -0.683874
C -2.912423 -0.811371 -0.837293
C -2.909651 -0.904010 -1.190896
C -2.867124 -0.923828 -1.418010
C -2.867007 -0.840306 -1.440213
C -2.930649 -0.713050 -1.380641
C -3.040606 -0.657079 -1.442103
C -3.058542 -0.707572 -1.664080
C -3.311668 0.121115 -1.379596
C -2.784192 -0.455904 -1.534387
C -2.214824 -1.114276 -1.768390
C -1.915965 -1.669281 -2.379140
C -1.579126 -2.028278 -2.907566
C -1.197602 -2.341317 -3.151370
C -0.874121 -2.381827 -3.206547
C -0.362029 -3.237334 -3.610901
C -0.661987 -2.675297 -3.603426
C -1.008450 -2.010412 -3.434997
C -1.229135 -1.463979 -3.057533
C -1.277321 -1.286312 -2.903196
C -1.293465 -1.047748 -2.795444
C -1.267534 -0.925079 -2.783169
C -1.290976 -0.822982 -2.937488
C -1.312552 -0.704901 -3.036112
C -1.218073 -0.733926 -3.258322
C -1.005783 -0.866675 -3.602036
C -0.958951 -0.772676 -3.739916
C -1.094184 -0.597396 -3.737507
C -1.147439 -0.476486 -3.732708
C -1.160531 -0.374689 -3.622719
C -1.218607 -0.198228 -3.213031
C -1.387252 -0.002018 -2.861309
C -1.498377 0.135454 -2.514400
C -1.560262 0.196868 -2.322668
C -1.397690 0.170997 -2.238473
C -1.456087 0.260366 -2.162951
C -1.509845 0.442454 -1.764857
C -1.532899 0.547132 -1.714631
C -1.551585 0.658094 -1.676329
C -1.613920 0.777692 -1.869323
C -1.745392 0.941732 -1.843585
C -1.867739 1.164414 -1.654010
C -1.867641 1.266190 -1.377727
C -1.764701 1.190327 -1.784470
C -1.624561 1.048114 -2.210433
C -1.516848 0.975265 -2.523953
C -1.489210 0.980750 -2.553258
C -1.296781 0.944623 -2.784318
C -1.210141 0.868335 -2.973643
C -1.270488 1.035660 -3.027080
C -1.299230 1.126529 -2.847099
C -1.388995 1.282050 -2.629540
C -1.421563 1.435302 -2.644641
C -1.372908 1.459551 -2.736072
C -1.488914 1.596276 -2.518581
C -1.512369 1.764026 -2.408973
C -1.429875 1.724106 -2.514700
C -1.456104 1.844512 -2.369752
C -1.413726 1.909062 -2.343607
C -1.394058 1.930873 -2.133407
C -1.349975 2.008539 -1.941526
C -1.271078 2.095103 -1.842433
C -1.221327 2.114579 -1.739669
C -1.073196 1.969555 -1.879054
C -0.977243 1.931993 -2.065868
C -0.978834 1.998560 -1.844693
C -1.018766 2.077491 -1.479872
C -1.102095 2.216780 -1.144177
C -1.189070 2.300529 -0.833763
C -1.218399 2.280089 -0.553079
C -1.322887 2.460170 -0.062499
C -1.347715 2.477625 0.240675
C -1.219295 2.390741 0.076842
C -1.021607 2.384289 -0.225980
C -0.830916 2.388672 -0.439603
C -0.597343 2.329093 -0.898418
C -0.405454 2.316398 -1.426771
C -0.185230 2.371938 -1.839431
C 0.037773 2.366893 -2.235658
C 0.187089 2.389193 -2.474087
C 0.362599 2.354129 -2.717933
C 0.490429 2.267483 -2.933408
C 0.585505 2.238087 -2.894668
C 0.687314 2.254033 -2.863183
C 0.653469 2.198909 -2.641561
C 0.618414 2.265005 -2.449701
C 0.635076 2.202089 -2.440946
C 0.654093 2.053615 -2.414219
C 0.710166 1.874573 -2.298434
C 0.726067 1.698703 -2.134672
C 0.727415 1.630423 -2.020176
C 0.850528 1.571832 -2.215563
C 0.870575 1.537987 -2.127533
C 0.941198 1.513304 -2.128690
C 0.988221 1.449338 -2.169820
C 1.081870 1.468079 -2.327621
C 1.200054 1.375636 -2.596278
C 1.331761 1.211570 -2.815024
C 1.457605 1.018278 -2.908049
C 1.579934 0.773402 -3.158526
C 1.527861 0.710828 -2.920704
C 1.370142 0.814194 -2.445278
C 1.126785 0.941574 -1.828646
C 0.866157 1.213843 -1.138633
C 0.562973 1.389641 -0.424942
C 0.239554 1.595566 0.203952
C -0.022895 1.776983 0.869065
C -0.216386 1.903644 1.326084
C -0.287112 1.972106 1.610385
C -0.349875 1.988713 1.720842
C -0.354283 1.933616 1.675979
C -0.279590 1.964954 1.652483
C -0.227935 1.977926 1.719006
C -0.129832 2.095395 1.675738
C -0.029657 2.133094 1.538502
C 0.126838 2.206485 1.201390
C 0.404178 2.354890 0.775901
C 0.613964 2.463264 0.492662
C 0.716274 2.577142 0.368184
C 0.992110 2.604670 -0.129829
C 1.207708 2.676752 -0.476799
C 1.465602 2.793966 -0.807263
C 1.588746 2.808410 -0.930673
C 1.506749 2.673637 -0.680217
C 1.536795 2.669525 -0.601637
C 1.697314 2.576313 -0.860838
C 1.651707 2.549028 -0.720795
C 1.709068 2.326250 -0.800904
C 1.602923 2.219386 -0.541977
C 1.556744 2.136830 -0.385620
C 1.791183 2.051119 -0.627567
C 2.015729 1.864427 -0.925802
C 2.171120 1.798672 -1.025565
C 2.294125 1.801570 -1.083660
C 2.369307 1.785376 -1.140034
C 2.549385 1.633851 -1.424202
C 2.708347 1.382540 -1.653409
C 2.781053 1.241143 -1.794327
C 2.770246 1.114005 -1.735602
C 2.779723 0.913258 -1.761254
C 2.840897 0.600400 -1.872333
C 2.835768 0.488857 -1.780939
C 2.718648 0.508590 -1.529364
C 2.671654 0.560952 -1.413337
C 2.684862 0.468130 -1.371131
C 2.659589 0.435266 -1.251354
C 2.754183 0.180520 -1.329877
C 2.691487 -0.475705 -1.543495
C 2.695446 -0.635824 -1.607184
C 2.800336 -0.853067 -1.863167
C 2.728068 -0.720724 -1.598587
C 2.602145 -0.419540 -1.233940
C 2.557655 -0.220829 -1.011823
C 2.321992 0.012285 -0.634064
C 2.336271 0.815609 -0.200493
C 2.270109 1.025457 0.001621
C 2.218940 1.221139 0.283447
C 2.458341 1.116413 0.057619
C 2.541278 0.968733 -0.054266
C 2.451088 0.968188 0.089433
C 2.424775 1.187161 0.318636
C 2.255828 1.292095 0.703214
C 2.254275 1.428652 0.985396
C 2.215609 1.492671 1.226511
C 1.915767 1.561996 1.637796
C 1.692261 1.622649 2.033122
C 1.622498 1.555057 2.194413
C 1.597838 1.456767 2.264804
C 1.608363 1.396162 2.219898
C 1.613247 1.364742 2.225636
C 1.734329 1.439601 2.109217
C 2.026977 1.534624 1.850806
C 2.273368 1.699264 1.547636
C 2.604467 1.796030 1.272564
C 2.884314 1.839822 0.905428
C 3.159643 1.819687 0.612600
C 3.170145 1.767712 0.563423
C 3.151684 1.695007 0.572757
C 3.013490 1.536726 0.705650
C 2.882897 1.285472 0.930386
C 2.764341 1.165536 1.012241
C 2.704848 1.103466 1.219683
C 2.634077 1.062860 1.361726
C 2.845038 0.916598 1.099299
C 2.995861 0.746322 0.897753
C 3.119310 0.658837 0.749037
C 3.300900 0.455204 0.403126
C 3.322346 0.266436 0.260284
C 3.241884 0.159195 0.397119
C 3.057022 0.122045 0.686623
C 2.725260 0.131326 1.182353
C 2.501413 0.063046 1.553263
C 2.295155 0.036204 1.856825
C 2.129595 0.086087 2.110060
C 2.135209 0.044942 2.085472
C 2.179519 0.000008 1.932826
C 2.473071 -0.076371 1.553399
C 2.776213 -0.174143 1.151740
C 2.970559 -0.241454 0.798891
C 3.098276 -0.297449 0.619350
C 3.138732 -0.289318 0.667712
C 3.028035 -0.261622 0.995689
C 3.071921 -0.292192 1.098855
C 2.989273 -0.378772 1.306364
C 2.798071 -0.300111 1.680770
C 2.600096 -0.195864 2.096266
C 2.506481 -0.186096 2.359547
C 2.408066 -0.197744 2.578513
C 2.334177 -0.151759 2.708859
C 2.221784 -0.196125 2.837095
C 2.132282 -0.198881 2.884415
C 2.216473 -0.414898 2.698745
C 2.368326 -0.590290 2.501457
C 2.520433 -0.725475 2.205316
C 2.802456 -0.888815 1.748992
C 3.072464 -1.139149 1.236122
C 3.261190 -1.262484 0.805678
C 3.366315 -1.379011 0.539652
C 3.408139 -1.395936 0.408772
C 3.496106 -1.438327 0.130118
C 3.628719 -1.518660 -0.116402
C 3.602864 -1.614534 -0.288272
C 3.579852 -1.566967 -0.300361
C 3.447123 -1.531908 -0.019689
C 3.393686 -1.499768 0.219869
C 3.298105 -1.498665 0.412369
C 3.133579 -1.572877 0.691610
C 3.056482 -1.640791 0.865700
C 3.111833 -1.752968 0.982423
C 3.105973 -1.921781 0.980334
C 3.168648 -2.124090 0.855735
C 3.265922 -2.429725 0.730909
C 3.377369 -2.750443 0.775082
C 3.495812 -2.885273 0.662461
C 3.490787 -3.026769 0.684242
C 3.381658 -3.091924 0.906852
