342
chr6 3D structure from Hi-C (resolution 500000bp)
C 0.469234 2.032027 -2.929937
C 0.432800 1.943620 -2.928808
C 0.432171 2.016834 -2.878131
C 0.468540 2.063336 -2.823204
C 0.499545 1.881498 -2.856471
C 0.505747 1.902210 -2.802173
C 0.554225 1.943812 -2.705522
C 0.569792 1.960421 -2.653316
C 0.582127 2.000338 -2.572232
C 0.591653 1.911531 -2.559957
C 0.542834 1.927501 -2.460917
C 0.519146 1.942490 -2.343848
C 0.559249 1.829236 -2.273621
C 0.523704 1.565818 -2.276674
C 0.573788 1.201024 -2.339148
C 0.635004 0.806755 -2.424498
C 0.747777 0.463663 -2.487267
C 0.826594 0.072937 -2.607091
C 0.901365 -0.093483 -2.631306
C 0.911557 0.022731 -2.569317
C 1.028011 0.375304 -2.553624
C 1.035122 0.831661 -2.424808
C 1.110339 1.198657 -2.323767
C 1.133694 1.585948 -2.171638
C 1.185734 1.998048 -2.057593
C 1.270359 2.157387 -2.039574
C 1.296469 2.230253 -2.047170
C 1.272028 2.238541 -1.951522
C 1.309861 2.223891 -1.895002
C 1.319194 2.266283 -1.794592
C 1.315053 2.154157 -1.814533
C 1.335738 1.814879 -1.904340
C 1.314519 1.605651 -1.932910
C 1.337112 1.316630 -1.951871
C 1.381565 0.847200 -2.066788
C 1.435976 0.331393 -2.255621
C 1.496218 -0.070259 -2.398091
C 1.523383 -0.210381 -2.380607
C 1.617908 -0.091588 -2.384768
C 1.702729 -0.050605 -2.378905
C 1.821172 -0.040626 -2.464638
C 1.875468 0.153464 -2.489916
C 1.891294 0.284007 -2.467144
C 1.915820 0.326205 -2.508280
C 1.979217 0.211548 -2.598779
C 1.947859 0.088073 -2.532647
C 1.894076 0.223606 -2.388623
C 1.778552 0.460152 -2.164092
C 1.776088 0.649610 -2.017270
C 1.687638 1.161215 -1.786493
C 1.876560 1.674432 -1.538228
C 1.991946 2.027381 -1.421613
C 2.041480 2.411497 -1.309888
C 2.107141 2.549260 -1.304220
C 1.749649 2.230976 -1.902346
C 1.249419 1.844431 -2.411506
C 1.294780 1.978183 -1.803845
C 0.972240 2.086693 -1.068608
C 0.476866 1.457975 -1.514408
C 0.547513 1.408105 -0.725970
C 0.021482 0.702813 -1.235123
C -0.063873 0.455225 -1.175939
C -0.026547 1.182901 -0.826573
C -0.511290 0.889019 -1.916384
C -0.447128 0.911330 -2.558354
C -0.182375 1.815335 -1.926982
C -0.353622 1.986177 -2.554460
C 0.048595 2.857451 -1.982381
C 0.486419 3.657454 -1.334416
C 0.867816 3.551096 -0.965159
C 1.311128 3.766231 -0.385324
C 1.340486 3.680722 -0.359798
C 1.435525 3.556847 -0.293587
C 1.524467 3.397393 -0.261089
C 1.634226 3.206054 -0.194082
C 1.767840 2.984601 -0.219577
C 1.940178 2.755194 -0.276556
C 2.139365 2.440058 -0.303937
C 2.238410 2.215247 -0.392552
C 2.309035 2.092538 -0.432229
C 2.319106 2.124169 -0.467374
C 2.349992 2.181941 -0.425630
C 2.338196 2.353349 -0.323702
C 2.300406 2.509342 -0.184317
C 2.329317 2.646266 -0.112841
C 2.351894 2.695162 -0.002743
C 2.423126 2.540364 -0.017623
C 2.576151 2.232252 -0.078402
C 2.669340 1.972391 -0.159059
C 2.736106 1.565230 -0.322776
C 2.794009 1.116019 -0.523237
C 2.718461 0.756886 -0.642330
C 2.745956 0.435989 -0.706371
C 2.707005 0.087601 -0.861080
C 2.639101 -0.225724 -0.966540
C 2.622948 -0.566507 -1.053117
C 2.593887 -0.794907 -1.124332
C 2.664787 -0.902040 -1.110265
C 2.806002 -1.046363 -1.110878
C 2.811580 -1.156843 -1.183006
C 2.844657 -1.040257 -1.078248
C 2.795904 -0.761889 -0.953366
C 2.756434 -0.554583 -0.894471
C 2.756735 -0.310703 -0.725967
C 2.647218 -0.249470 -0.717725
C 2.611881 -0.271749 -0.669493
C 2.525881 -0.377616 -0.684573
C 2.437292 -0.574919 -0.750906
C 2.495870 -0.885013 -0.792223
C 2.483387 -1.069427 -0.762997
C 2.449349 -1.064652 -0.727938
C 2.500934 -0.973480 -0.585007
C 2.490654 -1.114734 -0.711259
C 2.511554 -1.314211 -0.834589
C 2.115645 -1.537968 -1.271368
C 1.589615 -1.809209 -1.748931
C 1.145383 -2.217406 -2.206943
C 0.979464 -2.863825 -2.550973
C 0.799149 -3.375232 -2.776909
C 0.632160 -3.604862 -2.784575
C 0.492650 -3.610779 -2.638831
C 0.821618 -3.484964 -2.103449
C 1.206585 -3.363618 -1.560698
C 1.521589 -3.039511 -1.058414
C 1.568495 -2.626012 -0.710124
C 1.518610 -2.482578 -0.537509
C 1.450553 -2.379088 -0.333696
C 1.431413 -2.353531 -0.224207
C 1.350160 -2.474636 -0.222924
C 1.250400 -2.561455 -0.182424
C 1.226485 -2.770966 -0.149838
C 1.211176 -3.066450 -0.109282
C 1.296179 -3.162459 -0.035973
C 1.481799 -3.080039 0.055608
C 1.548174 -3.042398 0.132806
C 1.574986 -2.905041 0.248026
C 1.654579 -2.451334 0.385731
C 1.704373 -2.083105 0.521628
C 1.790663 -1.719074 0.598073
C 1.808549 -1.509536 0.681578
C 1.702156 -1.464922 0.718148
C 1.768019 -1.330575 0.840776
C 1.801485 -0.986032 0.968269
C 1.778964 -0.953332 0.996766
C 1.813693 -0.870321 1.058226
C 1.886944 -1.042051 1.157849
C 1.938171 -1.035291 1.213007
C 1.975914 -0.827435 1.291904
C 1.920840 -0.668487 1.303151
C 1.920756 -1.000534 1.304857
C 1.907973 -1.398295 1.305738
C 1.824604 -1.758192 1.270766
C 1.749124 -1.857175 1.253194
C 1.693255 -2.006628 1.280926
C 1.689167 -2.122673 1.371164
C 1.749553 -2.087136 1.525655
C 1.759033 -1.948106 1.576556
C 1.762636 -1.758514 1.630261
C 1.757457 -1.808949 1.683354
C 1.721940 -1.831251 1.754308
C 1.682043 -1.705815 1.850324
C 1.641613 -1.591340 1.878395
C 1.581891 -1.718634 1.838780
C 1.577987 -1.510534 1.892777
C 1.565504 -1.407128 1.940405
C 1.638832 -1.088448 2.036563
C 1.610008 -0.895052 2.106223
C 1.580727 -0.786597 2.092794
C 1.523072 -0.777189 2.086611
C 1.401390 -0.895783 2.043467
C 1.301496 -1.147334 2.065790
C 1.248807 -0.992786 2.091399
C 1.189708 -0.712743 2.093259
C 1.170810 -0.402718 2.119262
C 1.147160 -0.071633 2.182781
C 1.116545 0.192380 2.122835
C 1.109358 0.604264 2.121340
C 1.070045 0.880772 2.073477
C 0.993603 0.736398 2.094378
C 0.882816 0.464403 2.146877
C 0.780898 0.215217 2.156973
C 0.667395 -0.307715 2.142663
C 0.575432 -0.780912 2.280897
C 0.475040 -1.163453 2.401420
C 0.371868 -1.498449 2.507188
C 0.264348 -1.732855 2.523201
C 0.158084 -2.001237 2.457329
C 0.036401 -2.142824 2.510370
C -0.040938 -2.052783 2.526846
C -0.133072 -1.956852 2.559321
C -0.148851 -1.752540 2.520836
C -0.160234 -1.577111 2.513783
C -0.181373 -1.549326 2.463989
C -0.231336 -1.522008 2.427534
C -0.238913 -1.414558 2.335194
C -0.265594 -1.278817 2.210132
C -0.282075 -1.278984 2.056899
C -0.357838 -1.422316 2.037066
C -0.353476 -1.333012 1.990149
C -0.391276 -1.380149 1.907140
C -0.419191 -1.446055 1.808471
C -0.491123 -1.715137 1.602469
C -0.580831 -2.024683 1.618603
C -0.677355 -2.220716 1.554437
C -0.754934 -2.399071 1.444346
C -0.852743 -2.725488 1.264182
C -0.831219 -2.483698 1.346038
C -0.762184 -2.050510 1.411289
C -0.653370 -1.427498 1.565321
C -0.533672 -0.744771 1.585568
C -0.382259 -0.095860 1.617062
C -0.249773 0.558752 1.628394
C -0.134259 1.167905 1.677993
C -0.050641 1.555278 1.627758
C -0.028409 1.836702 1.596474
C -0.019417 1.926015 1.493532
C -0.006091 1.852282 1.458617
C -0.012295 1.809345 1.498692
C -0.043952 1.809706 1.495750
C -0.093728 1.798331 1.518057
C -0.159175 1.673656 1.508911
C -0.274406 1.204125 1.428778
C -0.468631 0.571961 1.344070
C -0.563937 0.383257 1.500192
C -0.647657 0.263098 1.550186
C -0.821395 -0.258388 1.607776
C -0.959185 -0.808339 1.456519
C -1.110052 -1.353856 1.300169
C -1.189661 -1.483669 1.238769
C -1.116459 -1.023680 1.427920
C -1.189906 -1.067808 1.379688
C -1.324505 -1.402753 1.230695
C -1.287883 -1.308136 1.145366
C -1.332292 -1.157364 1.365238
C -1.283285 -0.708941 1.579511
C -1.255664 -0.379113 1.853896
C -1.362712 -0.648181 1.894066
C -1.484428 -0.981456 1.680827
C -1.570975 -1.084102 1.590916
C -1.647108 -1.085237 1.679051
C -1.726850 -1.194270 1.628527
C -1.863049 -1.455855 1.580900
C -1.980819 -1.718233 1.448250
C -2.104828 -1.855411 1.273521
C -2.149625 -1.717564 1.270993
C -2.174431 -1.656215 1.347644
C -2.275390 -1.738995 1.298564
C -2.308552 -1.573748 1.275777
C -2.252046 -1.350456 1.263914
C -2.228622 -1.219179 1.227897
C -2.231864 -1.073343 1.360941
C -2.200952 -0.889841 1.503770
C -2.344056 -0.664720 1.786297
C -2.266319 -0.967373 1.069296
C -2.262766 -0.953485 1.122147
C -2.349614 -1.051358 1.206178
C -2.285561 -0.833764 1.271057
C -2.154913 -0.577584 1.168661
C -2.093971 -0.385450 1.125540
C -1.884396 -0.243118 0.964603
C -1.877680 0.325117 1.721946
C -1.818847 0.478198 1.748117
C -1.745399 0.662483 1.651342
C -1.850147 0.321890 1.400205
C -1.963408 0.218506 1.436948
C -1.978926 0.240708 1.400117
C -1.962505 0.361532 1.357905
C -1.874503 0.626436 1.262094
C -1.882094 0.751651 1.208366
C -1.899366 0.834217 1.211161
C -1.786025 1.305301 1.390889
C -1.669037 1.623297 1.303115
C -1.625535 1.797099 1.245035
C -1.625270 1.818470 1.123948
C -1.705161 1.747674 1.084752
C -1.761931 1.755568 1.009161
C -1.889969 1.687724 1.015706
C -2.173739 1.409689 1.006766
C -2.418629 1.101166 1.084951
C -2.662602 0.718808 1.141178
C -2.895424 0.387038 1.182072
C -3.020651 0.020833 1.139398
C -3.034361 -0.045360 1.129076
C -2.990104 -0.077327 1.034764
C -2.825854 0.034106 0.976592
C -2.644132 0.250734 0.840451
C -2.546037 0.419245 0.725584
C -2.491490 0.506880 0.659572
C -2.463386 0.693850 0.681665
C -2.501539 0.373649 0.551583
C -2.552475 0.072137 0.432726
C -2.639480 -0.063631 0.367815
C -2.771489 -0.392607 0.278790
C -2.766470 -0.553564 0.182423
C -2.679400 -0.352060 0.105254
C -2.599595 -0.068951 0.052592
C -2.437780 0.440559 0.049878
C -2.343051 0.864101 -0.003601
C -2.193445 1.130280 -0.070861
C -2.078621 1.366045 -0.076818
C -2.118615 1.418056 -0.088151
C -2.137894 1.217217 -0.157497
C -2.287992 0.823540 -0.244081
C -2.474597 0.387373 -0.285015
C -2.585751 0.016775 -0.298976
C -2.683970 -0.165655 -0.305322
C -2.728068 -0.114988 -0.335559
C -2.675998 0.103952 -0.298127
C -2.777676 0.238669 -0.283860
C -2.767291 0.436407 -0.334720
C -2.660811 0.863540 -0.321323
C -2.594513 1.324342 -0.295813
C -2.508584 1.639263 -0.319241
C -2.445761 1.805782 -0.321630
C -2.394349 1.977729 -0.349189
C -2.274418 2.085000 -0.393899
C -2.174244 2.170334 -0.421402
C -2.256714 2.011552 -0.550085
C -2.330550 1.783947 -0.680019
C -2.452803 1.499205 -0.762484
C -2.615055 1.061670 -0.835013
C -2.753622 0.485478 -0.967120
C -2.858114 0.110769 -1.013037
C -2.994948 -0.120537 -1.031504
C -3.003155 -0.255129 -1.022411
C -3.033362 -0.471271 -1.012855
C -3.104743 -0.759808 -1.055863
C -3.078200 -0.880560 -1.131167
C -3.041744 -0.844849 -1.149157
C -2.977117 -0.639298 -1.180945
C -2.837346 -0.473436 -1.244040
C -2.767325 -0.299555 -1.292632
C -2.706825 -0.046704 -1.360874
C -2.658385 0.081871 -1.440786
C -2.680844 0.107059 -1.567282
C -2.649743 0.078724 -1.700338
C -2.695569 0.005478 -1.849844
C -2.819479 -0.185515 -2.054968
C -2.986128 -0.300689 -2.299861
C -3.022944 -0.482699 -2.419692
C -3.044583 -0.464447 -2.518158
C -3.033368 -0.277144 -2.579268
