267
chr12 3D structure from Hi-C (resolution 500000bp)
C -3.594680 0.733479 -2.761684
C -3.516836 0.999543 -2.553827
C -3.504253 1.129876 -2.468360
C -3.490689 1.262444 -2.369191
C -3.378844 1.393901 -2.335369
C -3.272456 1.451828 -2.282481
C -3.189926 1.555683 -2.213679
C -3.109930 1.766470 -2.061954
C -3.012118 1.821711 -1.995540
C -2.927031 1.735581 -2.099038
C -2.855132 1.434165 -2.354558
C -2.722459 1.358883 -2.413564
C -2.631997 1.535244 -2.363194
C -2.556975 1.514456 -2.553682
C -2.410691 1.364924 -2.704937
C -2.342195 1.267027 -2.972924
C -2.181572 1.299847 -3.138506
C -1.998352 1.640108 -3.047460
C -1.855001 1.754564 -3.188487
C -1.940150 2.176228 -3.184221
C -1.806143 2.168870 -3.097589
C -1.717146 2.110947 -3.216915
C -1.581426 2.053349 -3.208164
C -1.486115 2.195299 -2.878330
C -1.359330 2.278366 -2.677450
C -1.307408 2.377521 -2.453633
C -0.988931 2.029596 -2.470526
C -0.786485 2.323850 -2.335700
C -0.600384 2.588142 -2.130214
C -0.382982 2.927099 -1.809520
C -0.211259 3.110516 -1.810749
C 0.021399 3.325412 -1.727691
C 0.282250 3.564483 -1.514295
C 0.487460 3.803774 -1.349401
C 0.661587 3.926363 -1.235153
C 0.758889 4.016003 -1.144524
C 0.808751 3.975574 -1.271603
C 0.918285 4.001498 -1.228520
C 0.985385 3.942688 -1.295829
C 1.063103 3.823480 -1.409504
C 1.175866 3.677165 -1.448347
C 1.279195 3.534341 -1.607438
C 1.344248 3.459874 -1.727834
C 1.440228 3.445285 -1.798423
C 1.513641 3.284869 -1.946001
C 1.495817 3.057386 -2.141722
C 1.401317 2.809089 -2.408180
C 1.231871 2.561438 -2.679617
C 1.066370 2.423491 -2.768898
C 0.934581 2.151629 -2.950820
C 0.740541 1.746218 -3.190324
C 0.591573 1.431128 -3.399239
C 0.532047 1.294251 -3.427125
C 0.671125 1.350207 -3.378690
C 0.880060 1.536595 -3.182785
C 0.941936 1.548980 -3.040397
C 1.005976 1.849515 -2.653301
C 1.117402 2.257224 -2.155545
C 1.164019 2.518736 -1.863437
C 1.307996 2.522389 -2.016911
C 1.156140 2.308504 -2.093704
C 0.935753 2.159016 -2.102797
C 0.862010 2.205324 -1.933330
C 0.990643 2.297146 -1.792959
C 1.169801 2.348229 -1.743224
C 1.241376 2.577795 -1.438453
C 1.073887 3.230065 -0.689947
C 0.380460 3.952830 0.237373
C -0.279472 4.510286 1.068243
C -0.844545 4.944354 1.775681
C -1.390445 5.250490 2.402369
C -1.472960 5.455117 2.776661
C -1.281596 5.477654 2.896284
C -1.083902 5.025058 2.815974
C -0.276290 4.440469 2.341520
C 0.602188 3.907124 1.782012
C 1.354903 3.333540 1.072274
C 1.949501 2.635477 0.224381
C 2.118736 2.138297 -0.267114
C 2.188497 1.807318 -0.532757
C 2.355183 1.589094 -0.774283
C 2.454841 1.313100 -1.041471
C 2.574926 1.215480 -1.163749
C 2.707917 1.099315 -1.316534
C 2.813233 0.999279 -1.364612
C 2.789679 0.810420 -1.481605
C 2.800195 0.666854 -1.558403
C 2.580919 0.504584 -1.616181
C 2.457929 0.449216 -1.601077
C 2.227817 0.176995 -1.751000
C 2.020404 0.040076 -1.742974
C 1.807093 -0.040319 -1.757681
C 1.472161 -0.193635 -1.838684
C 1.013821 -0.445151 -1.984115
C 0.714409 -0.656777 -2.151646
C 0.401847 -0.849794 -2.277198
C 0.070652 -1.028230 -2.383748
C -0.269289 -1.285192 -2.630184
C -0.567738 -1.562726 -2.846019
C -0.748255 -1.706891 -2.930896
C -0.887793 -1.719180 -2.964472
C -0.991602 -1.778302 -2.946404
C -1.067173 -1.683965 -2.836998
C -1.104829 -1.682282 -2.784435
C -1.086011 -1.647822 -2.604953
C -1.035980 -1.583328 -2.462711
C -0.780917 -1.501566 -2.313474
C -0.392320 -1.543902 -2.275040
C -0.175375 -1.515534 -2.201022
C -0.001606 -1.665333 -2.283834
C 0.183976 -1.670671 -2.218819
C 0.284208 -1.727296 -2.213393
C 0.472068 -1.742575 -2.208739
C 0.791309 -1.568057 -2.020988
C 0.973976 -1.270062 -1.694818
C 1.398149 -0.929603 -1.378463
C 1.892217 -0.536484 -0.965173
C 2.409757 -0.072472 -0.538228
C 2.901626 0.451491 -0.063940
C 3.229953 1.001624 0.485422
C 3.181306 1.233032 0.752023
C 3.092102 1.116237 0.711381
C 2.816880 0.990865 0.708730
C 2.679755 1.032439 0.797313
C 2.643334 0.685593 0.620955
C 2.368760 0.377048 0.420288
C 2.152458 -0.145348 0.034053
C 2.082898 -0.508781 -0.236714
C 2.041337 -0.606316 -0.267939
C 2.107178 -0.833501 -0.407300
C 2.101569 -1.089252 -0.566518
C 1.942497 -1.119986 -0.576600
C 1.964255 -1.265768 -0.636734
C 1.906358 -1.299522 -0.600414
C 1.759459 -1.505860 -0.681227
C 1.731833 -1.680702 -0.719663
C 1.752757 -1.699513 -0.631906
C 1.848374 -1.726183 -0.557878
C 1.999927 -1.615424 -0.371019
C 2.201025 -1.388550 -0.108198
C 2.325671 -1.245079 0.089192
C 2.530571 -0.827142 0.476492
C 2.654484 -0.436855 0.878199
C 2.796390 -0.037410 1.262025
C 2.780790 0.306094 1.590362
C 2.736400 0.455786 1.777301
C 2.808710 0.420721 1.847226
C 3.010942 0.438528 1.969733
C 2.987990 0.116099 1.813254
C 2.920226 -0.286224 1.588385
C 2.830561 -0.697264 1.330890
C 2.758733 -0.893535 1.249689
C 2.728599 -1.067626 1.210805
C 2.614808 -1.128614 1.256738
C 2.610302 -1.212708 1.301959
C 2.711615 -1.181354 1.476989
C 2.630960 -1.091922 1.545359
C 2.671299 -1.064918 1.645863
C 2.682957 -1.235806 1.615959
C 2.722253 -1.221019 1.707498
C 2.738424 -1.171285 1.785772
C 2.600930 -1.130376 1.865092
C 2.403923 -1.082598 1.853434
C 2.409826 -0.860173 2.128904
C 2.314426 -0.555234 2.392105
C 2.304846 -0.303214 2.644558
C 2.164866 -0.247405 2.739387
C 2.055443 -0.267149 2.790691
C 1.984596 -0.318901 2.828257
C 2.033236 -0.267004 3.074550
C 2.082027 -0.361412 3.150888
C 2.039123 -0.410909 3.202317
C 2.006506 -0.640258 3.144047
C 1.895935 -0.793959 3.018829
C 1.818002 -0.878094 3.059882
C 1.760840 -0.873167 3.120583
C 1.648676 -1.193954 2.803780
C 1.625624 -1.435062 2.706961
C 1.676745 -1.725936 2.673570
C 1.574762 -1.860298 2.648084
C 1.613045 -2.064705 2.625999
C 1.533405 -2.429541 2.274547
C 1.443516 -2.778723 2.025136
C 1.320317 -2.881048 1.891626
C 1.094750 -3.000813 1.638180
C 0.811813 -3.217376 1.222203
C 0.605336 -3.407885 1.010790
C 0.354110 -3.492098 0.774641
C 0.194445 -3.396638 0.913656
C 0.036196 -3.282413 0.877221
C 0.020759 -3.078917 1.180759
C 0.029445 -2.863728 1.460632
C 0.033597 -2.562398 1.852620
C 0.022577 -2.294144 2.016755
C 0.039477 -2.046453 2.214252
C 0.047761 -1.797220 2.304285
C 0.074116 -1.465295 2.556373
C 0.015095 -1.367140 2.458467
C -0.073672 -1.293129 2.377751
C -0.123239 -1.490732 2.273136
C -0.199949 -1.666967 2.093640
C -0.294474 -1.779323 2.012703
C -0.414159 -1.943046 1.871899
C -0.586010 -2.250325 1.690531
C -0.755413 -2.464855 1.552001
C -0.951908 -2.827556 1.237439
C -1.083068 -2.940939 0.912664
C -1.225710 -2.933254 0.848529
C -1.391464 -2.825988 0.975623
C -1.522413 -2.807980 0.989531
C -1.595422 -2.725938 0.915483
C -1.698299 -2.455365 0.997146
C -1.796953 -2.294706 1.088669
C -1.965013 -2.054404 1.152330
C -2.082366 -2.103571 1.000564
C -2.211145 -2.136598 0.775403
C -2.402487 -2.148447 0.580843
C -2.574587 -2.270742 0.323997
C -2.743768 -2.506433 0.077450
C -2.848488 -2.439046 -0.054199
C -2.931279 -2.555018 -0.231690
C -2.954464 -2.483421 -0.256261
C -2.934870 -2.388197 -0.262537
C -2.888344 -2.257009 -0.216094
C -2.820802 -1.891315 0.102292
C -2.656662 -1.504293 0.473801
C -2.504717 -1.224198 0.894507
C -2.357183 -0.825588 1.345380
C -2.277819 -0.579031 1.808251
C -2.275404 -0.598305 1.968516
C -2.201082 -0.570726 2.094323
C -2.205634 -0.592065 2.159782
C -2.272597 -0.658221 2.116150
C -2.334110 -0.881199 1.900599
C -2.419863 -0.974904 1.870558
C -2.479137 -0.841933 1.711861
C -2.483460 -0.803500 1.586405
C -2.676778 -0.952173 1.383444
C -2.868270 -1.278311 0.981958
C -2.994065 -1.640697 0.540465
C -3.129208 -1.863103 0.181175
C -3.273975 -2.255883 -0.279089
C -3.460102 -2.666372 -0.571770
C -3.657025 -2.840666 -0.691884
C -3.719041 -2.800720 -0.606865
C -3.671044 -2.638140 -0.272898
C -3.572123 -2.535243 0.083622
C -3.328370 -2.160884 0.580197
C -3.003981 -1.640407 1.199876
C -2.677027 -1.082171 1.911790
C -2.240839 -0.664751 2.470346
C -1.818133 -0.363637 2.934414
C -1.465225 0.017466 3.342776
C -1.286887 0.470057 3.682181
C -1.297533 0.492975 3.749442
C -1.371963 0.489106 3.771018
C -1.395817 0.377073 3.681611
C -1.570413 0.372382 3.683979
C -1.740562 0.318454 3.533308
C -2.083372 0.112890 3.257365
C -2.414965 -0.132699 2.966040
C -2.808528 -0.147119 2.753130
C -3.167219 -0.264604 2.377920
C -3.594951 -0.200213 2.167654
C -3.817541 -0.324262 1.894265
C -4.117771 -0.345481 1.738383
C -4.296824 -0.266384 1.611189
