267
chr12 3D structure from Hi-C (resolution 500000bp)
C -3.539960 -0.238417 -2.567827
C -3.546444 -0.019787 -2.437759
C -3.537693 0.099538 -2.325704
C -3.538764 0.258801 -2.236998
C -3.434938 0.359394 -2.195273
C -3.392800 0.510680 -2.181553
C -3.351212 0.640760 -2.181998
C -3.315307 0.891344 -2.053802
C -3.235382 1.033895 -1.983146
C -3.151467 0.951620 -2.123965
C -3.035329 0.669112 -2.378071
C -2.920649 0.667618 -2.453054
C -2.793825 0.767137 -2.454623
C -2.739457 0.789586 -2.582173
C -2.640677 0.719515 -2.713404
C -2.598359 0.710424 -2.894437
C -2.541179 0.944181 -2.963589
C -2.453499 1.280409 -2.905276
C -2.328584 1.373890 -3.118028
C -2.478367 1.825271 -3.115343
C -2.331275 1.837623 -3.036771
C -2.220696 1.740992 -3.151267
C -2.020197 1.597668 -3.218799
C -1.864450 1.653987 -3.072218
C -1.759761 1.768265 -2.879641
C -1.643138 1.792262 -2.690825
C -1.253954 1.508367 -2.677069
C -1.106519 1.797975 -2.559938
C -0.950562 2.063002 -2.429784
C -0.827110 2.468785 -2.191093
C -0.664248 2.652051 -2.123921
C -0.394832 2.954213 -2.051375
C -0.301341 3.335689 -1.837906
C -0.148375 3.633462 -1.679861
C 0.013716 3.808766 -1.596518
C 0.086653 3.968766 -1.456086
C 0.166964 3.916166 -1.487159
C 0.256269 3.944132 -1.518167
C 0.326626 3.866975 -1.542231
C 0.500713 3.721432 -1.672287
C 0.589721 3.564763 -1.763802
C 0.581417 3.424426 -1.887834
C 0.659608 3.310631 -2.074627
C 0.820272 3.306469 -2.198561
C 0.955703 3.162292 -2.319402
C 0.980343 2.929714 -2.542962
C 0.890869 2.732488 -2.688718
C 0.743255 2.455714 -2.899720
C 0.563625 2.402531 -2.753270
C 0.543412 2.161403 -2.868012
C 0.364832 1.727947 -3.017744
C 0.195760 1.368053 -3.145663
C 0.151788 1.238220 -3.177799
C 0.311383 1.206855 -3.199104
C 0.490675 1.461644 -2.955795
C 0.736843 1.399387 -3.074040
C 0.736558 1.671827 -2.811440
C 0.803227 2.132991 -2.394669
C 0.915246 2.465364 -2.226902
C 0.960162 2.460829 -2.394802
C 0.787288 2.279731 -2.392632
C 0.679386 2.018916 -2.496817
C 0.605814 2.069169 -2.313779
C 0.734152 2.193025 -2.128112
C 0.908326 2.241896 -2.093882
C 0.935564 2.513081 -1.757691
C 0.747154 3.148960 -1.030106
C 0.010779 3.818940 -0.190626
C -0.725328 4.395434 0.635290
C -1.316812 4.792321 1.318137
C -1.916030 5.102177 1.943737
C -2.141890 5.365178 2.278257
C -2.088878 5.436668 2.428876
C -1.882559 5.056838 2.349158
C -1.028692 4.561447 1.873997
C -0.160234 4.114096 1.366251
C 0.586127 3.556485 0.701583
C 1.221971 2.898524 -0.043063
C 1.568498 2.371576 -0.461544
C 1.766612 1.935916 -0.774584
C 1.974666 1.716511 -0.991532
C 2.098277 1.450108 -1.217578
C 2.278042 1.354701 -1.358570
C 2.443898 1.250016 -1.520463
C 2.522013 1.142733 -1.606749
C 2.458529 0.939065 -1.724108
C 2.458944 0.792614 -1.810767
C 2.280725 0.621450 -1.804135
C 2.177346 0.552955 -1.784948
C 1.948243 0.266648 -1.880098
C 1.611470 0.258112 -1.697701
C 1.373930 0.191018 -1.666482
C 1.109125 -0.009732 -1.731868
C 0.690261 -0.287894 -1.766188
C 0.404658 -0.597153 -1.908670
C 0.069060 -0.854329 -1.983366
C -0.197943 -1.152281 -2.050276
C -0.351281 -1.616416 -2.374665
C -0.528317 -2.018515 -2.568068
C -0.659060 -2.228100 -2.610673
C -0.792677 -2.250105 -2.599450
C -0.876823 -2.264116 -2.621082
C -0.921964 -2.131159 -2.534966
C -0.953880 -2.122178 -2.538511
C -0.947863 -2.059157 -2.410650
C -0.861505 -1.951216 -2.295166
C -0.688343 -1.741009 -2.162617
C -0.303689 -1.675498 -2.184002
C -0.076728 -1.655671 -2.126115
C 0.167864 -1.833226 -2.176278
C 0.318264 -1.781134 -2.126984
C 0.446253 -1.834768 -2.107457
C 0.568399 -1.826328 -2.069823
C 0.925155 -1.659106 -1.967278
C 1.096463 -1.345533 -1.646958
C 1.496052 -0.909965 -1.364974
C 1.823006 -0.412663 -1.046312
C 2.304161 0.165584 -0.679885
C 2.627483 0.843219 -0.286594
C 2.891943 1.462919 0.162679
C 2.828118 1.739126 0.439955
C 2.716269 1.617204 0.412402
C 2.437289 1.430756 0.378318
C 2.367870 1.444232 0.459694
C 2.372943 1.124568 0.325937
C 2.250223 0.714999 0.160524
C 2.085836 0.179322 -0.159732
C 2.056073 -0.250029 -0.410665
C 2.044404 -0.400160 -0.455311
C 2.172699 -0.616412 -0.545713
C 2.222088 -0.845483 -0.650789
C 2.050606 -0.929529 -0.651485
C 2.109300 -1.069959 -0.701360
C 2.098063 -1.141359 -0.666444
C 1.962918 -1.326950 -0.690237
C 1.902263 -1.460878 -0.681152
C 1.960043 -1.440875 -0.590820
C 2.048912 -1.368039 -0.514930
C 2.189129 -1.168433 -0.319172
C 2.318664 -0.853011 -0.075773
C 2.436017 -0.682022 0.080186
C 2.582454 -0.249024 0.426815
C 2.777354 0.174032 0.721286
C 2.803791 0.627661 1.069697
C 2.748679 0.873252 1.360960
C 2.764485 0.867586 1.475048
C 2.808315 0.831831 1.518165
C 2.887605 0.997761 1.705595
C 2.928850 0.714053 1.590554
C 2.852353 0.313304 1.436034
C 2.772792 -0.067683 1.237196
C 2.716607 -0.207062 1.187747
C 2.697254 -0.274173 1.123090
C 2.695334 -0.390472 1.171447
C 2.830378 -0.518417 1.176758
C 2.894849 -0.497111 1.303713
C 2.829610 -0.527685 1.340329
C 2.963092 -0.628964 1.416355
C 3.041995 -0.932979 1.309038
C 2.992469 -0.883767 1.456534
C 2.902216 -0.808929 1.586451
C 2.665679 -0.758307 1.655769
C 2.477240 -0.795923 1.642880
C 2.436391 -0.431826 1.899081
C 2.352612 -0.104319 2.167044
C 2.299873 0.223878 2.465036
C 2.293321 0.154359 2.531695
C 2.292730 0.057488 2.538274
C 2.351643 -0.047366 2.607744
C 2.405194 0.093776 2.878088
C 2.460049 0.042915 2.980493
C 2.362352 -0.071514 3.032717
C 2.297102 -0.168587 3.068724
C 2.154154 -0.300517 3.016147
C 2.084131 -0.371689 3.055329
C 2.016374 -0.440066 3.077273
C 1.935274 -0.761015 2.789362
C 1.966316 -1.117050 2.652049
C 1.969754 -1.198623 2.636634
C 1.965434 -1.412646 2.563503
C 2.007341 -1.551356 2.582452
C 1.945342 -1.879052 2.309763
C 1.861297 -2.180449 2.072004
C 1.742603 -2.341778 1.949147
C 1.520312 -2.494532 1.769144
C 1.332356 -2.888033 1.415808
C 1.134765 -3.142246 1.109431
C 0.891267 -3.273564 0.931530
C 0.724456 -3.229669 1.057644
C 0.590874 -3.160899 1.089928
C 0.584815 -2.945823 1.376653
C 0.578998 -2.726407 1.627208
C 0.566508 -2.384077 1.975221
C 0.549530 -2.141301 2.230839
C 0.523627 -1.917835 2.349489
C 0.505371 -1.579021 2.486658
C 0.499727 -1.291128 2.726849
C 0.405547 -1.185528 2.618878
C 0.331980 -1.108507 2.576897
C 0.232728 -1.314707 2.475545
C 0.116776 -1.491726 2.279825
C 0.058209 -1.611787 2.169115
C -0.041034 -1.846313 2.027985
C -0.199846 -2.114843 1.770962
C -0.356996 -2.317166 1.715192
C -0.521930 -2.674502 1.391289
C -0.638327 -2.817708 1.095120
C -0.754664 -2.870839 1.085797
C -0.912820 -2.734477 1.229415
C -1.057913 -2.702865 1.242622
C -1.163713 -2.660691 1.342177
C -1.249322 -2.490291 1.411973
C -1.361544 -2.299990 1.554642
C -1.505518 -2.121287 1.630276
C -1.622663 -2.118069 1.551984
C -1.751135 -2.246099 1.365679
C -1.881465 -2.399540 1.119522
C -2.038002 -2.548442 0.768709
C -2.149228 -2.810938 0.568587
C -2.237635 -2.913789 0.417146
C -2.320279 -3.037541 0.238175
C -2.379104 -2.986113 0.145644
C -2.371948 -2.910850 0.143069
C -2.394764 -2.760084 0.217422
C -2.329827 -2.378090 0.537502
C -2.246776 -1.973588 0.827057
C -2.180831 -1.618038 1.204875
C -2.095267 -1.178415 1.593909
C -2.033700 -0.854901 1.986636
C -2.042287 -0.745900 2.087150
C -1.983590 -0.660680 2.202789
C -2.006674 -0.707851 2.269773
C -2.063085 -0.704464 2.212868
C -2.128653 -0.861245 1.976812
C -2.163436 -0.930555 1.935651
C -2.223638 -0.979982 1.911595
C -2.231345 -1.035616 1.841662
C -2.378337 -1.173499 1.644211
C -2.496123 -1.530757 1.265354
C -2.699114 -1.874199 0.910007
C -2.827034 -2.157641 0.673620
C -2.987363 -2.545391 0.320319
C -3.155316 -2.845111 -0.013051
C -3.280986 -3.078373 -0.132676
C -3.367788 -3.098668 -0.005708
C -3.387109 -2.819892 0.294886
C -3.274827 -2.672373 0.534631
C -3.012418 -2.249276 0.940019
C -2.674975 -1.762676 1.473852
C -2.333814 -1.202810 2.103571
C -2.020327 -0.666466 2.631092
C -1.661457 -0.268279 3.018886
C -1.325231 0.140656 3.345284
C -1.081132 0.543574 3.710108
C -1.069715 0.643897 3.769700
C -1.148225 0.730041 3.761061
C -1.199994 0.695107 3.664939
C -1.347958 0.731766 3.669081
C -1.505680 0.740426 3.501029
C -1.862349 0.490988 3.267963
C -2.265158 0.216389 2.983024
C -2.684285 0.009213 2.842440
C -3.052500 -0.257634 2.517744
C -3.485052 -0.331077 2.329623
C -3.724209 -0.533479 2.056726
C -4.021333 -0.694492 1.951185
C -4.195328 -0.724022 1.869448
