267
chr12 3D structure from Hi-C (resolution 500000bp)
C -3.199616 1.646823 -2.358812
C -3.130914 1.781287 -2.289123
C -3.085589 1.760296 -2.317217
C -3.019915 1.751240 -2.325050
C -2.796353 1.629858 -2.505447
C -2.738400 1.667411 -2.471350
C -2.613460 1.675045 -2.578170
C -2.475878 1.665550 -2.562635
C -2.343333 1.623274 -2.557073
C -2.170221 1.510769 -2.707414
C -2.099684 1.325769 -2.946279
C -2.015522 1.261623 -3.072826
C -1.893780 1.358789 -3.019827
C -1.898088 1.408341 -3.163145
C -1.807084 1.423171 -3.387245
C -1.721124 1.354824 -3.566258
C -1.622167 1.488072 -3.582989
C -1.489019 1.822797 -3.437703
C -1.630436 2.218486 -3.043791
C -1.774407 2.580584 -2.730195
C -1.663441 2.702057 -2.522982
C -1.512921 2.631276 -2.561595
C -1.416846 2.778006 -2.525691
C -1.445195 2.952925 -2.188758
C -1.373590 3.047750 -2.040629
C -1.059646 2.974250 -2.167322
C -0.706002 2.782892 -2.340796
C -0.531860 2.962410 -2.168960
C -0.523200 3.286607 -1.700132
C -0.352750 3.413426 -1.328168
C -0.143489 3.528705 -1.215017
C -0.029797 3.657352 -0.910340
C 0.113869 3.769860 -0.567684
C 0.218894 3.929075 -0.340093
C 0.359650 3.951740 -0.159117
C 0.406335 4.002041 -0.042451
C 0.385833 4.113572 -0.119526
C 0.428529 4.190328 -0.057574
C 0.594506 4.135194 -0.055349
C 0.692025 4.003869 -0.170328
C 0.790783 3.971003 -0.235413
C 0.859773 3.889968 -0.350023
C 1.034841 3.753244 -0.653800
C 1.163324 3.708264 -0.785899
C 1.264848 3.583828 -1.152809
C 1.259016 3.450054 -1.523501
C 1.275969 3.322488 -1.923561
C 1.191384 3.122199 -2.185115
C 1.156517 3.045275 -2.439391
C 1.127021 2.776562 -2.610195
C 1.060602 2.418839 -2.844600
C 0.990081 2.080995 -2.887838
C 1.010236 1.933990 -2.876777
C 1.174165 2.034459 -2.811001
C 1.335271 2.154501 -2.632166
C 1.448880 2.213094 -2.446658
C 1.560206 2.418600 -2.037112
C 1.764370 2.668417 -1.641083
C 1.878585 2.882987 -1.433799
C 2.063578 2.912473 -1.492879
C 1.853894 2.675864 -1.414224
C 1.880764 2.564803 -1.595451
C 1.976791 2.514314 -1.565108
C 2.125675 2.619915 -1.365417
C 2.155877 2.737068 -1.090463
C 2.096350 2.966488 -0.617533
C 1.501439 3.316809 0.095634
C 0.975600 3.728506 0.709155
C 0.278848 3.975683 1.443979
C -0.387602 4.133675 2.059258
C -0.975431 4.170920 2.429017
C -1.378366 4.186833 2.735667
C -1.442570 4.154658 2.860336
C -1.038742 4.013117 2.899963
C -0.230657 3.713473 2.621406
C 0.594900 3.415744 2.208986
C 1.463351 3.099213 1.498079
C 2.083593 2.699411 0.756968
C 2.592970 2.325606 0.188995
C 2.937285 1.932535 -0.286782
C 3.184120 1.556969 -0.762617
C 3.054611 1.279590 -1.039950
C 3.080939 1.086690 -1.207375
C 2.936218 0.901053 -1.246946
C 2.944459 0.750834 -1.284008
C 2.816643 0.612167 -1.344489
C 2.874441 0.451210 -1.525667
C 2.831230 0.283832 -1.724753
C 2.818593 0.192816 -1.859216
C 2.667053 0.037271 -2.097935
C 2.699627 -0.168159 -2.262185
C 2.572169 -0.285845 -2.367725
C 2.369021 -0.464260 -2.618225
C 1.998887 -0.712484 -2.825753
C 1.664483 -0.929396 -3.070694
C 1.447245 -1.177521 -3.309252
C 1.109878 -1.454983 -3.429199
C 0.655760 -1.483689 -3.579162
C 0.309646 -1.617949 -3.690972
C 0.149840 -1.787854 -3.820423
C 0.008253 -1.753248 -3.873297
C -0.103852 -1.703782 -3.758881
C -0.214864 -1.587463 -3.532585
C -0.284481 -1.629516 -3.481807
C -0.382348 -1.751646 -3.339244
C -0.454417 -1.752914 -3.337042
C -0.254454 -1.708829 -3.151805
C 0.043986 -1.708942 -3.006785
C 0.314622 -1.826297 -2.945909
C 0.539215 -2.042287 -3.040342
C 0.719424 -1.986539 -2.945886
C 0.936629 -2.094402 -2.885396
C 1.250628 -2.143914 -2.714662
C 1.447567 -1.958427 -2.414130
C 1.689679 -1.842238 -2.111701
C 2.117730 -1.465107 -1.673666
C 2.518072 -1.099234 -1.157739
C 3.040488 -0.767759 -0.677800
C 3.626106 -0.460481 -0.219027
C 3.936507 -0.017415 0.247924
C 4.051472 0.110411 0.439872
C 4.022423 -0.004574 0.574868
C 3.823613 -0.287372 0.421016
C 3.775369 -0.449544 0.377747
C 3.682770 -0.754468 0.302343
C 3.448766 -1.034785 0.167174
C 3.228664 -1.513964 -0.142778
C 3.214267 -1.940613 -0.417181
C 3.140701 -2.128552 -0.621660
C 3.068239 -2.280427 -0.627163
C 2.901409 -2.335211 -0.635545
C 2.698113 -2.285535 -0.616036
C 2.518884 -2.223572 -0.616887
C 2.463357 -2.297252 -0.581311
C 2.199847 -2.333847 -0.598643
C 2.040565 -2.262415 -0.485760
C 2.006506 -2.273146 -0.359614
C 2.086633 -2.197345 -0.204857
C 2.201983 -2.057774 0.033123
C 2.321013 -1.804940 0.343336
C 2.466738 -1.605912 0.607419
C 2.704915 -1.153059 1.017901
C 2.828575 -0.610545 1.508061
C 2.930665 -0.136812 1.851643
C 2.984429 0.225714 2.121825
C 2.975352 0.359954 2.257742
C 3.055748 0.411909 2.387932
C 3.174697 0.543555 2.608785
C 3.131039 0.292162 2.593142
C 3.027723 -0.093796 2.366883
C 2.893511 -0.317547 2.291474
C 2.776714 -0.590730 2.229604
C 2.686906 -0.603311 2.270302
C 2.478853 -0.651643 2.282963
C 2.277915 -0.452479 2.378738
C 2.133162 -0.124209 2.657045
C 1.985541 0.265369 2.932252
C 1.877775 0.522542 3.132055
C 1.661975 0.613505 3.223832
C 1.592586 0.658010 3.328928
C 1.513841 0.708377 3.445942
C 1.497563 0.414856 3.464526
C 1.641452 -0.136893 3.216648
C 1.605217 -0.409310 3.144531
C 1.552840 -0.464316 3.180966
C 1.421087 -0.301007 3.396793
C 1.295932 -0.342126 3.477785
C 1.374346 -0.460774 3.545714
C 1.228659 -0.469900 3.646330
C 0.966394 -0.194441 4.001319
C 0.957031 -0.237105 4.237853
C 0.908300 -0.401773 4.300553
C 1.154870 -0.904623 4.079048
C 1.247769 -1.369421 3.862925
C 1.098131 -1.556988 3.808955
C 1.133945 -1.750440 3.609302
C 1.142014 -2.055956 3.215542
C 1.171656 -2.335534 2.986160
C 1.265798 -2.558878 2.907557
C 1.106197 -2.526432 2.850616
C 1.019271 -2.443636 2.750011
C 0.974331 -2.576411 2.416041
C 0.885946 -2.669562 2.184493
C 0.790385 -2.738769 2.029552
C 0.676414 -2.893369 1.790701
C 0.477935 -3.069178 1.405074
C 0.292940 -3.212494 1.214102
C 0.020378 -3.380257 1.109749
C -0.167472 -3.354283 1.051732
C -0.347576 -3.416986 1.066577
C -0.506663 -3.214660 1.425529
C -0.566503 -3.045817 1.562687
C -0.707666 -2.852749 1.930355
C -0.705592 -2.701917 2.088350
C -0.708525 -2.513080 2.318885
C -0.703761 -2.364822 2.469208
C -0.686244 -2.105913 2.598122
C -0.756041 -2.269398 2.496885
C -0.921192 -2.277472 2.511041
C -0.956731 -2.388979 2.408987
C -0.981513 -2.523242 2.120017
C -0.902530 -2.814812 1.670351
C -0.913832 -3.152009 1.396881
C -0.959385 -3.495584 1.043842
C -1.014669 -3.407242 0.729807
C -1.064476 -3.557088 0.347502
C -1.078985 -3.584289 -0.052130
C -1.217474 -3.528612 -0.116290
C -1.481366 -3.188528 0.007952
C -1.645007 -2.875988 0.059608
C -1.787732 -2.611393 0.136433
C -1.938661 -2.623232 0.197791
C -2.072816 -2.512795 0.244135
C -2.277544 -2.487873 0.241774
C -2.414150 -2.476892 0.124597
C -2.500562 -2.498446 -0.011307
C -2.678400 -2.556777 -0.153173
C -2.822739 -2.601021 -0.437927
C -2.779949 -2.583010 -0.768022
C -2.803816 -2.666599 -1.024322
C -2.807448 -2.748418 -1.290315
C -2.935065 -2.825350 -1.335322
C -3.087770 -2.767273 -1.288834
C -3.167614 -2.653558 -1.200563
C -3.238070 -2.443360 -0.821525
C -3.362942 -2.207701 -0.204651
C -3.382929 -1.853790 0.412572
C -3.389514 -1.467200 1.032943
C -3.379943 -1.150614 1.508012
C -3.333384 -1.122267 1.732234
C -3.346212 -1.114359 1.946749
C -3.341055 -1.098983 1.995009
C -3.317933 -1.076533 1.837522
C -3.419735 -1.074643 1.652719
C -3.527723 -0.950914 1.525120
C -3.527888 -0.822597 1.381331
C -3.500542 -0.685719 1.126294
C -3.483603 -0.672623 0.692089
C -3.470806 -0.773505 0.253197
C -3.530505 -0.878341 -0.342202
C -3.566925 -0.931886 -0.826190
C -3.618121 -1.130399 -1.246698
C -3.752254 -1.232735 -1.588578
C -3.808047 -1.276667 -1.724273
C -3.970317 -1.016064 -1.563586
C -4.071186 -0.782966 -1.283634
C -4.085334 -0.662390 -0.889206
C -3.841505 -0.517959 -0.315195
C -3.646052 -0.215017 0.401250
C -3.383802 0.103382 1.073075
C -3.114600 0.332073 1.724106
C -2.737138 0.384539 2.254217
C -2.520312 0.538907 2.707341
C -2.329006 0.702982 3.129599
C -2.327265 0.787945 3.174068
C -2.319868 0.812763 3.076172
C -2.335935 0.631466 3.009323
C -2.512075 0.657154 2.925414
C -2.606401 0.610200 2.732556
C -2.724580 0.560944 2.537438
C -2.871631 0.473128 2.212325
C -3.122541 0.567574 2.007242
C -3.317784 0.680961 1.742624
C -3.486305 0.958223 1.595371
C -3.539995 0.977284 1.406857
C -3.688167 1.101941 1.301443
C -3.782791 1.242183 1.152545
