267
chr12 3D structure from Hi-C (resolution 500000bp)
C -2.978191 0.509547 -3.059817
C -3.038696 0.616310 -3.006930
C -3.008417 0.734837 -2.908109
C -2.959542 0.832126 -2.810079
C -2.743411 0.742123 -2.863524
C -2.721169 0.857398 -2.879777
C -2.676563 0.996178 -2.869975
C -2.559984 1.104275 -2.771354
C -2.412902 1.143623 -2.688142
C -2.252550 1.049960 -2.846465
C -2.110309 0.817545 -3.144934
C -1.958524 0.789530 -3.314737
C -1.788972 0.839320 -3.302022
C -1.727207 0.841126 -3.485876
C -1.654033 0.906628 -3.664618
C -1.553055 0.986102 -3.781637
C -1.496024 1.148994 -3.744808
C -1.404637 1.430960 -3.644147
C -1.631058 1.881672 -3.245365
C -1.883707 2.253093 -2.963622
C -1.878507 2.392478 -2.702500
C -1.927451 2.570891 -2.532292
C -1.924401 2.669309 -2.417994
C -1.902625 2.816203 -2.314852
C -1.966814 3.007422 -2.069943
C -1.655793 2.871030 -2.228820
C -1.262373 2.701829 -2.308889
C -1.084459 2.894803 -2.212184
C -0.879501 3.017333 -2.040949
C -0.679550 3.168025 -1.894004
C -0.541542 3.311235 -1.700465
C -0.324199 3.497086 -1.501714
C -0.250649 3.709287 -1.259526
C -0.065915 3.861936 -1.129105
C 0.165361 3.940425 -0.997782
C 0.375462 3.994128 -0.910608
C 0.458013 4.058416 -0.982574
C 0.606498 4.088308 -0.972447
C 0.863990 3.998750 -1.053301
C 1.128370 3.810557 -1.121563
C 1.258008 3.793920 -1.215012
C 1.315439 3.628984 -1.328020
C 1.428107 3.426696 -1.538029
C 1.640147 3.336555 -1.645469
C 1.834993 3.163435 -1.911720
C 1.766376 3.000735 -2.156746
C 1.653327 2.927761 -2.402425
C 1.474248 2.662830 -2.626855
C 1.377717 2.657920 -2.703124
C 1.269493 2.511207 -2.810551
C 1.080866 2.154886 -2.953750
C 0.817519 1.889402 -2.930640
C 0.766699 1.801442 -2.867896
C 0.926157 1.738403 -2.920107
C 1.045448 1.944152 -2.650395
C 1.094938 2.015482 -2.640104
C 1.156483 2.252141 -2.250786
C 1.265268 2.615604 -1.768622
C 1.351613 2.948993 -1.373870
C 1.229204 3.235984 -0.999848
C 0.992410 3.164654 -0.722141
C 0.714573 3.215992 -0.531383
C 0.711034 3.211520 -0.186779
C 0.741069 3.314169 0.026016
C 0.728639 3.421679 0.209784
C 0.678426 3.589094 0.440807
C 0.481270 3.686928 0.673853
C -0.015198 4.084554 1.119829
C -0.378619 4.195894 1.395379
C -0.912391 4.334267 1.741386
C -1.366688 4.354705 2.032275
C -1.667046 4.362013 2.285242
C -1.677394 4.336388 2.445766
C -1.185149 4.214452 2.391306
C -0.360278 3.923332 2.133904
C 0.487050 3.684585 1.911159
C 1.381159 3.257675 1.214717
C 1.977422 2.845591 0.587678
C 2.551974 2.450633 0.024164
C 2.920909 2.066821 -0.493334
C 3.006690 1.702647 -0.813246
C 2.888297 1.415802 -0.990699
C 2.930801 1.196972 -1.286217
C 2.800597 1.126646 -1.234772
C 2.849426 0.940296 -1.357513
C 2.726958 0.778152 -1.457302
C 2.744111 0.584670 -1.686741
C 2.743222 0.432303 -1.814779
C 2.739975 0.325870 -1.934268
C 2.588254 0.034816 -2.126532
C 2.569411 -0.192620 -2.336370
C 2.420868 -0.283948 -2.458795
C 2.250091 -0.456695 -2.638959
C 1.935529 -0.718369 -2.770271
C 1.592978 -0.984603 -3.127602
C 1.279770 -1.254338 -3.428670
C 0.896484 -1.480939 -3.565807
C 0.396932 -1.723947 -3.595338
C 0.054872 -1.961557 -3.621033
C -0.137745 -2.202387 -3.672767
C -0.302253 -2.270925 -3.623172
C -0.408682 -2.281330 -3.456806
C -0.451975 -2.157353 -3.184140
C -0.502479 -2.203588 -3.095111
C -0.409965 -2.245441 -3.033969
C -0.230652 -2.245258 -3.082426
C -0.012335 -2.108642 -2.966451
C 0.310541 -2.039650 -2.872715
C 0.566061 -2.149041 -2.873884
C 0.771947 -2.412253 -2.956163
C 1.017161 -2.406719 -2.839926
C 1.127794 -2.416568 -2.742197
C 1.231999 -2.418102 -2.544206
C 1.461567 -2.219854 -2.252451
C 1.726751 -1.979773 -1.933526
C 2.196717 -1.639805 -1.587904
C 2.631449 -1.311371 -1.299460
C 3.056120 -0.710228 -0.837451
C 3.602676 -0.113934 -0.377111
C 3.949036 0.279614 -0.018492
C 4.047338 0.435069 0.119187
C 3.981257 0.305522 0.104067
C 3.737041 0.148212 0.051088
C 3.739208 0.173489 0.202983
C 3.720866 -0.238312 0.005991
C 3.523789 -0.754015 -0.226873
C 3.281885 -1.110250 -0.448765
C 3.247621 -1.560129 -0.612965
C 3.131876 -1.851646 -0.699553
C 3.076794 -2.021324 -0.638707
C 2.874452 -2.076952 -0.608422
C 2.703889 -2.137535 -0.542161
C 2.562219 -2.078982 -0.497044
C 2.535832 -2.193182 -0.491157
C 2.275726 -2.273385 -0.553289
C 2.096211 -2.093018 -0.425727
C 2.148912 -1.912773 -0.303857
C 2.285263 -1.856806 -0.176887
C 2.357586 -1.621635 0.019921
C 2.440358 -1.305403 0.301695
C 2.517578 -0.938595 0.637187
C 2.692565 -0.406274 1.108838
C 2.972378 0.040130 1.523255
C 2.968110 0.374761 1.842040
C 2.855294 0.788869 2.132920
C 2.924724 0.838948 2.281243
C 3.038979 0.858614 2.404874
C 3.137421 0.881295 2.617864
C 3.135728 0.643338 2.562362
C 2.937710 0.240599 2.348999
C 2.833000 -0.171775 2.150840
C 2.786575 -0.534782 2.042540
C 2.753983 -0.723361 2.021789
C 2.630798 -0.994775 2.016499
C 2.627624 -1.285498 1.961903
C 2.683836 -1.529181 1.999971
C 2.813525 -1.776917 1.997376
C 2.862041 -1.973996 2.077436
C 2.877960 -2.246812 2.029094
C 2.826561 -2.215373 2.185797
C 2.750312 -2.159496 2.291901
C 2.621630 -2.022520 2.405802
C 2.415552 -1.984534 2.585283
C 2.237013 -1.590357 2.820747
C 2.181252 -1.076361 3.068001
C 2.020168 -0.449402 3.330178
C 1.873674 -0.231643 3.416721
C 1.829393 0.062145 3.567672
C 1.701716 0.403225 3.672429
C 1.527889 0.836274 3.818801
C 1.346392 1.067506 4.033507
C 1.148141 1.068416 4.110554
C 1.064304 0.796789 4.123283
C 0.938440 0.605422 4.182082
C 0.774018 0.396458 4.169227
C 0.624292 0.141433 4.141393
C 0.681945 -0.334126 3.798810
C 0.764931 -0.702330 3.632139
C 0.720651 -0.960573 3.604672
C 0.720748 -1.139994 3.479830
C 0.742158 -1.301608 3.276716
C 0.741111 -1.655428 2.853301
C 0.793298 -2.000423 2.479772
C 0.704390 -2.156641 2.266603
C 0.571007 -2.496722 2.012061
C 0.530338 -2.837725 1.640274
C 0.416397 -3.103340 1.363088
C 0.214023 -3.287713 1.166990
C 0.070026 -3.246732 1.231541
C -0.004386 -3.396375 1.213268
C -0.043535 -3.307311 1.530685
C -0.118517 -3.057658 1.716619
C -0.244921 -2.830202 2.074401
C -0.280229 -2.657918 2.239681
C -0.393856 -2.465269 2.460877
C -0.392938 -2.277735 2.611026
C -0.490522 -1.864036 2.895117
C -0.653927 -1.818452 2.967137
C -0.696216 -1.890921 3.010198
C -0.785098 -2.049675 2.771802
C -0.852969 -2.194798 2.545119
C -0.849335 -2.465874 2.366706
C -0.986984 -2.853558 2.176186
C -1.142074 -3.264973 1.867956
C -1.187724 -3.252247 1.497030
C -1.321284 -3.410971 1.036709
C -1.295115 -3.376987 0.754796
C -1.416043 -3.381361 0.697969
C -1.555863 -3.118224 0.695816
C -1.622646 -2.809806 0.638355
C -1.667054 -2.563797 0.636052
C -1.827799 -2.532440 0.683399
C -1.973352 -2.385976 0.717945
C -2.222756 -2.375524 0.753984
C -2.291358 -2.385559 0.597461
C -2.366214 -2.445200 0.319403
C -2.460082 -2.565819 0.070249
C -2.577787 -2.687605 -0.240918
C -2.631632 -2.792386 -0.486598
C -2.697914 -2.929919 -0.669629
C -2.669671 -3.077033 -0.914863
C -2.941064 -3.015206 -0.874736
C -3.095693 -2.944058 -0.775134
C -3.263495 -2.775454 -0.527728
C -3.289235 -2.489042 -0.077014
C -3.402032 -2.024027 0.366768
C -3.386661 -1.566203 0.897447
C -3.435859 -0.991676 1.436636
C -3.308404 -0.709676 1.858223
C -3.263593 -0.591182 2.116768
C -3.283399 -0.557937 2.246691
C -3.328667 -0.555281 2.174866
C -3.237398 -0.655919 2.056346
C -3.339771 -0.743217 1.874863
C -3.421356 -0.816651 1.773661
C -3.443444 -0.843104 1.679590
C -3.433763 -0.860838 1.504438
C -3.441785 -0.875644 1.175136
C -3.363697 -1.042633 0.753891
C -3.449379 -1.228953 0.231896
C -3.436433 -1.416794 -0.241579
C -3.458907 -1.642785 -0.695661
C -3.608421 -1.724137 -1.135499
C -3.646151 -1.777802 -1.464676
C -3.777480 -1.573453 -1.458170
C -3.968711 -1.292469 -1.177744
C -3.968935 -1.117486 -0.836239
C -3.714585 -0.844819 -0.257442
C -3.501651 -0.432841 0.448771
C -3.213381 -0.031764 1.114305
C -3.007403 0.293569 1.789507
C -2.643333 0.414557 2.338198
C -2.318829 0.661230 2.775273
C -2.079775 0.924049 3.193663
C -2.085303 1.015767 3.235750
C -2.089586 1.097021 3.124182
C -2.131183 1.047918 3.046772
C -2.241528 1.179092 2.996381
C -2.282611 1.161804 2.819690
C -2.490468 1.054743 2.546620
C -2.744106 0.943578 2.172381
C -3.075113 1.004664 1.921490
C -3.362968 0.981413 1.584864
C -3.564071 1.083859 1.302996
C -3.672206 1.001637 1.012712
C -3.910491 1.063733 0.803525
C -4.084411 1.163355 0.630622
