268
chr10 3D structure from Hi-C (resolution 500000bp)
C 0.144030 3.077392 1.026407
C -0.085908 3.171478 0.844649
C -0.169398 3.228411 0.740146
C -0.073211 3.314670 0.682690
C 0.107071 3.390214 0.590452
C 0.085854 3.568136 0.465997
C 0.062004 3.673568 0.344790
C 0.112697 3.724783 0.261353
C 0.535398 3.668014 0.323838
C 0.900847 3.651159 0.363656
C 0.953558 3.602268 0.328710
C 1.011781 3.540693 0.232287
C 1.113460 3.423355 0.117070
C 1.136831 3.419035 0.005731
C 0.986336 3.485113 -0.134620
C 0.677673 3.652771 -0.379454
C 0.212314 3.731007 -0.634458
C -0.054092 3.787331 -0.853635
C -0.395390 3.835244 -0.978553
C -0.379404 3.789981 -0.973902
C -0.026025 3.631486 -0.877248
C 0.575326 3.418202 -0.673524
C 0.936269 3.195823 -0.404596
C 1.450312 2.999940 -0.169052
C 1.954697 2.777410 0.012002
C 2.342723 2.655614 0.122479
C 2.531734 2.587360 0.194809
C 2.333423 2.582357 0.095406
C 1.907032 2.660547 -0.127127
C 1.552938 2.720100 -0.446803
C 1.311125 2.781397 -0.706513
C 1.001932 2.885102 -0.946718
C 0.844061 2.950820 -1.196455
C 0.547122 3.032663 -1.501482
C 0.381654 3.113659 -1.775605
C 0.214320 3.185358 -2.050463
C 0.155717 3.207097 -2.263801
C -0.045327 3.241459 -2.510318
C -0.134225 3.274922 -2.698412
C -0.146465 3.218264 -2.806026
C 0.050531 3.162748 -2.746088
C 0.309134 3.024271 -2.711733
C 0.682088 2.830159 -2.550765
C 0.868949 2.683692 -2.500112
C 0.913638 2.576560 -2.447811
C 1.003165 2.405509 -2.337718
C 1.081368 2.304324 -2.274323
C 0.819861 2.221217 -2.465806
C 0.561130 2.178589 -2.548149
C 0.481521 2.106591 -2.672559
C 0.706630 2.042315 -2.533528
C 1.160080 2.013122 -2.432452
C 1.198250 1.997676 -2.512255
C 1.083242 1.959172 -2.600243
C 1.011660 2.015779 -2.424115
C 0.923563 2.064338 -2.239712
C 0.809454 2.099776 -2.047914
C 0.702773 2.093139 -1.963606
C 0.660395 2.033120 -1.819994
C 0.997008 1.978391 -1.599343
C 1.305556 1.947733 -1.436595
C 1.650651 1.804371 -1.472643
C 1.724425 1.698525 -1.686637
C 1.562607 1.728825 -1.805790
C 1.175507 1.771685 -2.004938
C 0.739612 1.776652 -2.174582
C 0.409736 1.781049 -2.288759
C 0.141517 1.781887 -2.261664
C -0.395553 1.844614 -2.340147
C -0.703373 1.945130 -2.259408
C -0.910818 1.966115 -2.298078
C -1.099047 2.047572 -2.361543
C -1.297872 2.131914 -2.403405
C -1.690718 2.239811 -2.527707
C -2.411390 2.452225 -2.767681
C -2.695660 2.634573 -2.781576
C -3.174643 2.923766 -2.484621
C -3.131014 3.364593 -1.422619
C -3.116622 3.743687 -0.313725
C -3.441052 4.104620 0.577199
C -3.941596 4.061900 0.657182
C -3.876944 3.800477 0.579237
C -3.595358 3.502546 0.745606
C -2.896089 3.027170 0.695211
C -2.737061 2.352782 -0.182304
C -2.555470 1.727343 -1.048475
C -1.946428 1.085377 -1.742149
C -0.730231 0.669290 -1.829242
C 0.301096 0.486022 -1.492318
C 0.953996 0.235125 -1.564227
C 1.568452 -0.158112 -1.938586
C 1.902753 -0.321521 -1.910655
C 2.880673 -0.721940 -2.155014
C 3.337462 -0.892046 -2.106788
C 3.256743 -0.845209 -1.739333
C 2.971331 -0.874391 -1.638614
C 2.899981 -0.871513 -1.513756
C 2.708047 -0.734331 -1.220221
C 2.658165 -0.774922 -1.361838
C 1.730652 -0.581896 -1.292731
C 1.254946 -0.575356 -1.568162
C 0.810878 -0.600612 -1.895066
C 0.611869 -0.684461 -2.205787
C 0.248128 -0.705848 -2.464418
C -0.257008 -0.741880 -2.739557
C -0.607989 -0.747430 -2.855639
C -0.654755 -0.805621 -2.959939
C -0.743296 -0.877194 -3.046905
C -0.738970 -0.987731 -3.149143
C -0.827334 -1.064832 -3.219749
C -0.912522 -1.186971 -3.244677
C -0.935020 -1.214388 -3.197649
C -0.954600 -1.287529 -3.178008
C -0.755362 -1.366272 -3.056371
C -0.644899 -1.454575 -2.941768
C -0.465816 -1.506125 -2.761395
C -0.292252 -1.537090 -2.597878
C -0.125578 -1.546719 -2.443404
C 0.080220 -1.606660 -2.318363
C 0.271586 -1.679429 -2.216509
C 0.320852 -1.763180 -2.143435
C 0.500332 -1.818526 -2.011089
C 0.685531 -1.822699 -1.855279
C 0.833010 -1.848746 -1.730363
C 0.904291 -1.875228 -1.665508
C 0.681616 -1.818587 -1.643256
C 0.438383 -1.785131 -1.681264
C 0.114654 -1.818876 -1.777406
C -0.168352 -1.815665 -1.836857
C -0.727487 -1.757105 -1.959259
C -1.185127 -1.765903 -2.048908
C -1.482073 -1.759626 -2.085539
C -1.118496 -1.775522 -1.972766
C -0.553556 -1.744968 -1.680425
C 0.103864 -1.565992 -1.271074
C 0.570217 -1.324550 -0.838187
C 1.114649 -1.135690 -0.361534
C 1.676547 -0.889494 0.138456
C 2.202077 -0.618857 0.671087
C 2.424911 -0.397057 1.130414
C 2.580829 -0.230434 1.458774
C 2.646150 -0.200273 1.643732
C 2.732403 -0.212194 1.710001
C 2.949937 -0.274603 1.771218
C 3.090940 -0.326670 1.816557
C 3.179543 -0.482093 1.706516
C 3.234065 -0.666580 1.584379
C 2.967528 -0.747374 1.429205
C 2.446886 -0.747929 1.261391
C 1.792042 -0.789379 1.062732
C 1.130963 -0.874235 0.783841
C 0.668888 -0.937100 0.581439
C 0.466144 -1.098532 0.437436
C 0.153636 -1.100284 0.407228
C 0.049910 -1.148380 0.481988
C 0.256486 -1.215432 0.569900
C 0.535956 -1.592458 0.511841
C 0.813087 -1.721585 0.544867
C 0.720050 -1.879111 0.378862
C 0.301914 -1.917557 0.217186
C -0.128193 -2.083950 -0.097476
C -0.492696 -2.245961 -0.425429
C -0.884048 -2.433622 -0.696761
C -1.158825 -2.321208 -0.789970
C -1.311796 -2.402689 -0.873002
C -1.242656 -2.412789 -0.791513
C -1.184816 -2.419452 -0.695278
C -1.060759 -2.396230 -0.560807
C -0.843896 -2.386288 -0.426320
C -0.553553 -2.352722 -0.244060
C -0.088070 -2.278748 0.027728
C 0.446840 -2.369935 0.388605
C 0.811822 -2.421671 0.592272
C 1.318533 -2.397823 0.754951
C 1.878891 -2.471483 0.893728
C 2.251150 -2.556468 1.019026
C 2.388995 -2.652977 1.046541
C 2.206479 -2.831345 0.979204
C 1.848237 -2.791243 0.758608
C 1.701193 -2.832030 0.644253
C 1.529930 -2.922887 0.717207
C 1.528080 -2.864818 0.888412
C 1.514208 -2.757297 1.032149
C 1.461210 -2.690300 1.180643
C 1.488692 -2.546911 1.305497
C 1.424499 -2.465797 1.445540
C 1.209412 -2.457263 1.514522
C 1.101052 -2.411776 1.530402
C 0.949433 -2.438091 1.521851
C 0.894738 -2.417747 1.573215
C 1.044812 -2.273533 1.719102
C 1.202640 -2.134537 1.944337
C 1.313046 -1.968919 2.115143
C 1.363826 -1.816449 2.285138
C 1.145966 -1.850399 2.300187
C 0.928902 -1.740664 2.373623
C 0.862366 -1.569253 2.442677
C 0.795458 -1.463562 2.455936
C 0.731683 -1.312583 2.519125
C 0.806308 -1.249647 2.687593
C 1.065323 -1.130350 2.867803
C 1.490568 -0.790875 3.153286
C 1.801727 -0.613518 3.308567
C 1.900805 -0.597803 3.388288
C 1.778122 -0.620444 3.366763
C 1.591435 -0.684413 3.163259
C 1.120901 -0.751916 2.811074
C 0.421010 -0.854775 2.423559
C -0.272117 -1.020056 1.993563
C -0.952700 -1.237199 1.556974
C -1.472064 -1.437875 1.179204
C -1.911391 -1.694853 0.861767
C -2.195748 -2.017218 0.686909
C -2.273347 -2.265509 0.580044
C -2.196680 -2.430752 0.571852
C -2.217561 -2.530722 0.555555
C -2.121016 -2.583779 0.637478
C -1.848213 -2.641267 0.877126
C -1.548190 -2.624768 1.151799
C -1.495557 -2.531716 1.284132
C -1.496473 -2.415960 1.423058
C -1.382128 -2.325028 1.602146
C -1.161828 -2.227442 1.769003
C -1.116123 -2.150743 1.881576
C -1.245920 -2.096494 1.832000
C -1.344363 -2.006743 1.789150
C -1.306753 -1.995369 1.775463
C -1.377159 -1.969527 1.697341
C -1.642992 -1.982564 1.544796
C -1.872135 -1.971560 1.462598
C -1.953577 -1.927119 1.438852
C -2.047875 -1.826449 1.440835
C -2.100338 -1.784967 1.522837
C -2.113837 -1.676733 1.688040
C -1.816502 -1.502025 1.932649
C -1.302813 -1.295087 2.283615
C -0.857987 -1.164451 2.617189
C -0.722838 -1.095024 2.786463
C -0.714283 -1.059556 2.870076
C -0.796759 -0.959269 2.890104
C -0.727957 -0.805203 2.942902
C -0.796777 -0.758830 2.993974
C -0.986080 -0.750633 2.995423
C -1.045076 -0.693144 3.050094
C -0.939266 -0.607782 3.194073
C -0.775916 -0.504713 3.317087
C -0.550479 -0.377751 3.415982
C -0.629758 -0.336298 3.351965
C -0.689145 -0.319598 3.295648
C -0.991072 -0.274509 3.063022
C -1.513278 -0.326730 2.765716
C -1.947741 -0.297902 2.401949
C -2.348184 -0.351725 2.132831
C -2.662122 -0.391175 1.953315
C -2.909572 -0.447369 1.874082
C -3.126805 -0.419494 1.779730
C -3.143524 -0.386788 1.885818
C -3.052034 -0.323491 1.962571
C -3.117208 -0.353217 2.021392
C -3.234145 -0.261384 2.025031
C -3.264894 -0.156627 2.109257
C -3.142511 -0.006696 2.248218
C -3.005546 0.113446 2.459498
C -2.793391 0.255378 2.615823
C -2.906358 0.444721 2.833826
C -2.717198 0.580366 3.029031
C -2.503025 0.694463 3.296254
C -2.488347 0.791252 3.415991
