268
chr10 3D structure from Hi-C (resolution 500000bp)
C 1.020716 3.166515 1.036330
C 0.640500 3.244805 0.898045
C 0.488232 3.284188 0.812046
C 0.557637 3.331274 0.765026
C 0.608931 3.376899 0.579389
C 0.527155 3.542543 0.494695
C 0.459063 3.633856 0.404207
C 0.444771 3.693683 0.313750
C 0.880829 3.609416 0.286653
C 1.288929 3.546130 0.234876
C 1.365079 3.533188 0.126765
C 1.397659 3.473186 0.059664
C 1.449961 3.382894 -0.098267
C 1.440651 3.363365 -0.272799
C 1.263052 3.424606 -0.451011
C 0.935561 3.621461 -0.673356
C 0.457605 3.784882 -0.900490
C 0.137866 3.860812 -1.033981
C -0.101727 3.946708 -1.131480
C -0.030942 3.868470 -1.183560
C 0.321230 3.689233 -1.144608
C 0.918264 3.439849 -0.981443
C 1.310648 3.145953 -0.780014
C 1.778262 2.855812 -0.569632
C 2.212288 2.575722 -0.423356
C 2.443758 2.414477 -0.304237
C 2.599302 2.307641 -0.225296
C 2.419129 2.277164 -0.300020
C 2.045505 2.351362 -0.589759
C 1.673857 2.488103 -0.795987
C 1.447870 2.596445 -1.043333
C 1.211176 2.770523 -1.253059
C 1.043502 2.843104 -1.496584
C 0.649344 2.967288 -1.763565
C 0.424918 3.082294 -1.982750
C 0.123321 3.163499 -2.078992
C 0.001936 3.156700 -2.292843
C -0.278331 3.194572 -2.427005
C -0.524619 3.178102 -2.570083
C -0.603975 3.110770 -2.704609
C -0.329988 3.005062 -2.700720
C -0.140965 2.885178 -2.750515
C 0.266791 2.654063 -2.748504
C 0.451701 2.549391 -2.730465
C 0.469054 2.472821 -2.757131
C 0.699948 2.299701 -2.761178
C 0.793315 2.189379 -2.684075
C 0.444847 2.206003 -2.820891
C 0.205816 2.193327 -2.831608
C 0.045720 2.182831 -2.811710
C 0.278003 2.073661 -2.740511
C 0.769128 2.051665 -2.640354
C 0.665096 2.059721 -2.576456
C 0.548367 2.048030 -2.598871
C 0.576474 2.048614 -2.352585
C 0.578075 2.097891 -2.100354
C 0.499568 2.170279 -1.848289
C 0.420168 2.181682 -1.712852
C 0.471614 2.028448 -1.651329
C 0.867181 1.966233 -1.570772
C 1.216547 1.926463 -1.540145
C 1.515114 1.830688 -1.602774
C 1.442856 1.754388 -1.741096
C 1.295066 1.753823 -1.915148
C 0.852742 1.857536 -1.958000
C 0.314255 2.019308 -1.876880
C -0.012481 2.046715 -1.857105
C -0.332040 2.068647 -1.689397
C -0.814780 2.161180 -1.613073
C -1.009800 2.243802 -1.620451
C -1.205465 2.336523 -1.591557
C -1.380776 2.378616 -1.658846
C -1.624504 2.386204 -1.714825
C -2.034294 2.530875 -1.688623
C -2.604535 2.821285 -1.788158
C -2.907169 2.969683 -1.769048
C -3.295532 3.293514 -1.157612
C -2.886242 3.644325 -0.123674
C -2.502134 4.002119 0.966211
C -2.455007 4.400419 1.900769
C -2.890384 4.437961 2.002691
C -2.965159 4.150914 1.996189
C -2.700431 3.840340 2.021455
C -2.096366 3.313535 1.675516
C -2.293040 2.693545 0.771981
C -2.440869 2.092848 -0.096735
C -2.202551 1.426320 -0.934782
C -1.102302 0.906914 -1.354451
C -0.089708 0.608310 -1.374132
C 0.530357 0.312442 -1.590371
C 1.033777 -0.155605 -2.191313
C 1.342994 -0.320916 -2.216336
C 2.138743 -0.821584 -2.802399
C 2.620266 -1.018039 -2.901667
C 2.656208 -1.031133 -2.584521
C 2.438780 -1.046214 -2.436834
C 2.337414 -1.039340 -2.302651
C 2.214618 -0.878542 -1.910278
C 2.145428 -0.946968 -2.089607
C 1.371098 -0.661755 -1.799778
C 0.861395 -0.648110 -1.973300
C 0.335600 -0.626139 -2.152353
C -0.036257 -0.616369 -2.346743
C -0.509198 -0.547052 -2.421116
C -1.079088 -0.469739 -2.547072
C -1.484689 -0.429618 -2.589594
C -1.613349 -0.460697 -2.646283
C -1.774783 -0.468609 -2.644077
C -1.787900 -0.551941 -2.741606
C -1.784670 -0.669352 -2.830391
C -1.790756 -0.799642 -2.936631
C -1.788562 -0.923429 -2.936453
C -1.656749 -1.041341 -2.941178
C -1.485827 -1.118346 -2.818102
C -1.303589 -1.217526 -2.774133
C -1.083607 -1.268832 -2.640981
C -0.905712 -1.333402 -2.564585
C -0.689087 -1.382696 -2.482163
C -0.474493 -1.437076 -2.403800
C -0.422976 -1.534146 -2.358803
C -0.330212 -1.645511 -2.333108
C -0.176298 -1.752086 -2.251432
C -0.037456 -1.813070 -2.154238
C 0.153807 -1.854657 -2.040693
C 0.157704 -1.891142 -1.954040
C -0.055871 -1.795505 -1.858059
C -0.237784 -1.761890 -1.821921
C -0.560897 -1.762247 -1.870927
C -0.830147 -1.719468 -1.871432
C -1.384347 -1.623359 -1.898366
C -1.933447 -1.516202 -1.880300
C -2.220574 -1.452753 -1.857926
C -1.892582 -1.562366 -1.841786
C -1.346282 -1.485000 -1.624411
C -0.636289 -1.373343 -1.326698
C -0.060181 -1.228899 -1.000826
C 0.668769 -1.112566 -0.589113
C 1.418765 -0.988158 -0.244019
C 2.183853 -0.874909 0.127230
C 2.558933 -0.624934 0.551544
C 2.848527 -0.560133 0.783603
C 2.990536 -0.516485 0.919511
C 3.060638 -0.544495 0.977269
C 3.224575 -0.637921 0.923171
C 3.348704 -0.773334 0.866175
C 3.338011 -0.874121 0.776195
C 3.364207 -1.048705 0.560185
C 3.102028 -1.092501 0.493211
C 2.560340 -1.072923 0.436725
C 1.946847 -1.050588 0.364158
C 1.317586 -1.075361 0.261296
C 0.860100 -1.088085 0.244245
C 0.604474 -1.241293 0.154884
C 0.295809 -1.285165 0.255423
C 0.122413 -1.407403 0.204399
C 0.318153 -1.570904 0.234043
C 0.507042 -2.030911 0.071627
C 0.664324 -2.225205 0.036455
C 0.422219 -2.292691 -0.086050
C -0.042475 -2.320578 -0.185401
C -0.531386 -2.426307 -0.392789
C -0.930362 -2.459179 -0.527698
C -1.380497 -2.532424 -0.678856
C -1.661871 -2.281516 -0.638674
C -1.814373 -2.227734 -0.672430
C -1.697475 -2.230819 -0.598700
C -1.629167 -2.177723 -0.469408
C -1.514514 -2.167167 -0.366367
C -1.276265 -2.218859 -0.241216
C -0.967813 -2.166222 -0.073918
C -0.475927 -2.194076 0.064856
C 0.176012 -2.389031 0.233787
C 0.616464 -2.496940 0.276632
C 1.180757 -2.541852 0.339143
C 1.824282 -2.608781 0.369952
C 2.204014 -2.689252 0.391558
C 2.346073 -2.873594 0.301124
C 2.185462 -3.000244 0.268355
C 1.769152 -2.924615 0.211211
C 1.594930 -2.962286 0.225496
C 1.429172 -3.044125 0.249564
C 1.400476 -2.984748 0.349224
C 1.430182 -2.923212 0.453294
C 1.486146 -2.760585 0.641357
C 1.562561 -2.608843 0.809681
C 1.547050 -2.533984 0.952799
C 1.342964 -2.530128 1.026678
C 1.199352 -2.548409 1.107887
C 1.058975 -2.610726 1.196079
C 1.031228 -2.618419 1.290903
C 1.170002 -2.618282 1.356324
C 1.400378 -2.514551 1.488182
C 1.507796 -2.420447 1.634951
C 1.654698 -2.278070 1.790177
C 1.556276 -2.187716 1.876446
C 1.396593 -2.023484 1.970330
C 1.381206 -1.825994 2.037421
C 1.334015 -1.656258 2.127092
C 1.245001 -1.597414 2.204051
C 1.413035 -1.456770 2.317836
C 1.670536 -1.336786 2.453261
C 2.149480 -1.125364 2.631293
C 2.471899 -1.104825 2.754951
C 2.577689 -1.082760 2.877991
C 2.456740 -1.072306 2.852141
C 2.265754 -1.055126 2.729255
C 1.691112 -1.076714 2.486913
C 0.961205 -1.154540 2.242403
C 0.129529 -1.208023 1.970805
C -0.660999 -1.263099 1.673458
C -1.299995 -1.461888 1.402699
C -1.834348 -1.742494 1.235393
C -2.271945 -1.989038 1.112822
C -2.417524 -2.211468 1.069254
C -2.470538 -2.339724 1.087597
C -2.515993 -2.408318 1.096850
C -2.342428 -2.516948 1.167125
C -2.043947 -2.563211 1.316933
C -1.658785 -2.476993 1.484569
C -1.530951 -2.417763 1.615929
C -1.461917 -2.316742 1.735323
C -1.196741 -2.307433 1.854498
C -0.937944 -2.277143 1.968746
C -0.915679 -2.186013 2.080166
C -1.028237 -2.047399 2.075029
C -1.159420 -2.012464 2.078695
C -1.105914 -1.967976 2.084940
C -1.227001 -1.974422 2.054954
C -1.556689 -1.849449 1.992732
C -1.776767 -1.808867 1.951798
C -1.843827 -1.719722 1.913576
C -1.952532 -1.686024 1.932970
C -1.981465 -1.567497 1.999654
C -1.931745 -1.499435 2.121317
C -1.514927 -1.356120 2.301180
C -0.912369 -1.261080 2.497318
C -0.401076 -1.181762 2.724340
C -0.219997 -1.120295 2.868367
C -0.142466 -1.025152 3.001089
C -0.201891 -0.993870 3.062448
C -0.143077 -0.862715 3.075488
C -0.201718 -0.800091 3.117343
C -0.351574 -0.724321 3.142873
C -0.328340 -0.659633 3.166413
C -0.183679 -0.658395 3.268353
C 0.034497 -0.599388 3.318743
C 0.307197 -0.493435 3.350520
C 0.186320 -0.453480 3.401309
C 0.080502 -0.447661 3.348387
C -0.290759 -0.437699 3.230934
C -0.911427 -0.360679 3.039854
C -1.445230 -0.252886 2.858855
C -1.944100 -0.201004 2.663813
C -2.267321 -0.176310 2.562170
C -2.416893 -0.143318 2.477011
C -2.636437 -0.095585 2.439338
C -2.569754 -0.006540 2.506688
C -2.443452 -0.005470 2.633905
C -2.465003 0.072777 2.691909
C -2.538161 0.134604 2.764965
C -2.607502 0.189711 2.855138
C -2.420666 0.235562 3.019636
C -2.162516 0.352444 3.206389
C -1.978942 0.409472 3.368291
C -1.983473 0.636391 3.658036
C -1.719702 0.671058 3.799990
C -1.422736 0.740921 4.010032
C -1.282032 0.842825 4.197284
