161
chr18 3D structure from Hi-C (resolution 500000bp)
C -0.456798 2.705606 -0.958617
C -0.333097 2.605220 -1.008352
C -0.422236 2.299717 -1.265654
C -0.518062 2.111090 -1.495439
C -0.317810 1.986257 -1.717870
C -0.263447 1.903809 -1.949814
C -0.423447 1.596955 -2.230295
C -0.476663 1.493509 -2.420994
C -0.510827 1.538679 -2.562827
C -0.483932 1.716490 -2.548096
C -0.333246 1.891971 -2.354842
C -0.364184 2.147880 -2.148739
C -0.445367 2.352122 -2.046935
C -0.472253 2.392335 -1.861089
C -0.608722 2.311095 -1.769439
C -0.853946 2.180411 -1.833065
C -1.054074 2.056876 -1.846029
C -1.299479 1.896203 -1.927425
C -1.484529 1.612325 -2.079322
C -1.562771 1.372156 -2.150402
C -1.788664 1.161607 -2.263119
C -1.945857 1.081424 -2.293906
C -2.072771 0.997672 -2.156558
C -2.127303 1.002321 -1.979205
C -2.193501 1.171789 -1.764753
C -2.181526 1.472276 -1.513069
C -2.181168 1.815476 -1.148219
C -2.366352 2.170752 -0.567515
C -2.775622 2.233565 -0.075366
C -3.156084 2.051589 0.318548
C -3.538694 1.663960 0.667753
C -3.903738 1.106239 1.052298
C -4.229953 0.586979 1.605926
C -4.534018 0.139939 2.122448
C -4.433684 -0.053823 2.501280
C -3.991409 0.133834 2.892230
C -3.350770 0.676712 3.318611
C -2.738519 1.484211 3.649404
C -2.365864 2.283594 3.614060
C -1.944231 2.728469 3.175458
C -1.672716 2.818217 2.576213
C -1.391976 2.786854 1.969337
C -1.236126 2.487953 1.277653
C -1.440935 1.949974 0.553476
C -1.590634 1.341312 -0.128002
C -1.468931 0.826577 -0.483028
C -1.312728 0.593790 -0.541807
C -1.054056 0.692998 -0.420157
C -0.906930 0.655074 -0.418564
C -1.044034 0.608986 -0.394612
C -0.704544 0.827565 -0.212985
C -0.297982 1.104059 0.016838
C 0.072597 1.318851 0.191624
C 0.320608 1.540383 0.300820
C 0.553025 1.634558 0.436293
C 0.818721 1.796636 0.622917
C 1.314953 2.048606 0.790103
C 1.536579 2.042827 0.842149
C 1.628269 1.971983 0.816319
C 1.610502 1.874472 0.694132
C 1.501119 1.624540 0.359731
C 1.448128 1.417557 0.011139
C 1.520083 1.366916 -0.275933
C 1.586481 1.288119 -0.466105
C 1.640426 1.307679 -0.694547
C 1.792884 1.326432 -0.886928
C 1.915379 1.267044 -1.011229
C 1.930370 1.180639 -1.042303
C 1.955449 1.067930 -1.245340
C 1.757650 0.765363 -1.462101
C 1.589818 0.541027 -1.549914
C 1.494612 0.362341 -1.472370
C 1.523810 0.207907 -1.360545
C 1.569942 0.184618 -1.182975
C 1.790716 0.234976 -1.113277
C 2.033374 0.360945 -0.682727
C 2.349024 0.457244 -0.291723
C 2.643939 0.500450 -0.115097
C 2.931832 0.508692 -0.067902
C 2.843450 0.474151 -0.026384
C 2.780595 0.362630 -0.136005
C 2.688584 0.239317 -0.101470
C 2.603962 -0.018235 -0.350798
C 2.538798 -0.213934 -0.524716
C 2.499689 -0.398863 -0.744208
C 2.354053 -0.617869 -1.010591
C 2.202981 -0.791118 -1.256589
C 2.058609 -0.928179 -1.348074
C 1.881829 -1.014136 -1.431321
C 1.440569 -1.156048 -1.670679
C 0.962362 -1.214627 -1.924285
C 0.518613 -1.242990 -2.025622
C 0.069769 -1.299483 -2.080318
C -0.237458 -1.363640 -2.094906
C -0.615237 -1.466132 -2.186036
C -0.995912 -1.588092 -2.262661
C -1.049366 -1.598137 -2.083568
C -1.179676 -1.787645 -2.047587
C -1.217906 -1.884732 -1.993809
C -1.068642 -1.963269 -1.882653
C -0.860524 -2.195872 -1.826863
C -0.483969 -2.190629 -1.694593
C 0.062180 -2.191241 -1.436521
C 0.476550 -2.226742 -1.298007
C 0.970718 -2.254860 -0.961703
C 1.022637 -2.427740 -0.763662
C 1.121320 -2.529973 -0.614469
C 1.156481 -2.377275 -0.484324
C 1.222976 -2.475649 -0.384347
C 1.133048 -2.509818 -0.311658
C 0.816667 -2.578389 -0.315643
C 0.455455 -2.536371 -0.398084
C 0.357953 -2.428045 -0.437932
C 0.108962 -2.285116 -0.446625
C -0.218570 -2.315657 -0.452707
C -0.441504 -2.173643 -0.456807
C -0.585842 -2.140908 -0.423187
C -0.494819 -2.221430 -0.260108
C -0.279836 -2.206119 -0.102892
C 0.068676 -2.117349 0.080017
C 0.276277 -2.090856 0.251337
C 0.455655 -2.033788 0.411246
C 0.310324 -2.223533 0.536660
C 0.199845 -2.228001 0.555194
C 0.127085 -2.232467 0.639852
C 0.292189 -2.075699 0.741042
C 0.444271 -1.973192 0.870362
C 0.700623 -1.890620 1.030019
C 1.051181 -1.727038 1.214859
C 1.535611 -1.462278 1.347536
C 1.919617 -1.458327 1.587303
C 2.147384 -1.252983 1.686260
C 2.064590 -1.307904 1.803066
C 1.880577 -1.397351 1.857739
C 1.666293 -1.499592 1.956110
C 1.478607 -1.635279 2.136964
C 1.282594 -1.711573 2.205103
C 1.034073 -1.652168 2.188942
C 1.009820 -1.490202 2.282723
C 0.962292 -1.323196 2.342560
C 0.945748 -1.086420 2.518819
C 0.955249 -0.871076 2.567021
C 0.928878 -0.713110 2.618194
C 0.933067 -0.450035 2.760368
C 1.012454 -0.292891 2.830385
C 0.818852 -0.336039 2.622412
C 0.482752 -0.433544 2.428058
C 0.181114 -0.625241 2.212620
C -0.006808 -0.671061 2.156594
C -0.180039 -0.640642 1.989217
C -0.402795 -0.772282 1.784381
C -0.632397 -0.828712 1.695182
C -0.679867 -0.695336 1.979948
C -0.502185 -0.437541 2.216418
C -0.510099 -0.329637 2.449917
C -0.718550 -0.323227 2.332571
C -1.024652 -0.431324 2.224423
C -1.265871 -0.441144 2.239390
C -1.339935 -0.366334 2.312356
C -1.541346 -0.497286 2.152717
C -1.959476 -0.796615 1.966271
