161
chr18 3D structure from Hi-C (resolution 500000bp)
C -0.214304 2.283742 -1.399670
C -0.157170 2.239601 -1.355021
C -0.210018 2.059316 -1.501361
C -0.274944 1.962501 -1.664453
C -0.244448 2.066416 -1.633594
C -0.162066 2.007737 -1.801867
C -0.188017 1.755401 -2.117989
C -0.265777 1.713231 -2.224001
C -0.308399 1.748997 -2.337915
C -0.298325 1.864050 -2.335407
C -0.237021 1.924440 -2.197606
C -0.240935 2.112859 -2.086714
C -0.430243 2.282873 -1.987135
C -0.523053 2.292491 -1.806926
C -0.698043 2.136863 -1.814093
C -0.897638 1.988384 -1.934015
C -1.118446 1.924849 -1.967924
C -1.342256 1.810433 -2.080699
C -1.546097 1.546108 -2.193871
C -1.597643 1.225714 -2.287503
C -1.818846 1.081819 -2.389049
C -1.923563 1.037018 -2.384615
C -2.052362 0.960219 -2.259778
C -2.127586 0.902176 -2.082523
C -2.191638 1.032554 -1.859360
C -2.246588 1.239459 -1.517277
C -2.266870 1.637459 -1.141853
C -2.569470 1.776488 -0.719240
C -3.043041 1.691190 -0.348369
C -3.432006 1.376346 0.014440
C -3.772808 0.893450 0.357884
C -4.090341 0.337691 0.842317
C -4.373837 -0.100985 1.352997
C -4.654830 -0.521383 1.843676
C -4.500881 -0.587321 2.311394
C -4.112036 -0.276324 2.775505
C -3.592633 0.404112 3.270950
C -3.083108 1.301675 3.600737
C -2.699829 2.183761 3.520058
C -2.302249 2.635920 3.108984
C -2.025826 2.758885 2.552324
C -1.638426 2.758078 2.004772
C -1.387719 2.525662 1.353371
C -1.496118 2.062021 0.601126
C -1.549277 1.487789 -0.023237
C -1.513703 0.974822 -0.376354
C -1.340977 0.764607 -0.484745
C -1.108433 0.822955 -0.410384
C -1.037392 0.783739 -0.453232
C -1.125854 0.791291 -0.422754
C -0.767901 0.979578 -0.237930
C -0.396766 1.296047 -0.073391
C -0.041844 1.500742 0.130113
C 0.165880 1.727095 0.293539
C 0.434058 1.839031 0.494091
C 0.749618 2.013211 0.700645
C 1.205316 2.206800 0.827012
C 1.422161 2.237144 0.929282
C 1.477849 2.117570 0.957954
C 1.490496 1.997432 0.815025
C 1.473235 1.740554 0.478496
C 1.455828 1.526717 0.182328
C 1.493858 1.472850 -0.040173
C 1.555161 1.375087 -0.177807
C 1.611913 1.357287 -0.299985
C 1.787491 1.388703 -0.557321
C 1.902270 1.311119 -0.706450
C 1.938289 1.256223 -0.755303
C 1.524323 0.952173 -0.797661
C 1.321994 0.620756 -1.058734
C 1.145750 0.393860 -1.160754
C 1.063418 0.212348 -1.197391
C 1.106585 0.111416 -1.042824
C 1.203988 0.103174 -0.823477
C 1.319104 0.146636 -0.644573
C 2.007518 0.440552 -0.486445
C 2.319054 0.606851 -0.023966
C 2.624925 0.666039 0.201146
C 2.878970 0.690873 0.166667
C 2.804382 0.590442 0.223526
C 2.741381 0.501138 0.128249
C 2.716302 0.356074 -0.003149
C 2.624487 0.165470 -0.208219
C 2.594265 -0.045836 -0.437784
C 2.584812 -0.162735 -0.737590
C 2.520052 -0.347330 -0.904733
C 2.359547 -0.516642 -1.227383
C 2.219693 -0.629375 -1.364744
C 1.994649 -0.681769 -1.384717
C 1.612977 -0.844420 -1.633505
C 1.194647 -0.993646 -1.883846
C 0.726717 -1.095785 -1.945919
C 0.270682 -1.158917 -2.066869
C 0.007313 -1.214697 -2.059045
C -0.334478 -1.429752 -2.175528
C -0.660719 -1.617495 -2.286107
C -0.705559 -1.633902 -2.181820
C -0.828807 -1.713455 -2.260099
C -0.794833 -1.848111 -2.219845
C -0.681822 -1.928207 -2.077310
C -0.518151 -2.186048 -2.024432
C -0.174585 -2.099630 -1.881695
C 0.370580 -2.013327 -1.609741
C 0.699589 -2.013601 -1.343731
C 1.159101 -2.079758 -1.001357
C 1.297702 -2.159535 -0.913521
C 1.417479 -2.272012 -0.784946
C 1.450273 -2.141036 -0.638355
C 1.530867 -2.193669 -0.478323
C 1.454027 -2.261480 -0.437397
C 1.168129 -2.391182 -0.479825
C 0.790193 -2.392798 -0.512618
C 0.545172 -2.330963 -0.436379
C 0.295992 -2.207662 -0.459938
C 0.046824 -2.269196 -0.446488
C -0.204017 -2.215209 -0.469008
C -0.387876 -2.226427 -0.421330
C -0.311860 -2.303010 -0.285822
C -0.092510 -2.267745 -0.104755
C 0.121811 -2.276030 0.085338
C 0.249385 -2.226392 0.261178
C 0.398095 -2.116695 0.386811
C 0.217869 -2.267439 0.397226
C 0.076713 -2.273038 0.391914
C 0.069529 -2.225161 0.509109
C 0.114933 -2.204091 0.632717
C 0.363251 -2.106657 0.803816
C 0.561428 -2.150098 1.050456
C 0.812811 -2.129393 1.212111
C 1.276167 -1.957326 1.438386
C 1.691646 -1.838430 1.727743
C 1.915265 -1.626272 1.782175
C 1.977361 -1.415508 1.862820
C 1.851980 -1.326012 1.873249
C 1.697831 -1.318186 1.922987
C 1.547167 -1.329217 2.139099
C 1.303098 -1.363613 2.223982
C 1.050879 -1.348629 2.254523
C 0.967061 -1.186966 2.371273
C 0.891089 -1.125806 2.464525
C 0.878329 -0.994457 2.601197
C 0.909758 -0.807604 2.650191
C 0.886341 -0.587971 2.693229
C 0.929092 -0.403087 2.847834
C 0.924161 -0.340203 2.845320
C 0.686228 -0.446943 2.629600
C 0.336411 -0.593648 2.422659
C -0.008167 -0.781925 2.237554
C -0.190812 -0.762809 2.136115
C -0.315258 -0.782596 1.943580
C -0.524888 -0.838853 1.686844
C -0.684625 -0.828739 1.589623
C -0.648450 -0.580403 1.863798
C -0.501591 -0.308016 2.085144
C -0.473588 -0.025394 2.276583
C -0.678961 -0.122533 2.130315
C -0.984775 -0.243870 2.012834
C -1.185378 -0.241853 2.047664
C -1.238958 -0.185487 2.112799
C -1.492011 -0.406605 1.939293
C -1.841933 -0.657793 1.728826
