94
chr21 3D structure from Hi-C (resolution 500000bp)
C -0.626114 -0.122292 -4.960112
C -0.367121 0.173628 -4.931383
C -0.359196 0.528739 -4.873155
C -0.415997 0.906077 -4.761691
C -0.170829 1.485985 -4.559307
C 0.141964 2.138114 -4.278450
C 0.433355 2.743305 -3.973015
C 0.727775 3.148103 -3.686784
C 1.146581 3.283192 -3.413790
C 1.761282 3.144115 -3.172743
C 2.415711 2.745603 -3.064698
C 2.918960 2.105952 -3.095856
C 3.226501 1.282039 -3.183129
C 3.422473 0.408648 -3.200546
C 3.522159 -0.465799 -3.095319
C 3.471435 -1.334324 -2.879986
C 3.188863 -2.181389 -2.568105
C 2.838526 -2.881883 -2.186352
C 2.457381 -3.415032 -1.953935
C 2.151121 -3.687938 -1.954254
C 1.696997 -3.784451 -2.119412
C 1.080005 -3.816971 -2.373175
C 0.453404 -3.874665 -2.578927
C 0.035845 -3.868357 -2.466358
C -0.208519 -3.851604 -2.154679
C -0.467662 -3.410204 -1.545185
C -0.775804 -3.078428 -0.623479
C -0.994376 -2.870227 0.383935
C -1.122518 -2.704100 1.336520
C -1.277056 -2.389880 2.003518
C -1.480230 -2.056136 2.151613
C -1.766937 -1.697288 2.094721
C -1.940822 -1.677578 2.042429
C -2.182232 -1.692576 1.751280
C -2.426132 -1.669964 1.374782
C -2.529827 -1.574101 0.918080
C -2.576957 -1.537248 0.584747
C -2.725472 -1.440468 0.327450
C -2.834933 -1.274089 0.160738
C -2.909733 -1.239652 -0.155102
C -2.964363 -1.125145 -0.386826
C -3.074638 -1.102436 -0.673583
C -3.248309 -0.883579 -0.697429
C -3.394634 -0.622755 -0.521765
C -3.401351 -0.350125 -0.340895
C -3.349288 -0.144059 -0.181075
C -3.314249 0.059601 0.063272
C -3.105596 0.247279 0.441309
C -2.872676 0.552364 0.986504
C -2.692058 0.688924 1.194483
C -2.489650 0.828687 1.116007
C -2.400823 0.991583 0.929758
C -2.428208 1.184115 0.623634
C -2.402064 1.406726 0.333890
C -2.428032 1.569398 0.273309
C -2.239101 1.740368 0.275659
C -2.097910 1.906591 0.378790
C -2.089421 2.171166 0.371022
C -1.928078 2.344189 0.569699
C -1.541185 2.375391 0.917777
C -1.211294 2.342198 1.232970
C -0.854653 2.333764 1.233541
C -0.560204 2.478791 1.162537
C -0.152496 2.582175 1.133173
C 0.409054 2.524099 1.358057
C 0.934513 2.527942 1.484370
C 1.166672 2.509953 1.569594
C 1.331644 2.546856 1.692622
C 1.406279 2.599703 1.876775
C 1.388826 2.354360 1.987439
C 1.382157 2.059710 2.163439
C 1.305340 1.834660 2.330942
C 1.075030 1.531806 2.537263
C 0.890622 1.337377 2.648052
C 0.820657 1.057119 2.715458
C 0.826970 0.761849 2.775328
C 0.661321 0.511923 2.678429
C 0.427659 0.199033 2.498701
C 0.210759 -0.118233 2.236190
C 0.312829 -0.275586 2.086489
C 0.524927 -0.397342 1.957050
C 0.861164 -0.339350 1.832243
C 1.139745 -0.289668 1.609885
C 1.784450 -0.227164 1.459435
C 2.374078 -0.073595 1.447412
C 2.992079 -0.007109 1.474840
C 3.273895 0.004879 1.449136
C 3.486876 -0.086307 1.455573
C 3.475267 -0.364110 1.469541
C 3.433596 -0.675260 1.581604
C 3.250276 -1.022281 1.784529
C 3.134910 -1.162595 1.885869
C 2.941812 -1.234255 2.018184
C 2.907764 -1.444900 2.081299
