94
chr21 3D structure from Hi-C (resolution 500000bp)
C -1.373723 4.640475 -0.704308
C -1.537203 4.558878 -0.221987
C -1.782264 4.377866 0.167048
C -2.075781 4.130400 0.411600
C -2.523900 3.823091 0.849967
C -2.943189 3.514903 1.024665
C -3.280328 3.219318 0.881891
C -3.503059 2.945694 0.450742
C -3.545826 2.730700 -0.245216
C -3.366511 2.551991 -1.112940
C -3.055880 2.336776 -2.023689
C -2.687474 1.972342 -2.837013
C -2.406031 1.500880 -3.414653
C -2.345430 1.072683 -3.734133
C -2.472627 0.702120 -3.778889
C -2.760904 0.342335 -3.528141
C -3.165561 0.006738 -2.939646
C -3.566324 -0.269836 -2.209425
C -3.941322 -0.512148 -1.606698
C -4.199334 -0.737103 -1.251055
C -4.183207 -1.080393 -1.139100
C -3.894380 -1.525779 -1.287594
C -3.446765 -2.039198 -1.579609
C -2.911367 -2.592497 -1.837144
C -2.233381 -3.048730 -2.199925
C -1.426753 -3.078538 -2.104285
C -0.507307 -3.054524 -1.883361
C 0.263398 -3.036640 -1.422747
C 0.806364 -3.063265 -0.942381
C 1.117693 -3.047854 -0.416007
C 1.307910 -2.911593 -0.044175
C 1.409448 -2.754660 0.420310
C 1.427625 -2.743726 0.591807
C 1.114976 -2.802788 0.873550
C 0.724542 -2.796390 0.985618
C 0.370973 -2.752869 1.230945
C 0.124196 -2.636096 1.416542
C -0.149259 -2.554998 1.523172
C -0.435181 -2.413125 1.595608
C -0.757812 -2.381345 1.690255
C -0.937915 -2.321999 1.781958
C -1.250179 -2.183053 1.975955
C -1.391209 -2.026524 2.163064
C -1.404240 -1.876018 2.369207
C -1.203571 -1.705745 2.500074
C -1.001959 -1.631078 2.599586
C -0.756666 -1.544309 2.632566
C -0.405507 -1.378645 2.578574
C 0.240598 -1.268175 2.542489
C 0.563625 -1.087290 2.464579
C 0.704538 -0.947964 2.410666
C 0.615157 -0.761296 2.498848
C 0.413794 -0.534844 2.563721
C 0.241417 -0.278566 2.743455
C 0.196563 -0.119599 2.878074
C 0.264362 0.012676 2.801016
C 0.373689 0.212839 2.824076
C 0.442497 0.480224 2.892473
C 0.573184 0.663990 2.781564
C 0.901533 0.756959 2.611077
C 1.172314 0.774713 2.283698
C 1.286147 0.893057 1.996080
C 1.263372 1.284507 1.750610
C 1.380104 1.524318 1.475454
C 1.661315 1.689538 1.101558
C 1.994863 1.831845 0.729735
C 2.185546 1.948002 0.476801
C 2.305323 2.136320 0.386038
C 2.430731 2.219409 0.416847
C 2.532264 1.951061 0.407809
C 2.651142 1.706257 0.335913
C 2.729389 1.424441 0.257322
C 2.785389 1.085783 0.351425
C 2.811617 0.849575 0.381006
C 2.842839 0.512618 0.294639
C 2.813541 0.301838 0.059044
C 2.519271 0.064413 0.065296
C 2.145859 -0.166712 -0.009783
C 1.846826 -0.393901 -0.062492
C 1.703948 -0.446752 -0.243251
C 1.630590 -0.416914 -0.451612
C 1.645081 -0.245174 -0.740412
C 1.629794 -0.081235 -0.997540
C 1.727299 0.153441 -1.560682
C 1.962029 0.351882 -2.004769
C 2.116343 0.492570 -2.468226
C 2.164597 0.617865 -2.758055
C 2.172396 0.583486 -2.985615
C 2.096524 0.387760 -3.102980
C 2.022537 0.464373 -3.156315
C 2.070899 0.624195 -3.030792
C 2.091222 0.615566 -2.938711
C 2.118119 0.734835 -2.785318
C 2.063030 0.808870 -2.787384
