129
chr20 3D structure from Hi-C (resolution 500000bp)
C 0.845791 2.536074 -0.232522
C 0.854390 2.451009 -0.210673
C 0.897456 2.468174 -0.163296
C 0.855497 2.534129 -0.134330
C 0.722682 2.570201 0.001794
C 0.503488 2.489097 -0.009777
C 0.371737 2.455745 0.019675
C 0.217308 2.360007 -0.101849
C -0.014701 2.413010 -0.144564
C -0.279661 2.242712 -0.406481
C -0.451201 2.065063 -0.783498
C -0.614228 1.944491 -1.170953
C -0.700013 2.002880 -1.492081
C -0.841072 2.013233 -1.788325
C -0.940634 1.955296 -2.006421
C -1.110684 1.773175 -2.262227
C -1.238925 1.767001 -2.357436
C -1.339046 1.676327 -2.224869
C -1.453330 1.576313 -2.135064
C -1.497718 1.297775 -2.057075
C -1.551604 1.025138 -2.154019
C -1.600164 0.901417 -2.316756
C -1.563004 0.793461 -2.458889
C -1.645243 0.811348 -2.306298
C -1.770533 0.905373 -2.180795
C -1.964117 0.973111 -2.107367
C -2.133058 1.171868 -1.859972
C -2.287996 1.329426 -1.575599
C -2.487540 1.385142 -1.217948
C -2.611037 1.417798 -0.892707
C -2.621494 1.310362 -0.800510
C -2.647055 1.082702 -0.807352
C -2.596620 1.039739 -0.480522
C -2.517954 0.945085 -0.367928
C -2.442327 0.926358 -0.135871
C -2.390486 0.923107 0.015392
C -2.374926 0.974731 0.223406
C -2.457033 0.958635 0.456974
C -2.588410 0.966415 0.670754
C -2.619198 0.743878 0.548237
C -2.608241 0.474756 0.283385
C -2.615922 0.124355 -0.066180
C -2.662396 -0.104658 -0.210326
C -2.635665 -0.309118 -0.201563
C -2.524282 -0.551904 -0.410746
C -2.305049 -0.728347 -0.635561
C -2.271913 -1.024250 -0.698744
C -2.409400 -1.158074 -0.616989
C -2.427824 -1.252550 -0.728120
C -2.281180 -1.388623 -1.200883
C -1.567766 -0.969365 -1.845327
C -0.768773 -0.409832 -2.216534
C 0.062726 0.043454 -2.507747
C 1.038535 0.444985 -2.939169
C 1.856504 0.533291 -3.369594
C 2.472784 0.631029 -3.587436
C 2.990094 0.665652 -3.557552
C 2.784471 0.039781 -3.611221
C 2.440317 -0.709096 -3.680852
C 1.917639 -1.285464 -3.616774
C 1.157180 -1.259266 -2.795641
C 0.717677 -0.868524 -1.861509
C 0.546616 -0.521215 -1.022176
C 0.449418 -0.071244 -0.186892
C 0.431803 0.608135 0.777107
C 0.384231 1.406483 1.691550
C 0.410723 2.110282 2.517618
C 0.739848 2.292191 2.622151
C 1.194078 2.374076 2.539946
C 1.475082 2.438712 2.553990
C 1.625134 2.489534 2.656982
C 1.635171 2.262215 2.773005
C 1.630432 1.937782 2.766708
C 1.589694 1.598553 2.716102
C 1.403476 1.286309 2.640500
C 0.840859 0.874840 2.625351
C 0.286939 0.492728 2.666568
C -0.229688 0.022739 2.534534
C -0.563881 -0.346352 2.355869
C -0.832351 -0.669989 2.439674
C -1.002977 -0.986227 2.368270
C -1.098589 -1.258594 2.215509
C -1.099249 -1.480232 2.144177
C -0.962352 -1.594771 2.065584
C -0.751061 -1.512919 2.168320
C -0.546087 -1.452534 2.216514
C -0.255828 -1.340269 2.180731
C 0.072852 -1.204420 2.199101
C 0.338355 -0.986275 2.241618
C 0.744878 -0.683764 2.388084
C 1.024763 -0.617951 2.442197
C 1.230399 -0.665390 2.450548
C 1.553825 -0.586573 2.466411
C 1.702772 -0.642159 2.307578
C 1.820104 -0.621686 2.311688
C 2.127150 -0.703567 2.361457
C 2.275273 -0.761593 2.244846
C 2.385512 -0.596153 2.164577
C 2.334552 -0.638158 2.033976
C 2.046895 -0.891055 1.847628
C 1.791117 -1.017070 1.654640
C 1.380764 -1.400856 1.346564
C 0.858045 -1.724291 1.040933
C 0.383691 -2.029531 0.856319
C 0.007515 -2.347231 0.727876
C -0.216411 -2.476465 0.481207
C -0.427457 -2.651262 0.250135
C -0.448436 -2.918927 0.065523
C -0.399871 -2.865588 -0.197440
C -0.264881 -2.824161 -0.266641
C -0.161062 -2.781281 -0.352371
C 0.006638 -2.712062 -0.408418
C 0.235266 -2.654588 -0.357262
C 0.609502 -2.428170 -0.242191
C 0.825546 -2.097111 -0.142589
C 1.090338 -1.936165 0.055585
C 1.182525 -1.792857 0.048694
C 1.206493 -1.846523 -0.124695
C 1.185355 -2.008737 -0.388894
C 1.204914 -2.113344 -0.676681
C 1.183729 -2.265702 -0.904609
C 1.383452 -2.261639 -0.951089
C 1.560702 -2.088006 -0.935802
C 1.918167 -1.781243 -0.820163
C 2.378999 -1.318656 -0.630047
C 2.969013 -0.914888 -0.602652
C 3.254026 -0.614472 -0.438106
C 3.583344 -0.186052 -0.274815
C 3.753596 0.119169 -0.264029
