129
chr20 3D structure from Hi-C (resolution 500000bp)
C -2.419535 0.907880 -1.459368
C -2.234473 0.957583 -1.537166
C -2.217977 1.018101 -1.626618
C -2.256231 1.064787 -1.698168
C -2.135892 1.116942 -1.858643
C -1.992624 0.977944 -2.034329
C -1.899736 0.843823 -2.136343
C -1.807399 0.632341 -2.181605
C -1.821673 0.389314 -2.298338
C -1.645101 -0.009367 -2.371612
C -1.472108 -0.584384 -2.424282
C -1.239819 -1.061550 -2.532317
C -1.231027 -1.356033 -2.627448
C -1.078411 -1.675841 -2.722277
C -0.912471 -1.947163 -2.750568
C -0.684191 -2.235132 -2.695099
C -0.551957 -2.454354 -2.599240
C -0.410014 -2.401477 -2.504883
C -0.260044 -2.479569 -2.288309
C -0.078020 -2.512653 -2.052137
C 0.029075 -2.693403 -1.797025
C 0.185838 -2.914540 -1.608521
C 0.143553 -3.109273 -1.358446
C 0.103427 -3.046816 -1.242470
C -0.018609 -3.129603 -1.053622
C -0.324488 -3.226395 -0.936822
C -0.578109 -3.223066 -0.870635
C -0.914395 -3.045609 -0.853091
C -1.230177 -2.840538 -0.821051
C -1.379299 -2.564702 -0.908003
C -1.488024 -2.518481 -0.841677
C -1.509768 -2.460512 -0.814554
C -1.652361 -2.071009 -0.689273
C -1.693938 -1.889992 -0.563036
C -1.772335 -1.682922 -0.471975
C -1.892177 -1.482836 -0.389410
C -1.933258 -1.355179 -0.248032
C -2.040373 -1.155965 -0.145786
C -2.274660 -1.060981 -0.183988
C -2.223893 -1.213669 -0.156482
C -1.936769 -1.410649 -0.026184
C -1.532939 -1.730418 0.063811
C -1.262946 -1.970785 0.196924
C -1.213878 -2.016995 0.352694
C -0.968276 -2.129574 0.452414
C -0.507569 -2.135673 0.615832
C -0.306341 -2.174905 0.893687
C -0.538188 -1.952408 1.078102
C -0.758747 -1.851532 1.312881
C -0.933093 -1.912822 1.651044
C -1.365155 -1.820908 2.046028
C -1.977024 -1.550109 2.476727
C -2.508795 -1.187413 3.048155
C -2.682536 -0.861174 3.488514
C -2.528985 -0.863282 3.918226
C -2.170233 -0.735023 4.256899
C -1.750066 -0.590314 4.397769
C -0.872353 -0.973468 4.340597
C -0.022197 -1.405801 4.317491
C 0.613542 -1.695453 4.045694
C 0.778054 -1.602276 3.532925
C 0.617493 -1.159449 2.963169
C 0.326582 -0.661913 2.442098
C -0.050263 0.043369 1.935027
C -0.639379 0.936891 1.593753
C -1.216800 1.804039 1.242425
C -1.746046 2.442338 1.079025
C -1.907638 2.815896 0.880062
C -1.940539 3.114345 0.622821
C -1.978412 3.372606 0.368323
C -1.947736 3.549263 0.304359
C -1.803490 3.678395 0.103978
C -1.534161 3.649460 -0.155484
C -1.227289 3.584374 -0.440274
C -0.868715 3.328709 -0.772649
C -0.439878 2.815329 -0.891692
C -0.008098 2.277882 -1.037068
C 0.348363 1.744338 -1.382037
C 0.741389 1.367490 -1.627553
C 1.115161 1.115113 -1.965196
C 1.481138 0.837241 -2.217387
C 1.765853 0.590616 -2.173497
C 1.942047 0.483305 -2.178088
C 1.995440 0.541423 -2.094521
C 2.045458 0.740928 -1.999869
C 1.927328 0.847786 -1.887103
C 1.744126 1.044442 -1.738798
C 1.572163 1.296184 -1.638505
C 1.348214 1.553982 -1.459316
C 1.257368 1.978611 -1.389907
C 1.200614 2.304514 -1.309036
C 1.180002 2.422420 -1.199021
C 1.226361 2.632301 -1.116382
C 1.294494 2.657789 -0.871525
C 1.316123 2.806835 -0.653773
C 1.415918 3.091114 -0.575688
C 1.342966 3.131734 -0.342343
C 1.275339 3.131912 -0.141466
C 1.307197 3.091263 0.004227
C 1.501221 2.786782 0.136473
C 1.606368 2.424718 0.115257
C 1.924365 1.884940 0.046773
C 2.183777 1.227589 0.006750
C 2.363155 0.678927 -0.131497
C 2.542326 0.322546 -0.204251
C 2.615340 -0.056932 -0.238478
C 2.731191 -0.441272 -0.197667
C 2.885880 -0.766749 -0.056188
C 2.844282 -0.965977 0.134845
C 2.809359 -0.959575 0.306233
C 2.738057 -0.937402 0.466405
C 2.622355 -0.913543 0.556049
C 2.552915 -0.741461 0.709487
C 2.460886 -0.344945 0.817630
C 2.268927 0.062678 0.942395
C 2.202751 0.376286 1.043732
C 1.971666 0.476764 1.105771
C 2.089350 0.448649 1.293214
C 2.188355 0.243169 1.479237
C 2.292778 -0.010894 1.678080
C 2.240827 -0.213987 1.844000
C 2.216673 -0.112474 2.038813
C 1.922189 0.108215 2.171100
C 1.833532 0.500120 2.370602
C 1.440370 1.037791 2.483357
C 1.015017 1.584024 2.870729
C 0.747867 2.013170 2.948831
C 0.470365 2.454078 3.079225
C 0.192464 2.657891 3.144221
