498
chr1 3D structure from Hi-C (resolution 500000bp)
C 0.851334 1.146756 3.874970
C 0.469607 1.303396 3.936276
C 0.276797 1.577600 3.944033
C 0.016499 1.663566 3.895329
C -0.861219 1.722706 4.234366
C -1.111438 1.966204 3.954544
C -1.218140 2.192587 3.686429
C -1.307647 2.385936 3.492464
C -1.379095 2.449700 3.352479
C -1.533934 2.262921 3.311081
C -1.600908 2.089283 3.258389
C -1.707634 2.019225 3.143912
C -1.762495 1.813642 3.223234
C -1.865917 1.609507 3.305403
C -1.934806 1.075019 3.422148
C -2.078085 0.627852 3.420626
C -2.083440 0.298211 3.519357
C -2.081191 0.105101 3.582698
C -2.061067 -0.160505 3.732572
C -2.163753 -0.263335 3.750816
C -2.200774 -0.395453 3.706992
C -2.228725 -0.076941 3.683363
C -2.210532 0.375600 3.676892
C -2.240646 0.884664 3.529256
C -2.302903 1.178387 3.332973
C -2.316114 1.411360 3.181266
C -2.297388 1.619309 3.015549
C -2.302088 1.787246 2.972046
C -2.331384 1.565163 2.964259
C -2.306787 1.180102 3.063972
C -2.312986 0.846255 3.218364
C -2.401705 0.755704 3.363462
C -2.498812 0.761495 3.358988
C -2.569740 0.686681 3.346018
C -2.639260 0.655490 3.302785
C -2.716727 0.799850 3.174085
C -2.856162 0.816606 2.967163
C -2.995139 0.792411 2.724037
C -2.995718 0.590300 2.773577
C -3.019441 0.152053 2.885192
C -3.094464 -0.184387 2.957633
C -3.150841 -0.310067 2.967220
C -3.174012 -0.439235 3.007310
C -3.195686 -0.540468 3.083885
C -3.213976 -0.865891 3.134498
C -3.269482 -0.934206 2.943465
C -3.339468 -0.941059 2.797597
C -3.378853 -1.000081 2.684156
C -3.456219 -1.144378 2.636474
C -3.485993 -1.262447 2.484548
C -3.535092 -1.418768 2.372668
C -3.646276 -1.415474 2.220440
C -3.738301 -1.587301 2.140241
C -3.773790 -1.610975 2.057475
C -3.800871 -1.555418 1.977287
C -3.773155 -1.317265 1.925474
C -3.750876 -0.973443 1.921265
C -3.696347 -0.463190 1.898587
C -3.674115 -0.152187 1.890807
C -3.595720 0.112394 1.872409
C -3.669470 0.297264 1.845803
C -3.734239 0.245805 1.779543
C -3.814253 0.069138 1.708091
C -3.908866 -0.015446 1.677570
C -3.908951 0.037566 1.635733
C -3.848286 0.214333 1.576335
C -3.863894 0.432226 1.517143
C -3.955243 0.544848 1.408574
C -4.012992 0.639900 1.367462
C -4.089139 0.734202 1.289082
C -4.085208 0.837173 1.244379
C -4.154196 0.677345 1.207273
C -4.271997 0.399574 1.110749
C -4.282607 0.263960 1.047322
C -4.132194 0.221754 1.028831
C -4.139399 0.147789 0.909137
C -4.043860 0.038447 0.803990
C -4.126634 -0.303406 0.567101
C -4.172264 -0.441657 0.365868
C -4.103751 -0.332475 0.258565
C -4.067294 -0.419098 0.127405
C -4.187646 -0.400551 -0.109707
C -4.151277 -0.147108 -0.145505
C -4.178358 -0.032303 -0.190381
C -4.222119 0.077535 -0.224998
C -4.209700 0.222212 -0.214170
C -4.195511 0.195819 -0.213493
C -4.245876 0.291214 -0.236655
C -4.225404 0.136369 -0.242599
C -4.224821 0.216245 -0.305531
C -4.144024 0.588702 -0.255174
C -3.853070 0.961810 -0.120467
C -3.608654 1.235363 -0.048576
C -3.392732 1.706983 0.047388
C -3.081040 2.062728 0.148858
C -2.568869 2.741092 0.410567
C -2.013829 3.175574 0.660022
C -1.703190 3.357828 0.762170
C -1.543436 3.579525 0.873365
C -1.698797 3.479290 0.590386
C -1.943574 3.236952 0.327633
C -2.276927 3.147270 0.154530
C -2.647037 2.721188 -0.071411
C -3.090569 2.424810 -0.317951
C -3.283603 2.117646 -0.427810
C -3.464689 1.825364 -0.616305
C -3.407113 1.833097 -0.457745
C -3.241129 1.955105 -0.312842
C -3.023850 2.120585 -0.168808
C -2.775190 2.288038 -0.145420
C -2.518627 2.442514 -0.080725
C -2.353407 2.667369 -0.117728
C -2.147403 2.942297 -0.062783
C -2.042039 3.082163 -0.106770
C -1.978288 3.038500 -0.225749
C -1.990924 2.999375 -0.382990
C -2.040317 3.235018 -0.360475
C -1.948841 3.402721 -0.366877
C -1.858651 3.518861 -0.322857
C -1.812744 3.594580 -0.341108
C -1.705590 3.525836 -0.391212
C -1.619649 3.590981 -0.417781
C -1.565290 3.616628 -0.486792
C -1.493345 3.531863 -0.578215
C -1.567866 3.396821 -0.700651
C -1.625138 3.345674 -0.863072
C -1.642561 3.260768 -1.026082
C -1.630213 3.388924 -1.088191
C -1.467433 3.574468 -0.982760
C -1.258952 3.606965 -0.905883
C -1.147980 3.696172 -0.885142
C -1.021591 3.599826 -0.937187
C -0.916022 3.595324 -1.017663
C -0.764935 3.563060 -1.025465
C -0.555922 3.659760 -0.872072
C -0.488487 3.691162 -0.942354
C -0.339909 3.793528 -0.912198
C -0.187495 3.779348 -0.923119
C -0.013466 3.899845 -0.887008
C 0.230925 3.970498 -0.784419
C 0.409055 4.060839 -0.757945
C 0.575288 4.071239 -0.825301
C 0.814221 4.090430 -0.738562
C 1.035751 4.070142 -0.682946
C 1.254825 4.100120 -0.679896
C 1.450331 4.114392 -0.684721
C 1.480326 4.053003 -0.743604
C 1.590940 3.997101 -0.843976
C 1.583151 3.949614 -0.973632
C 1.434341 3.830303 -1.196292
C 1.381522 3.744742 -1.371309
C 1.172522 3.652198 -1.497745
C 0.950911 3.698694 -1.626983
C 0.913156 3.651759 -1.750626
C 0.859728 3.638164 -1.808500
C 0.804078 3.491633 -1.882240
C 0.869561 3.430958 -1.963898
C 0.847245 3.387360 -2.083611
C 1.114046 3.358184 -2.137525
C 1.290290 3.252835 -2.216695
C 1.325998 3.170478 -2.315658
C 1.250562 3.155783 -2.398318
C 1.303327 3.192427 -2.450332
C 1.462478 3.207064 -2.480532
C 1.536853 3.163446 -2.528173
C 1.558005 3.139365 -2.574406
C 1.308439 2.981206 -2.550218
C 1.124158 2.924768 -2.543148
C 1.001771 2.795926 -2.574555
C 0.795881 2.764812 -2.637473
C 0.217644 2.742651 -2.719618
C -0.253158 2.757913 -2.769830
C -0.725141 2.810283 -2.837916
C -0.697114 2.945235 -2.908645
C -0.790666 2.869528 -2.930098
C -1.041892 2.794696 -2.967866
C -1.215581 2.671114 -2.957572
C -1.083707 2.526001 -3.073852
C -1.047981 2.502522 -3.171871
C -1.134143 2.374219 -3.316966
C -1.291288 2.196570 -3.326457
C -1.389621 2.244979 -3.394774
C -1.393196 2.174829 -3.384592
C -1.540823 2.081263 -3.479380
C -1.738970 2.074746 -3.369774
C -1.644233 1.924693 -3.302185
C -1.426534 1.877593 -3.280519
C -1.054344 1.948023 -3.372443
C -0.620632 1.964398 -3.419927
C -0.098323 2.051991 -3.506149
C 0.421179 2.118138 -3.511051
C 0.883423 2.094804 -3.622048
C 1.210470 2.069377 -3.724348
C 1.467344 2.045695 -3.713341
C 1.345967 1.980806 -3.673340
C 1.179628 1.923565 -3.684543
C 0.823030 1.819106 -3.751041
C 0.514944 1.656082 -3.881765
C 0.250203 1.556650 -3.914687
C -0.077152 1.454918 -3.823111
C -0.266572 1.440624 -3.851332
C -0.164287 1.366864 -4.007314
C -0.039669 1.263484 -4.066016
C 0.321922 1.166958 -4.099301
C 0.802024 1.171690 -4.081050
C 0.980904 1.149684 -4.076210
C 1.120777 1.151365 -4.253656
C 1.134678 1.074194 -4.276063
C 1.081876 1.002580 -4.257200
C 1.033729 0.929628 -4.348891
C 0.840638 0.904183 -4.391005
C 0.486310 0.904061 -4.354526
C 0.303487 0.903125 -4.310443
C 0.107672 0.852213 -4.231303
C -0.255671 0.722433 -4.129008
C -0.801626 0.603056 -3.871375
C -1.416073 0.492689 -3.545511
C -1.960402 0.343664 -3.294604
C -2.289613 0.172458 -3.052200
C -2.557670 -0.019124 -2.862313
C -2.812000 -0.118176 -2.617070
C -2.956391 -0.109568 -2.535538
C -2.952497 -0.116802 -2.591415
C -2.826027 -0.079211 -2.726898
C -2.726083 -0.027966 -2.773686
C -2.719558 0.056466 -2.861041
C -2.594722 0.070543 -3.013629
C -2.535803 0.160844 -3.134997
C -2.324244 0.076084 -3.235162
C -2.174625 0.033568 -3.414686
C -2.141811 -0.095700 -3.479406
C -2.061683 -0.175037 -3.604120
C -1.969650 -0.190457 -3.715868
C -1.732971 -0.215847 -3.872001
C -1.509270 -0.332731 -4.080338
C -1.433756 -0.294034 -4.040524
C -1.298166 -0.288073 -3.987643
C -0.359898 0.114687 -3.720484
C 0.553720 0.465250 -3.443662
C 1.387638 0.637263 -3.320366
C 2.030140 0.887470 -3.049041
C 2.794285 1.148591 -2.704483
C 3.596868 1.474991 -2.415344
C 4.371590 1.909619 -1.991621
C 4.104615 2.225369 -1.476631
C 3.801795 2.565245 -0.901596
C 3.601896 2.919823 -0.168891
C 3.407458 3.216062 0.537465
C 3.194396 3.443452 1.218189
C 3.030540 3.533683 1.736488
C 2.931690 3.585774 2.121401
C 3.152265 3.406789 2.069627
C 3.444275 3.211867 1.792158
C 3.724959 3.043570 1.474752
C 3.989232 2.876254 1.195515
C 3.754146 2.586118 1.529064
C 3.447822 2.332905 1.892027
C 2.983965 2.451971 2.131369
C 2.482655 2.617466 2.395738
C 1.951381 2.844817 2.786869
C 1.470712 3.131660 3.120955
C 1.231307 3.389264 3.264889
C 1.504315 3.782282 2.681012
C 1.857901 4.120988 2.037955
C 2.363633 4.030866 1.602533
C 2.928117 3.799152 1.286138
C 3.466176 3.497432 1.106287
C 3.802018 3.149336 1.235128
C 3.828291 2.870992 1.562849
C 3.751436 2.611558 1.989809
C 3.572663 2.380323 2.511093
C 3.296049 2.209615 3.060102
C 2.901294 2.174083 3.551691
C 2.430858 2.235575 3.952821
C 2.068074 2.379482 4.076538
C 1.792456 2.555723 4.110599
C 1.642002 2.724006 4.078376
C 1.579400 2.883103 3.992912
C 0.662083 2.400135 2.912871
C 0.616996 2.662180 2.683304
C 0.695858 2.838909 2.475932
C 0.878676 2.901343 2.315932
C 1.255967 2.755285 2.135753
C 1.595721 2.604814 1.923007
C 1.827084 2.221259 0.935063
C 2.600485 2.684181 2.076944
C 2.535544 2.351431 2.373421
C 1.718700 1.451004 1.551338
C 0.927350 0.567178 0.792946
C 0.367037 0.108673 1.163631
C -0.199709 -0.249020 1.606374
C -0.994567 -0.629804 1.834854
C -1.537194 -1.297199 0.779588
C -2.045995 -1.990511 -0.379577
C -0.774373 -1.439373 -0.080480
C 0.386036 -0.823627 0.158517
C -0.110743 -1.180127 -0.798054
C -0.559114 -1.552140 -1.653850
C -0.769539 -1.692039 -1.493851
C -0.841615 -1.773093 -1.231986
C -0.834299 -1.763512 -0.940209
C -1.784662 -2.421618 -0.925665
C -2.787662 -3.071320 -1.050413
C -2.571268 -2.905688 -0.941294
C -2.632173 -3.013734 -0.906395
C -2.614095 -2.973934 -0.934844
C -2.583297 -2.910127 -0.867601
C -2.625375 -3.032207 -0.725706
C -2.797052 -3.128295 -0.589146
C -2.882247 -3.289761 -0.415387
C -2.935264 -3.482325 -0.484105
C -2.716448 -3.440842 -0.567183
C -2.518464 -3.529758 -0.796739
C -2.303032 -3.619603 -1.115241
C -2.065025 -3.515771 -1.559860
C -1.767593 -3.381058 -1.915979
C -1.536525 -3.197573 -2.179608
C -1.409654 -3.206239 -2.216494
C -1.365233 -3.224111 -2.322087
C -1.374700 -3.196355 -2.224026
C -1.331021 -3.188680 -2.090885
C -1.241285 -3.169154 -2.042476
C -1.085704 -3.136258 -2.129337
C -0.745788 -3.058771 -2.293913
C -0.354086 -2.822285 -2.638310
C 0.076944 -2.599697 -2.912039
C 0.577004 -2.389667 -3.075123
C 0.902268 -2.198847 -3.221702
C 1.053562 -2.119988 -3.124064
C 1.230560 -2.075103 -3.156256
C 1.196989 -2.119636 -3.118256
C 1.015505 -2.232375 -2.997477
C 0.768242 -2.329478 -2.693267
C 0.518284 -2.536360 -2.583071
C 0.376760 -2.637259 -2.570717
C 0.315524 -2.749557 -2.559371
C 0.147352 -2.869874 -2.532924
C 0.140936 -2.952337 -2.535641
C 0.257678 -2.946862 -2.497724
C 0.455089 -2.912196 -2.582294
C 0.594352 -2.898131 -2.625567
C 0.608946 -2.970992 -2.609202
C 0.659437 -2.980965 -2.621323
C 0.734319 -3.103406 -2.493115
C 0.627419 -3.249641 -2.354706
C 0.621977 -3.344278 -2.225875
C 0.567953 -3.427944 -2.129141
C 0.569314 -3.378735 -2.000590
C 0.734264 -3.317822 -1.995865
C 1.013833 -3.232409 -2.070849
C 1.223793 -3.044800 -2.204200
C 1.533452 -2.755978 -2.284738
C 1.658608 -2.658175 -2.291301
C 1.894797 -2.521666 -2.507002
C 2.048798 -2.554973 -2.652152
C 2.053757 -2.529649 -2.551575
C 1.828393 -2.634174 -2.308068
C 1.541266 -2.777872 -2.054087
C 1.284667 -3.062418 -1.804226
C 1.073930 -3.129522 -1.611482
C 0.747341 -3.400079 -1.294984
C 0.493723 -3.523217 -1.027046
C 0.256284 -3.770910 -0.844152
C 0.201671 -3.770582 -0.761901
C 0.265338 -3.884163 -0.703745
C 0.412684 -3.916189 -0.716905
C 0.604165 -3.956482 -0.787670
C 0.862418 -3.821010 -0.834186
C 1.241236 -3.705135 -0.937550
C 1.703874 -3.486617 -1.113252
C 2.121030 -3.356067 -1.329762
C 2.470580 -3.010703 -1.459055
C 2.763770 -2.611111 -1.659256
C 3.118962 -2.248137 -1.874173
C 3.392223 -1.994922 -2.023880
C 3.459529 -1.780599 -2.083175
C 3.536760 -1.548885 -2.032091
C 3.582048 -1.444764 -1.948064
C 3.665616 -1.380423 -1.966422
C 3.641806 -1.381308 -1.830091
C 3.652192 -1.409660 -1.652048
C 3.664425 -1.410265 -1.518245
C 3.707910 -1.460440 -1.436362
C 3.707351 -1.559033 -1.383862
C 3.742618 -1.569583 -1.321889
C 3.876017 -1.419403 -1.231056
C 4.000587 -1.334004 -1.159553
C 4.047283 -1.310663 -1.064020
C 4.026090 -1.327109 -0.978964
C 4.085869 -1.272847 -0.915056
C 4.209689 -1.166190 -0.868318
C 4.186835 -1.223524 -0.799291
C 4.025910 -1.484841 -0.698694
C 3.893454 -1.816965 -0.650127
C 3.694052 -2.270226 -0.568360
C 3.527505 -2.525278 -0.514420
C 3.268920 -2.680489 -0.433142
C 2.919394 -3.026318 -0.336196
C 2.400134 -3.256912 -0.158448
C 1.811908 -3.424002 0.015689
C 1.184603 -3.483555 0.296769
C 0.530914 -3.452139 0.521015
C -0.082652 -3.535646 0.729031
C -0.626871 -3.622392 0.985303
C -1.059859 -3.592302 1.123973
C -1.272102 -3.556783 1.225083
C -1.327757 -3.568324 1.336599
C -1.360674 -3.559288 1.370500
C -1.285251 -3.515700 1.442177
C -1.239485 -3.545046 1.573394
C -1.171990 -3.600808 1.598704
C -1.059898 -3.668527 1.618238
C -0.838365 -3.725064 1.584289
C -0.540413 -3.686805 1.504586
C -0.184943 -3.626813 1.435505
C 0.118666 -3.692129 1.310679
C 0.494844 -3.689047 1.150480
C 0.911451 -3.644536 1.036572
C 1.230926 -3.622738 1.020681
C 1.443906 -3.653709 1.094716
C 1.367758 -3.689998 1.097506
C 1.245889 -3.838365 1.161099
C 1.153579 -3.829896 1.217098
C 1.341316 -3.737570 1.266371
C 1.541987 -3.596914 1.235122
C 1.722576 -3.451211 1.208018
C 1.988684 -3.154082 1.072473
C 2.556680 -2.681222 1.036568
C 3.108161 -2.224154 0.904684
C 3.680051 -1.760729 0.802733
C 3.811802 -1.488434 0.735439
C 3.828140 -1.344097 0.747252
C 3.881444 -1.188552 0.745652
C 3.929346 -1.154201 0.782851
C 3.845052 -1.339958 0.839463
C 3.737313 -1.532717 0.996607
C 3.516395 -1.740930 1.069925
C 3.450956 -1.901975 1.192104
C 3.484197 -1.971976 1.356511
C 3.378388 -2.052623 1.470029
C 3.176624 -2.152906 1.604245
C 3.045989 -2.253010 1.683596
C 2.848661 -2.316967 1.888052
C 2.797923 -2.361917 2.062725
C 2.607390 -2.445189 2.163863
C 2.293099 -2.636397 2.229259
C 2.194288 -2.648277 2.255046
C 2.204578 -2.683047 2.228149
C 1.926061 -2.840369 2.301813
C 1.657302 -2.903885 2.271454
C 1.382969 -2.987255 2.293990
C 1.355412 -2.957097 2.287187
C 1.328718 -2.804525 2.463557
C 1.106479 -2.830584 2.621728
C 0.864124 -2.755326 2.922215
C 0.748154 -2.678761 3.087707
C 0.745424 -2.600113 3.167296
C 0.734600 -2.486065 3.130882
C 0.577666 -2.409858 3.027446
C 0.502574 -2.435128 2.799802
C 0.603146 -2.369738 2.816810
C 0.741012 -2.340261 2.632788
C 0.898567 -2.242408 2.415131
C 1.020819 -2.244642 2.306759
C 1.060318 -2.231608 2.352452
C 1.064994 -2.330524 2.461095
C 0.930115 -2.384978 2.512125
C 0.718863 -2.550251 2.510285
C 0.567261 -2.592099 2.617350
C 0.572223 -2.569609 2.530671
C 0.705456 -2.450798 2.636591
C 1.060268 -2.306262 2.607684
C 1.503143 -2.001552 2.588430
C 2.061863 -1.707921 2.638794
C 2.647921 -1.301136 2.544447
C 3.166974 -0.956081 2.350078
C 3.550236 -0.736325 2.469859
C 3.769797 -0.576781 2.225147
C 3.825541 -0.429201 2.181138
C 3.811118 -0.414251 2.080616
C 3.730331 -0.412534 1.984140
C 3.641516 -0.437281 1.994783
C 3.430786 -0.519002 2.122418
C 3.173597 -0.332890 2.497283
C 3.003118 -0.210988 2.869277
C 2.748227 -0.399177 2.953067
C 2.501571 -0.479657 3.133918
C 2.338255 -0.494433 3.373789
C 2.155405 -0.593822 3.459009
C 2.046719 -0.678092 3.458656
C 1.939515 -1.008391 3.256979
C 1.928584 -1.156096 3.091507
C 2.097788 -1.006283 2.903496
C 2.318881 -0.798289 2.935578
C 2.394238 -0.777224 2.898888
C 2.458627 -0.704864 2.871950
C 2.539616 -0.633521 2.889597
C 2.795782 -0.443670 2.788276
