498
chr1 3D structure from Hi-C (resolution 500000bp)
C 2.931344 2.264263 -3.296544
C 2.783474 2.492633 -3.142992
C 2.605437 2.656865 -3.116679
C 2.485377 2.822792 -2.935365
C 2.374760 3.076011 -2.614697
C 2.161113 3.279909 -2.345216
C 1.939894 3.415527 -2.102960
C 1.667242 3.502599 -2.052772
C 1.524128 3.542289 -1.932892
C 1.624602 3.494950 -1.789135
C 1.739364 3.341253 -1.651947
C 1.763189 3.290863 -1.502381
C 1.897760 3.243142 -1.445700
C 2.126842 3.157673 -1.394706
C 2.453378 3.022279 -1.261810
C 2.760400 2.828298 -1.027662
C 3.018178 2.659981 -0.866572
C 3.188076 2.581977 -0.796534
C 3.402027 2.483661 -0.774921
C 3.507511 2.485294 -0.673796
C 3.473369 2.478692 -0.559367
C 3.378904 2.536662 -0.595173
C 3.067875 2.806912 -0.785430
C 2.563431 3.143876 -0.928106
C 2.205044 3.346372 -0.931884
C 1.878701 3.471366 -0.893205
C 1.648589 3.517232 -0.923238
C 1.481057 3.607792 -0.959147
C 1.589020 3.547999 -0.746764
C 1.901413 3.332040 -0.586442
C 2.341399 3.106249 -0.516266
C 2.501826 3.125416 -0.546689
C 2.605409 3.159234 -0.515644
C 2.652926 3.183821 -0.426116
C 2.641863 3.256387 -0.359061
C 2.463116 3.397583 -0.343984
C 2.351673 3.400649 -0.218801
C 2.131559 3.508157 -0.002110
C 2.241057 3.455190 0.159075
C 2.438328 3.405020 0.304364
C 2.642107 3.377907 0.413279
C 2.807032 3.276788 0.542030
C 2.915330 3.216389 0.575021
C 3.013749 3.170853 0.656251
C 3.299310 2.951133 0.755305
C 3.291563 2.779494 0.847155
C 3.323872 2.581267 0.957765
C 3.365715 2.363883 1.094204
C 3.514051 2.182744 1.159477
C 3.484152 2.072463 1.328412
C 3.610423 1.979039 1.401997
C 3.545615 1.952137 1.605585
C 3.673674 1.861798 1.755300
C 3.618589 1.865723 1.842611
C 3.585087 1.880430 1.914815
C 3.318473 2.137078 1.862563
C 3.130200 2.316556 1.700936
C 2.750244 2.644937 1.509989
C 2.529991 2.857941 1.372640
C 2.308056 3.028507 1.305319
C 2.234243 3.140265 1.299548
C 2.156539 3.244871 1.362121
C 2.251953 3.112717 1.550139
C 2.289557 3.099422 1.684100
C 2.229629 3.107835 1.751352
C 2.063694 3.137788 1.710202
C 1.880575 3.287330 1.638337
C 1.824312 3.278288 1.818936
C 1.763896 3.269952 1.915565
C 1.739886 3.230037 2.015919
C 1.611365 3.329928 1.930064
C 1.678177 3.256071 1.970868
C 1.775900 3.203317 2.153405
C 1.825265 3.108787 2.246633
C 1.735401 3.100887 2.089530
C 1.709724 3.014693 2.171001
C 1.615028 3.003436 2.163670
C 1.730433 2.716202 2.524536
C 1.703166 2.562103 2.763538
C 1.589554 2.505790 2.731417
C 1.524638 2.418474 2.816103
C 1.353631 2.517628 2.958399
C 1.157300 2.610190 2.899240
C 1.032714 2.706263 2.887256
C 0.909551 2.964159 2.776451
C 0.859489 3.058590 2.666328
C 0.837489 3.025352 2.721734
C 0.778208 3.053645 2.744711
C 0.791548 2.938922 2.843441
C 0.660681 3.019180 2.804267
C 0.476167 3.197008 2.470442
C 0.290286 3.140330 2.146798
C 0.052853 3.167046 1.851914
C -0.198981 3.352129 1.417356
C -0.482091 3.401820 0.964430
C -0.773029 3.517733 0.208782
C -0.954801 3.551518 -0.399665
C -1.105427 3.459039 -0.603655
C -1.269309 3.559290 -0.513118
C -1.344764 3.617301 -0.269857
C -1.343326 3.568431 0.138716
C -1.265579 3.670280 0.600237
C -1.050279 3.624206 1.070246
C -0.912537 3.631098 1.513680
C -0.744817 3.554957 1.868850
C -0.595322 3.417185 1.939556
C -0.518395 3.381339 1.867951
C -0.542402 3.315922 1.699095
C -0.615091 3.336895 1.237179
C -0.757309 3.262324 1.003101
C -0.917016 3.199773 0.753174
C -1.148224 3.232269 0.549166
C -1.333604 3.289966 0.284825
C -1.530254 3.227356 0.156923
C -1.553965 3.185222 0.163382
C -1.604501 3.151860 0.292893
C -1.744306 3.335181 0.292588
C -1.865581 3.323386 0.100520
C -1.935929 3.334140 -0.075237
C -1.996617 3.329518 -0.215721
C -2.013611 3.274173 -0.260737
C -2.079223 3.258389 -0.313055
C -2.184968 3.162445 -0.133894
C -2.224290 2.979891 -0.036187
C -2.208072 2.976612 0.254880
C -2.246022 2.935340 0.544305
C -2.319362 2.825317 0.837062
C -2.406178 2.830894 0.992632
C -2.565851 2.891852 0.885788
C -2.625589 2.798714 0.775613
C -2.739195 2.797854 0.671654
C -2.782349 2.675075 0.746987
C -2.834310 2.649971 0.673408
C -2.915445 2.554767 0.598313
C -2.977269 2.525843 0.343658
C -3.019514 2.487029 0.193448
C -3.130908 2.497784 0.030567
C -3.176255 2.441765 0.034900
C -3.248355 2.407622 -0.259733
C -3.288196 2.313702 -0.520276
C -3.317408 2.328525 -0.735462
C -3.377047 2.277788 -0.855600
C -3.405117 2.221050 -1.049643
C -3.364539 2.217680 -1.324202
C -3.387227 2.179649 -1.639080
C -3.418864 2.121585 -1.729480
C -3.482237 2.066863 -1.656699
C -3.504306 1.963323 -1.728826
C -3.537173 1.866613 -1.662107
C -3.554567 1.691654 -1.392434
C -3.650335 1.490176 -1.209203
C -3.593118 1.382851 -1.024696
C -3.580815 1.240201 -1.076503
C -3.560166 1.086381 -1.085844
C -3.607936 0.943010 -1.016206
C -3.588846 0.827488 -0.890332
C -3.664379 0.844636 -0.855463
C -3.674549 0.808308 -0.845069
C -3.842664 0.702571 -0.928121
C -3.962745 0.708145 -0.771096
C -4.037219 0.726031 -0.635656
C -4.097851 0.759031 -0.553065
C -4.162926 0.708011 -0.550122
C -4.211574 0.485825 -0.721690
C -4.266300 0.383474 -0.689643
C -4.279834 0.303828 -0.633054
C -4.091499 0.332703 -0.391018
C -4.040024 0.378906 -0.211920
C -3.967887 0.393836 -0.013811
C -3.914744 0.370462 0.071545
C -3.893124 0.273060 0.211751
C -3.801979 0.149442 0.272038
C -3.742877 0.135228 0.389527
C -3.868138 0.010481 0.280251
C -3.769691 -0.062707 0.283966
C -3.611727 -0.050974 0.471962
C -3.440812 0.091812 0.750137
C -3.364590 0.428002 1.153245
C -3.402389 0.314016 1.202710
C -3.403134 0.058773 1.315910
C -3.287944 0.171775 1.540622
C -3.278520 0.241786 1.687124
C -3.260641 0.291325 1.768280
C -3.257522 0.368284 1.919516
C -3.132382 0.346402 1.999143
C -2.960378 0.625544 2.290662
C -2.879312 1.034602 2.449118
C -3.071489 1.032576 2.381531
C -3.298810 0.771140 2.126022
C -3.580641 0.438494 1.799123
C -3.781989 0.088572 1.441665
C -3.942856 -0.140907 1.206467
C -4.134396 -0.402443 1.044907
C -4.271015 -0.626028 0.927420
C -4.190827 -0.800165 0.890375
C -4.124137 -0.723015 1.028161
C -3.957128 -0.619697 1.364738
C -3.833079 -0.676718 1.688715
C -3.792510 -0.582502 1.838232
C -3.581658 -0.401288 2.032543
C -3.466663 -0.423746 2.086421
C -3.539182 -0.547500 2.166347
C -3.551436 -0.644167 2.179679
C -3.637400 -0.778103 2.086342
C -3.762100 -0.945585 1.880174
C -3.796493 -1.099756 1.809407
C -3.934308 -1.184079 1.815607
C -3.942435 -1.123046 1.878074
C -3.891548 -1.001545 1.917097
C -3.832164 -1.146055 2.069074
C -3.809438 -0.941913 2.181720
C -3.712027 -0.676485 2.275193
C -3.584106 -0.564307 2.403791
C -3.505265 -0.404731 2.478155
C -3.242202 -0.208361 2.665430
C -2.773515 0.017503 2.884739
C -2.299425 0.379294 3.071869
C -1.861799 0.597662 3.204342
C -1.499396 0.787954 3.332977
C -1.183556 0.887066 3.410129
C -0.866195 0.937209 3.467839
C -0.756783 0.932087 3.563941
C -0.870997 0.906184 3.603854
C -1.019890 0.905853 3.600931
C -1.074999 0.758440 3.573233
C -1.176825 0.722238 3.625071
C -1.305001 0.696612 3.637987
C -1.421838 0.573733 3.632533
C -1.540102 0.504572 3.579572
C -1.599133 0.416323 3.624986
C -1.623840 0.305028 3.637846
C -1.709966 0.175121 3.707006
C -1.794250 -0.008837 3.689980
C -1.927871 -0.270973 3.710085
C -2.010572 -0.486917 3.745146
C -2.005155 -0.589559 3.583740
C -2.043208 -0.725358 3.451447
C -2.224765 -0.558688 2.320375
C -2.311680 -0.247588 1.180872
C -2.381558 0.084076 0.161770
C -2.491400 0.152722 -0.844537
C -2.603213 0.284006 -1.925043
C -2.496085 0.617940 -2.919989
C -2.339252 0.974917 -4.032317
C -2.071948 1.014303 -4.162445
C -1.842446 0.869197 -4.315739
C -1.555340 0.726288 -4.511342
C -1.090092 0.998418 -4.693117
C -0.583536 1.254515 -4.843303
C -0.381995 1.057374 -4.924843
C -0.394043 0.716114 -4.979189
C -0.531399 0.352781 -4.957176
C -0.723783 0.112498 -4.902954
C -0.910216 -0.017639 -4.870552
C -1.088622 -0.126683 -4.885722
C -1.161980 0.006782 -4.842039
C -1.325212 0.321013 -4.712138
C -1.310594 0.926318 -4.494514
C -0.978888 1.265717 -3.075412
C -0.579945 1.833153 -2.995097
C -0.244216 2.288725 -2.918452
C -0.038494 2.621182 -2.845727
C -0.610970 1.908670 -2.357836
C -0.793633 1.612462 -2.406950
C -0.979724 1.184447 -2.555000
C -1.406350 1.047933 -3.938631
C -1.942642 0.349498 -3.899924
C -2.430834 -0.338233 -3.845972
C -2.807572 -0.948162 -3.811756
C -2.488781 -0.667641 -4.287886
C -2.744601 -1.153311 -3.956380
C -2.987432 -1.646077 -3.614848
C -2.416530 -1.460121 -3.658501
C -1.750641 -0.941808 -3.774239
C -1.136134 -0.358608 -3.865300
C -0.628576 0.232637 -3.903141
C -0.379738 0.864739 -3.806928
C 0.104750 1.739719 -4.035449
C 0.504532 2.599153 -4.277062
C 0.077556 2.800952 -4.163120
C -0.665291 2.416316 -4.026256
C -1.337400 2.063178 -3.948970
C -1.926879 1.739664 -3.900699
C -2.204870 1.526376 -3.949898
C -2.658121 0.560188 -3.499340
C -3.031534 -0.212037 -3.364185
C -3.332880 -0.960434 -3.216357
C -3.337724 -1.194940 -3.077153
C -2.687509 -1.292603 -1.879865
C -2.210268 -1.477353 -0.553888
C -1.418002 -1.548797 -0.436050
C -0.730594 -1.188849 0.118733
C -0.207695 -1.136810 1.146489
C 0.414680 -0.906167 2.264189
C 0.943032 -0.613028 3.412898
C 0.803963 -0.489170 3.553941
C 1.048023 -0.349154 3.477141
C 0.847671 -0.547133 4.453532
C 1.102750 -0.486414 4.514597
C 1.485429 -0.318694 4.441021
C 1.705697 -0.317001 4.225271
C 1.933046 -0.377570 3.882854
C 2.094170 -0.516247 3.583547
C 2.009175 -0.609647 3.303909
C 2.088190 -0.671316 3.417796
C 2.091041 -0.737687 3.366003
C 2.122104 -0.745975 3.256632
C 2.297549 -0.747455 3.212190
C 2.556591 -0.686703 3.231683
C 2.821470 -0.639543 3.199340
C 2.968606 -0.685504 3.293332
C 2.841653 -0.829126 3.137843
C 2.566244 -1.013083 3.253172
C 2.327600 -1.235005 3.360231
C 1.848650 -1.485298 3.470590
C 1.388128 -1.733143 3.431609
C 1.044458 -1.951337 3.418444
C 0.941865 -2.094986 3.376173
C 0.991397 -2.173935 3.381302
C 1.180771 -2.131243 3.248560
C 1.166411 -2.127826 3.179729
C 1.133545 -2.208905 3.075415
C 1.047439 -2.343206 3.004467
C 0.775219 -2.518867 2.905040
C 0.313102 -2.725124 2.807512
C -0.204363 -2.965154 2.586448
C -0.692392 -3.175172 2.334791
C -0.972216 -3.287458 2.089894
C -0.972259 -3.228510 1.967863
C -1.053697 -3.234385 1.878161
C -1.108681 -3.197686 1.809321
C -0.946151 -3.100565 1.854259
C -0.629742 -2.885592 1.957639
C -0.408359 -2.812394 2.172598
C -0.270104 -2.796943 2.247899
C -0.193951 -2.855117 2.242416
C -0.035735 -2.903299 2.350912
C 0.098550 -2.954375 2.428754
C 0.012221 -3.043501 2.298585
C -0.113358 -3.150190 2.149140
C -0.130331 -3.242487 1.976686
C 0.017240 -3.348240 1.946513
C 0.098140 -3.373860 1.919809
C 0.161036 -3.415443 1.849961
C 0.368500 -3.426228 1.859106
C 0.602311 -3.423721 1.870770
C 0.724567 -3.427371 1.926984
C 0.730697 -3.353790 1.857373
C 0.610467 -3.388415 1.768154
C 0.301843 -3.540544 1.640412
C 0.070207 -3.610384 1.476256
C -0.148595 -3.694532 1.262583
C -0.276006 -3.727011 1.118819
C -0.391391 -3.926750 1.020441
C -0.418123 -4.144139 1.005913
C -0.334509 -4.080265 0.986728
C -0.046348 -3.919396 0.958748
C 0.295066 -3.743611 1.033823
C 0.645721 -3.547549 1.116599
C 0.931680 -3.343393 1.215401
C 1.262839 -3.102318 1.328875
C 1.502143 -2.910221 1.375524
C 1.713701 -2.844650 1.504037
C 1.867010 -2.761155 1.570228
C 1.986572 -2.824546 1.597776
C 1.927062 -3.022554 1.486233
C 1.846691 -3.187554 1.381601
C 1.609825 -3.327546 1.144016
C 1.146246 -3.464206 0.964804
C 0.649863 -3.627652 0.658642
C 0.146051 -3.845508 0.418265
C -0.313123 -3.907847 0.116025
C -0.775639 -3.889447 -0.073741
C -1.257225 -3.965345 -0.333888
C -1.579451 -4.008088 -0.465837
C -1.480678 -3.993733 -0.571693
C -1.479626 -3.961005 -0.684799
C -1.370774 -3.944714 -0.800813
C -1.247871 -3.966304 -0.890277
C -1.122792 -3.927251 -0.992858
C -0.941789 -3.962717 -1.028772
C -0.786761 -3.984916 -1.068819
C -0.740170 -4.026750 -1.108135
C -0.581575 -4.080754 -1.058873
C -0.571093 -4.066441 -1.128285
C -0.801746 -4.014577 -1.292836
C -0.871791 -3.995674 -1.386499
C -0.954091 -3.933612 -1.459392
C -0.995937 -3.800743 -1.540945
C -1.071273 -3.684626 -1.694001
C -1.249698 -3.591649 -1.952557
C -1.137869 -3.581109 -1.967505
C -0.835765 -3.636824 -1.799600
C -0.731063 -3.598248 -1.861420
C -0.725963 -3.501326 -2.056824
C -0.433389 -3.598140 -1.915294
C -0.192514 -3.560605 -1.787368
C 0.188539 -3.584204 -1.515861
C 0.565016 -3.425761 -1.200228
C 0.914853 -3.144771 -0.908788
C 1.489102 -2.807704 -0.434342
C 2.291160 -2.468492 0.139894
C 2.711701 -2.043607 0.382278
C 3.109818 -1.742369 0.756208
C 3.431248 -1.358041 0.933726
C 3.568968 -1.144021 1.027410
C 3.673272 -1.002423 1.058092
C 3.745242 -0.947644 1.101872
C 3.722594 -1.004078 1.105978
C 3.727844 -1.077608 1.168784
C 3.761177 -1.166669 1.120751
C 3.725468 -1.280112 1.173554
C 3.676116 -1.455598 1.045602
C 3.462783 -1.724198 0.852022
C 3.217407 -2.057503 0.622975
C 2.982024 -2.393856 0.432543
C 2.769764 -2.634264 0.160411
C 2.565696 -2.812101 -0.099500
C 2.426157 -3.017227 -0.411233
C 2.489088 -3.097494 -0.527389
C 2.619949 -3.031073 -0.503279
C 2.824071 -2.948049 -0.388072
C 2.964059 -2.845765 -0.301425
C 2.861112 -2.904817 -0.452385
C 2.710783 -2.932807 -0.680153
C 2.555667 -2.967760 -0.823447
C 2.118316 -3.049551 -1.039977
C 1.632866 -3.131699 -1.508401
C 1.182899 -3.213067 -2.028420
C 0.735497 -3.236859 -2.536152
C 0.559357 -3.188825 -2.647275
C 0.445298 -3.167801 -2.677917
C 0.351893 -3.100999 -2.744826
C 0.377078 -3.041387 -2.843831
C 0.559846 -3.011542 -2.796368
C 0.680438 -3.014574 -2.750176
C 0.821021 -2.999528 -2.597141
C 1.022530 -2.923229 -2.647365
C 1.231741 -2.911285 -2.701413
C 1.424674 -2.861372 -2.605246
C 1.665341 -2.835505 -2.453803
C 1.900866 -2.835780 -2.289309
C 2.148158 -2.753269 -2.237043
C 2.416228 -2.657653 -2.198834
C 2.562470 -2.573463 -2.099575
C 2.731685 -2.475608 -1.879626
C 2.769826 -2.413378 -1.845410
C 2.701722 -2.348739 -1.878356
C 2.816438 -2.200793 -1.791409
C 2.941447 -2.099985 -1.544446
C 2.991505 -2.057016 -1.343630
C 3.000488 -1.942552 -1.270312
C 3.094997 -1.734007 -1.420066
C 3.270554 -1.499582 -1.419359
C 3.563703 -1.241703 -1.402255
C 3.678190 -1.062422 -1.445312
C 3.666941 -0.868691 -1.557260
C 3.629032 -0.797310 -1.561682
C 3.517739 -0.799497 -1.445655
C 3.374878 -0.858385 -1.288316
C 3.367566 -0.907816 -1.355490
C 3.151959 -1.033852 -1.389924
C 2.942719 -1.209707 -1.364040
C 2.864619 -1.355650 -1.385014
C 2.843691 -1.365076 -1.554483
C 3.015614 -1.330525 -1.575461
C 3.109713 -1.267608 -1.498574
C 3.223652 -1.255456 -1.268292
C 3.387004 -1.209391 -1.143746
C 3.326310 -1.128252 -1.106759
C 3.223542 -1.140095 -1.322721
C 3.009917 -1.225886 -1.562681
C 2.651711 -1.314172 -1.961989
C 2.272524 -1.474403 -2.412540
C 1.748382 -1.619314 -2.927145
C 1.288547 -1.679167 -3.388356
C 1.092278 -1.724083 -3.816404
C 0.877298 -1.788128 -3.833414
C 0.756362 -1.717393 -3.868932
C 0.693392 -1.759951 -3.823833
C 0.811407 -1.712953 -3.727522
C 0.934583 -1.620056 -3.698500
C 1.108767 -1.560648 -3.603529
C 1.291028 -1.185041 -3.683947
C 1.493420 -0.858023 -3.823253
C 1.677202 -0.836856 -3.673353
C 1.891445 -0.691148 -3.580127
C 2.041828 -0.563985 -3.616446
C 2.170205 -0.496617 -3.454943
C 2.273212 -0.432705 -3.294288
C 2.337734 -0.701973 -2.989980
C 2.155937 -0.884544 -2.833907
C 1.944119 -0.911252 -2.841504
C 1.846667 -0.835969 -3.058681
C 1.686595 -0.809279 -3.120109
C 1.581811 -0.818158 -3.185082
C 1.420199 -0.837605 -3.313083
C 1.142819 -0.843934 -3.502991
