271
chr11 3D structure from Hi-C (resolution 500000bp)
C -3.044590 5.213070 0.461804
C -2.677924 5.068917 0.502025
C -2.377743 5.063115 0.449875
C -2.146191 5.019265 0.426035
C -1.706154 4.832888 0.422785
C -1.059089 4.645526 0.346246
C -0.376607 4.308655 0.275462
C 0.263613 3.996312 0.033930
C 0.753398 3.806290 -0.117023
C 1.084638 3.543762 -0.184102
C 1.373454 3.322561 -0.288619
C 1.805488 3.185366 -0.447918
C 1.837961 3.253759 -0.532471
C 1.646919 3.366950 -0.608998
C 1.284398 3.411988 -0.585102
C 0.862577 3.493603 -0.592795
C 0.594586 3.574090 -0.676857
C 0.486119 3.642273 -0.770819
C 0.213925 3.739386 -0.720906
C 0.161529 3.608272 -0.701961
C 0.184713 3.567519 -0.620455
C 0.423304 3.482537 -0.712131
C 0.808984 3.323248 -0.819829
C 1.050385 3.167179 -0.885824
C 1.211817 3.020556 -1.010987
C 1.283159 2.880956 -1.214065
C 1.381769 2.744339 -1.416657
C 1.589148 2.507699 -1.582060
C 1.753418 2.311747 -1.640216
C 1.916355 2.202175 -1.702541
C 2.014175 2.135445 -1.714566
C 1.839380 2.166642 -1.589031
C 1.752820 2.190670 -1.530897
C 1.460262 2.287911 -1.412092
C 1.093230 2.460919 -1.426389
C 0.747021 2.591740 -1.450607
C 0.426378 2.690405 -1.399292
C 0.432188 2.642918 -1.360897
C 0.780048 2.386837 -1.476990
C 1.213945 2.098924 -1.585129
C 1.780600 1.826096 -1.682707
C 2.259963 1.550038 -1.695063
C 2.506712 1.419095 -1.760414
C 2.832148 1.250028 -1.977410
C 3.025708 1.059147 -2.202652
C 3.136811 1.008175 -2.352774
C 3.183304 0.954548 -2.405436
C 3.257860 0.936961 -2.594793
C 3.207879 1.008254 -2.820732
C 3.209054 1.014683 -2.992284
C 3.100266 1.013955 -3.016576
C 2.933561 1.141807 -3.056051
C 2.607119 1.236154 -3.022997
C 2.238022 1.384055 -3.044159
C 2.011614 1.318487 -3.060080
C 1.982589 1.237897 -3.089788
C 2.079626 1.077935 -3.101127
C 1.935390 1.037652 -3.170266
C 2.011120 0.865214 -3.104292
C 2.092235 0.782966 -3.126902
C 2.018426 0.757215 -3.161723
C 1.759870 0.829339 -2.989423
C 1.324334 0.919433 -2.814948
C 0.787240 1.163962 -2.630737
C 0.384823 1.362600 -2.468377
C -0.192539 1.682308 -2.387934
C -0.532687 1.854683 -2.342812
C -0.749903 1.922885 -2.259503
C -0.817984 1.943185 -2.240772
C -0.752569 1.844662 -2.255912
C -0.422245 1.577927 -2.348245
C 0.117717 1.136975 -2.466801
C 0.654001 0.736453 -2.665266
C 1.031440 0.394021 -2.831506
C 1.484226 0.058405 -3.043898
C 1.746128 -0.204608 -3.314054
C 2.057288 -0.437155 -3.503878
C 2.090332 -0.528287 -3.569383
C 1.971554 -0.487087 -3.655892
C 1.791422 -0.484791 -3.686138
C 1.677481 -0.506755 -3.709143
C 1.561887 -0.486811 -3.675221
C 1.386765 -0.401510 -3.631225
C 1.127679 -0.235709 -3.494133
C 0.943695 -0.106723 -3.244557
C 0.653783 0.099388 -2.931376
C 0.368580 0.344478 -2.603552
C 0.073989 0.615914 -2.238545
C -0.234182 0.912897 -1.818322
C -0.585048 1.167333 -1.436678
C -0.897888 1.402608 -1.125677
C -1.205333 1.533283 -1.110262
C -1.318182 1.514195 -1.124873
C -1.210900 1.295056 -1.322342
C -1.055680 0.931697 -1.836449
C -0.806081 0.483698 -2.311102
C -0.474182 0.022622 -2.823334
C -0.157389 -0.448557 -3.378394
C -0.014791 -0.920565 -4.039908
C -0.656431 -1.348720 -4.592761
C -1.516381 -1.751846 -4.885139
C -2.447671 -2.208322 -4.672331
C -3.389932 -2.720573 -4.525795
C -2.624897 -1.829927 -3.387860
C -1.787309 -1.014993 -2.309022
C -2.158201 -1.409695 -2.280629
C -1.458378 -1.479548 -2.158124
C -0.672246 -1.406537 -2.051560
C 0.196958 -1.129417 -2.034478
C 0.996222 -0.777402 -2.096983
C 0.110993 -1.785446 -3.020296
C -0.903080 -2.516066 -3.670305
C -0.627520 -1.930382 -3.050679
C -0.654909 -1.749613 -2.660264
C -0.787471 -1.510624 -2.329293
C -1.046837 -1.236030 -2.024368
C -1.284211 -0.869340 -1.667841
C -1.539977 -0.565320 -1.338637
C -1.805403 -0.420091 -1.199403
C -2.062929 -0.213847 -1.055208
C -2.334478 0.231740 -0.730126
C -2.588817 0.577409 -0.453399
C -2.864643 0.874436 -0.296059
C -3.114445 0.954564 -0.206133
C -3.344809 1.127343 -0.095139
C -3.570443 1.284576 0.008350
C -3.692734 1.371264 0.132282
C -4.008355 1.207315 0.142828
C -4.319985 1.172324 0.149855
C -4.446227 1.153588 0.301215
C -4.627123 1.219772 0.419484
C -4.779957 1.230713 0.565794
C -4.882115 1.264286 0.767531
C -4.901865 1.246208 0.874655
C -4.720215 1.368743 1.040866
C -4.570219 1.245121 1.204370
C -4.476713 1.043747 1.259683
C -4.337270 0.988942 1.346848
C -4.213354 0.824729 1.351155
C -4.030566 0.619716 1.366603
C -3.897998 0.635320 1.463012
C -3.778681 0.613829 1.473371
C -3.614600 0.689563 1.526469
C -3.475048 0.914683 1.636199
C -3.351736 1.033854 1.744876
C -3.192462 1.204243 1.852830
C -3.021265 1.238448 1.842855
C -2.851608 1.107007 1.788552
C -2.790912 0.993928 1.807230
C -2.707296 0.820646 1.795485
C -2.627992 0.569645 1.717450
C -2.548991 0.323035 1.638920
C -2.472712 0.137604 1.571314
C -2.309714 0.056095 1.476693
C -2.083334 -0.125423 1.358517
C -1.743663 -0.355780 1.154387
C -1.299364 -0.592539 0.886497
C -0.936387 -0.882589 0.574201
C -0.506691 -1.105504 0.341636
C -0.125228 -1.471205 0.059912
C 0.051990 -1.887274 -0.135330
C 0.150789 -2.297651 -0.269722
C 0.058336 -2.448310 -0.296020
C -0.163055 -2.490006 -0.267341
C -0.273084 -2.619630 -0.172261
C -0.367612 -2.798518 -0.225817
C -0.422274 -2.864462 -0.204047
C -0.444671 -2.876150 -0.180081
C -0.540065 -2.749840 -0.122574
C -0.644629 -2.766737 -0.062607
C -0.561467 -2.850189 -0.055329
C -0.522864 -2.752146 -0.055571
C -0.449189 -2.762805 0.034961
C -0.557848 -2.691631 0.163707
C -0.431040 -2.742852 0.171149
C -0.218379 -2.974024 0.176780
C 0.192634 -3.371100 0.127180
C 0.437255 -3.490599 0.098305
C 0.738149 -3.548344 0.083385
C 0.950691 -3.503193 0.056601
C 1.295443 -3.593474 -0.011413
C 1.512540 -3.485427 0.027312
C 1.623421 -3.316949 0.054623
C 1.605854 -2.963597 0.089355
C 1.447255 -2.731392 0.216461
C 1.203525 -2.660934 0.344992
C 0.951709 -2.496293 0.529472
C 0.661094 -2.293768 0.680863
C 0.283377 -2.297932 0.932044
C 0.027643 -2.171831 1.103470
C 0.186718 -2.232460 1.121688
C 0.502619 -2.423067 1.068935
C 0.737434 -2.641883 1.104251
C 1.076684 -2.885746 1.056944
C 1.377613 -3.162309 1.055420
C 1.739344 -3.281898 0.940752
C 2.144605 -3.377550 0.891278
C 2.210680 -3.353999 0.941491
C 2.207145 -3.204320 1.062393
C 2.318923 -3.078893 1.091024
C 2.255473 -3.028020 1.191663
C 2.018541 -2.887622 1.275716
C 1.853155 -2.751271 1.392547
C 1.642020 -2.812287 1.494185
C 1.448625 -2.813813 1.598988
C 1.360538 -2.958960 1.717075
C 1.248730 -2.997822 1.811649
C 1.222397 -2.999143 1.882688
C 1.533436 -3.009584 1.907077
C 1.720371 -2.959896 1.887911
C 1.982027 -2.850713 1.825171
C 2.061003 -2.774342 1.820332
C 1.829276 -2.536583 1.788605
C 1.402170 -2.328475 1.893787
C 0.977656 -2.161679 1.909792
C 0.937506 -1.988245 1.932672
C 0.696296 -1.984131 2.007924
C 0.198600 -1.869584 2.122382
C 0.042965 -1.821525 2.191286
C 0.001259 -1.820466 2.262416
C 0.043516 -1.763956 2.246390
C 0.066200 -1.648577 2.290321
C -0.192024 -1.512771 2.339897
C -0.211992 -1.342430 2.394134
C -0.180947 -1.250654 2.456745
C -0.216079 -1.142255 2.454928
C 0.063446 -1.086304 2.391072
C 0.224942 -1.074991 2.460750
C 0.252228 -0.984333 2.566710
C 0.115755 -0.960186 2.685420
C -0.085994 -0.751324 2.738717
C -0.290619 -0.510146 2.812816
C -0.638354 -0.329320 3.033269
C -1.175509 -0.027080 3.249753
C -1.518811 0.276301 3.324361
C -1.696302 0.542303 3.370957
C -1.749992 0.733527 3.446974
C -1.791890 0.761458 3.548727
C -1.725482 0.708376 3.604410
C -1.570244 0.792350 3.550136
C -1.281132 0.643217 3.533552
C -0.852634 0.413430 3.486294
C -0.572335 0.193426 3.486126
C -0.386234 0.179142 3.419178
C -0.052401 0.012543 3.286403
C 0.383346 -0.166263 3.159931
C 0.514157 -0.265094 3.097595
C 0.534618 -0.214687 3.085632
C 0.498501 -0.047698 3.088217
C 0.530742 0.060760 3.093450
C 0.698620 -0.129662 3.075522
C 0.892473 -0.162094 3.092328
C 1.006827 -0.185023 3.096577
C 1.182534 -0.290851 3.171897
C 1.270501 -0.411106 3.226383
C 1.454149 -0.641331 3.201578
C 1.628602 -0.759709 3.144002
C 1.555319 -0.607428 3.198379
C 1.413548 -0.478465 3.246591
C 1.294838 -0.371844 3.300924
C 1.366846 -0.275961 3.235271
C 1.528594 -0.160561 3.123923
C 1.585623 -0.086103 3.132173
C 1.638909 -0.016601 3.089987
C 1.804333 -0.048852 3.026940
C 1.727214 0.058126 2.983147
C 1.726531 0.231515 3.118409
C 1.812587 0.511041 3.532264
C 1.815539 0.554992 3.639706
C 1.765338 0.808844 3.736615
C 1.728042 0.971974 3.970893
