271
chr11 3D structure from Hi-C (resolution 500000bp)
C -2.724131 4.960438 0.371157
C -2.467179 4.803197 0.405772
C -2.286728 4.784515 0.424774
C -2.113361 4.783698 0.417625
C -1.849652 4.596917 0.280613
C -1.283662 4.469323 0.369249
C -0.625375 4.162184 0.314485
C 0.000838 3.879187 0.102653
C 0.430717 3.717149 -0.046212
C 0.800205 3.486849 -0.174755
C 1.067824 3.283998 -0.340410
C 1.509849 3.218528 -0.408010
C 1.591390 3.242988 -0.499042
C 1.433471 3.297522 -0.481369
C 1.053498 3.356496 -0.503721
C 0.711663 3.458662 -0.548993
C 0.516145 3.566838 -0.598596
C 0.455890 3.556373 -0.621986
C 0.128844 3.598998 -0.711158
C 0.021302 3.487811 -0.675946
C -0.033206 3.488222 -0.779813
C 0.161731 3.419763 -0.847697
C 0.547326 3.269000 -0.895463
C 0.746619 3.126980 -0.915186
C 0.936299 3.046500 -1.026490
C 1.088980 2.922696 -1.118513
C 1.304097 2.790158 -1.308734
C 1.565982 2.613904 -1.397669
C 1.797999 2.396148 -1.341815
C 1.952802 2.270449 -1.343894
C 2.031658 2.184714 -1.395077
C 1.791039 2.184670 -1.357731
C 1.733868 2.196199 -1.304493
C 1.369081 2.287344 -1.239476
C 1.024324 2.348154 -1.221166
C 0.691136 2.429074 -1.337019
C 0.443607 2.470022 -1.319618
C 0.416836 2.411042 -1.302306
C 0.818826 2.163752 -1.277732
C 1.249062 1.975037 -1.328813
C 1.811884 1.744795 -1.409703
C 2.276898 1.575040 -1.471189
C 2.659398 1.494146 -1.471667
C 2.969789 1.424634 -1.654138
C 3.245656 1.298057 -1.801912
C 3.358920 1.314957 -1.967086
C 3.356070 1.262550 -2.080731
C 3.449619 1.257420 -2.214206
C 3.466136 1.268843 -2.301220
C 3.433371 1.269945 -2.382542
C 3.301155 1.244599 -2.440824
C 3.160793 1.294585 -2.490670
C 2.905434 1.338092 -2.524731
C 2.607684 1.416224 -2.586430
C 2.373488 1.389742 -2.681588
C 2.254987 1.347219 -2.808124
C 2.255220 1.205344 -2.941521
C 2.089198 1.194906 -2.996034
C 2.081650 1.108675 -3.040922
C 2.009280 1.052892 -3.065273
C 1.903475 0.995385 -3.085067
C 1.641535 0.997884 -2.938432
C 1.260921 1.043726 -2.816508
C 0.738649 1.200251 -2.700616
C 0.388803 1.321812 -2.565806
C -0.156755 1.512761 -2.478269
C -0.407459 1.625119 -2.430628
C -0.634396 1.695384 -2.335505
C -0.688092 1.707131 -2.297514
C -0.581923 1.673317 -2.224896
C -0.233465 1.466361 -2.215527
C 0.299492 1.108101 -2.311551
C 0.858733 0.759047 -2.420852
C 1.233251 0.490632 -2.579064
C 1.761817 0.188265 -2.695973
C 1.981671 0.053286 -2.963554
C 2.258169 -0.197278 -3.140156
C 2.265670 -0.235016 -3.304256
C 2.215567 -0.281418 -3.393782
C 2.056418 -0.250534 -3.428682
C 1.996018 -0.277177 -3.416226
C 1.865173 -0.290979 -3.472569
C 1.759631 -0.274745 -3.390726
C 1.496713 -0.168786 -3.302714
C 1.295254 -0.086508 -3.055506
C 0.968870 0.137651 -2.726298
C 0.698031 0.340073 -2.414203
C 0.377272 0.586886 -2.064921
C -0.002251 0.881542 -1.668829
C -0.365928 1.054723 -1.311421
C -0.743850 1.252683 -1.167606
C -1.048031 1.383655 -1.140561
C -1.212198 1.350291 -1.227947
C -1.101392 1.133198 -1.421841
C -0.914086 0.813764 -1.963368
C -0.609107 0.427922 -2.374205
C -0.234855 0.040558 -2.866887
C 0.100403 -0.287127 -3.260692
C 0.337803 -0.795605 -3.842811
C -0.160968 -1.225235 -4.382182
C -0.895248 -1.593137 -4.769408
C -1.730014 -2.080716 -4.620058
C -2.583917 -2.586196 -4.596419
C -2.057491 -1.742637 -3.453711
C -1.389004 -0.984706 -2.363451
C -1.755429 -1.304333 -2.333461
C -1.108219 -1.318794 -2.161400
C -0.435131 -1.222503 -1.985442
C 0.301206 -0.895496 -1.907227
C 1.060598 -0.558542 -1.892044
C 0.421802 -1.543882 -2.856548
C -0.359690 -2.259488 -3.529601
C -0.123520 -1.733070 -2.965754
C -0.215115 -1.568045 -2.622348
C -0.419159 -1.356105 -2.301151
C -0.689956 -1.134848 -2.013101
C -0.981695 -0.819325 -1.663377
C -1.279554 -0.514588 -1.334552
C -1.591740 -0.442673 -1.229137
C -1.861162 -0.192287 -1.074538
C -2.204454 0.212360 -0.803061
C -2.504595 0.445924 -0.647736
C -2.805815 0.642410 -0.526739
C -3.040808 0.766392 -0.499278
C -3.295004 0.942161 -0.453240
C -3.535166 1.091168 -0.453571
C -3.701150 1.133060 -0.461612
C -3.971901 1.048312 -0.502802
C -4.217072 1.054602 -0.460220
C -4.337734 0.975786 -0.391641
C -4.557877 1.013789 -0.280156
C -4.708874 1.041503 -0.187968
C -4.793362 1.134359 0.017142
C -4.797490 1.121284 0.205383
C -4.626865 1.181609 0.401045
C -4.465912 1.226559 0.661760
C -4.279483 1.420198 0.878075
C -4.061451 1.505957 1.056489
C -3.814535 1.547704 1.290385
C -3.535534 1.545799 1.410272
C -3.523154 1.391294 1.420808
C -3.471599 1.307113 1.430415
C -3.404669 1.263047 1.419135
C -3.436144 1.027783 1.358395
C -3.535656 0.846682 1.281368
C -3.601233 0.595438 1.194943
C -3.607370 0.384497 1.104909
C -3.372314 0.388735 1.099949
C -3.305373 0.208296 1.071267
C -3.178033 0.019634 1.021166
C -3.052982 -0.031195 1.058453
C -2.907362 -0.156882 1.073401
C -2.800841 -0.264107 0.994819
C -2.656766 -0.388882 0.957219
C -2.393640 -0.525544 0.926759
C -1.955447 -0.623688 0.837656
C -1.455436 -0.794392 0.704944
C -0.950623 -1.079591 0.458332
C -0.554265 -1.325040 0.275018
C -0.054892 -1.575060 0.090180
C 0.244586 -1.942190 -0.107787
C 0.453600 -2.257674 -0.315291
C 0.342526 -2.422812 -0.378328
C 0.062999 -2.497425 -0.425622
C -0.158227 -2.605074 -0.444035
C -0.183072 -2.724963 -0.470171
C -0.255885 -2.824142 -0.426832
C -0.276674 -2.763833 -0.415079
C -0.486726 -2.735839 -0.308219
C -0.622026 -2.714167 -0.264283
C -0.453284 -2.787548 -0.265468
C -0.418355 -2.755488 -0.204885
C -0.280236 -2.738555 -0.149121
C -0.366237 -2.667302 -0.080786
C -0.254110 -2.760872 -0.021436
C 0.067811 -2.923924 -0.052741
C 0.395676 -3.351585 -0.032168
C 0.534302 -3.531820 0.049034
C 0.835191 -3.608279 0.049583
C 0.982617 -3.641160 0.101955
C 1.339433 -3.636273 0.108451
C 1.578544 -3.501988 0.177863
C 1.635846 -3.315642 0.300348
C 1.629648 -2.997531 0.359208
C 1.449562 -2.791060 0.417154
C 1.218285 -2.734615 0.572332
C 0.924778 -2.624442 0.720505
C 0.498701 -2.600352 0.861232
C 0.020079 -2.642236 0.996277
C -0.337099 -2.648044 1.129107
C -0.194145 -2.709980 1.165192
C 0.192527 -2.776887 1.117504
C 0.552504 -2.848157 1.062388
C 0.920901 -2.980146 1.014521
C 1.292521 -3.128094 0.969534
C 1.642194 -3.282368 0.971141
C 2.111184 -3.356440 0.900885
C 2.282808 -3.255848 0.923466
C 2.258489 -3.123013 1.057056
C 2.229686 -3.049572 1.162146
C 2.274306 -2.916901 1.271371
C 2.076641 -2.797844 1.466817
C 1.886557 -2.620419 1.557704
C 1.741523 -2.600912 1.656310
C 1.611931 -2.608007 1.768844
C 1.612673 -2.744448 1.844040
C 1.620868 -2.732354 1.965978
C 1.569586 -2.750700 2.023033
C 1.794551 -2.794365 1.987249
C 1.938073 -2.838640 2.018422
C 2.124283 -2.737638 2.001944
C 2.048465 -2.698121 2.006307
C 1.657460 -2.579544 2.025453
C 1.058119 -2.502016 2.039435
C 0.579278 -2.452401 2.066868
C 0.535088 -2.280645 2.121308
C 0.440395 -2.151572 2.137110
C -0.093446 -2.073447 2.215921
C -0.188367 -1.962306 2.283598
C -0.119251 -1.878222 2.313880
C -0.038592 -1.757573 2.327205
C -0.025123 -1.569951 2.338463
C -0.304125 -1.445232 2.391707
C -0.418857 -1.351874 2.467855
C -0.337925 -1.212257 2.488207
C -0.334573 -1.133659 2.470261
C -0.100501 -1.041415 2.415768
C 0.035214 -0.971845 2.518581
C 0.039080 -0.927061 2.615821
C -0.034095 -0.741006 2.652209
C -0.213129 -0.544863 2.639116
C -0.515411 -0.413894 2.741374
C -0.933893 -0.165385 2.903349
C -1.533969 0.080548 3.078506
C -1.922632 0.272492 3.069250
C -2.152545 0.496396 3.111517
C -2.254099 0.600086 3.177405
C -2.306990 0.626987 3.260397
C -2.214350 0.653875 3.326542
C -2.070819 0.635287 3.322731
C -1.680559 0.557473 3.298776
C -1.193881 0.443107 3.354792
C -0.874183 0.258788 3.415305
C -0.751395 0.113333 3.399008
C -0.398610 0.044195 3.328086
C 0.001709 -0.135982 3.237686
C 0.213963 -0.211670 3.178335
C 0.177739 -0.270005 3.249678
C 0.074553 -0.189739 3.245615
C 0.015919 -0.146330 3.230732
C 0.223943 -0.209853 3.270059
C 0.419796 -0.289134 3.332046
C 0.594506 -0.286304 3.337965
C 0.738288 -0.439347 3.405215
C 0.835378 -0.530151 3.418874
C 1.126846 -0.680266 3.406232
C 1.479685 -0.702591 3.294894
C 1.412046 -0.558692 3.271168
C 1.266708 -0.348335 3.283133
C 1.184934 -0.245576 3.303193
C 1.238953 -0.086977 3.281295
C 1.442935 0.041669 3.187819
C 1.510179 0.138723 3.170203
C 1.505416 0.230365 3.189167
C 1.670662 0.235245 3.138151
C 1.621282 0.297066 3.082307
C 1.570033 0.423975 3.225113
C 1.516988 0.783466 3.519111
C 1.451581 0.880742 3.609293
C 1.311299 1.081039 3.680198
C 1.204395 1.258283 3.866023
