161
chr18 3D structure from Hi-C (resolution 500000bp)
C -1.855701 -0.973245 -2.202334
C -1.697980 -1.009829 -2.356432
C -1.595540 -0.526227 -2.482105
C -1.507281 -0.194044 -2.576640
C -1.217415 -0.129096 -2.794600
C -1.097191 0.060884 -3.023164
C -1.066052 0.410641 -3.190015
C -1.000782 0.651056 -3.278397
C -0.996404 0.774030 -3.309934
C -1.012903 0.562662 -3.311805
C -1.082431 0.175622 -3.272861
C -1.235006 -0.124750 -3.186213
C -1.357997 -0.316920 -3.030931
C -1.475496 -0.384925 -2.887229
C -1.623872 -0.289628 -2.785750
C -1.783843 0.039093 -2.716210
C -1.898853 0.276512 -2.613874
C -2.022843 0.604390 -2.541617
C -2.059484 1.118402 -2.541104
C -2.041980 1.438628 -2.555803
C -2.016995 1.698852 -2.484326
C -2.108551 1.906980 -2.367571
C -2.141207 1.954670 -2.197521
C -2.171861 1.869112 -2.067434
C -2.169290 1.739381 -1.930756
C -2.327482 1.224513 -1.781722
C -2.526578 0.546555 -1.658723
C -2.937891 -0.227489 -1.580432
C -3.392860 -1.282759 -1.227948
C -3.832207 -2.412014 -0.675892
C -4.270667 -3.287818 0.118429
C -4.687784 -3.812179 1.075657
C -4.881676 -3.783253 2.236517
C -5.004627 -3.043782 3.447233
C -4.987460 -1.956105 4.478867
C -4.992237 -0.652185 4.987085
C -5.245122 0.340293 5.121493
C -5.600785 1.142908 4.827696
C -5.663512 1.874257 4.036580
C -5.232280 1.981735 3.014919
C -4.857276 1.815773 1.967404
C -4.467914 1.184648 1.094610
C -3.879286 0.771205 0.416787
C -3.048919 0.856919 -0.110488
C -2.102641 0.993378 -0.493179
C -1.438663 0.790191 -0.546185
C -1.364638 0.732860 -0.543030
C -1.294976 0.444115 -0.590003
C -1.154013 0.426031 -0.597517
C -1.051617 0.419833 -0.604250
C -0.988670 -0.005270 -0.595149
C -0.852310 -0.520218 -0.650289
C -0.745431 -0.922494 -0.671429
C -0.606963 -1.168395 -0.706877
C -0.483913 -1.347433 -0.656213
C -0.347035 -1.672312 -0.666098
C -0.145667 -2.175989 -0.728832
C 0.091296 -2.433743 -0.817785
C 0.199729 -2.526641 -0.876150
C 0.377660 -2.356156 -1.081965
C 0.535717 -1.920392 -1.317736
C 0.654242 -1.682089 -1.470489
C 0.777378 -1.506104 -1.596705
C 0.920885 -1.365082 -1.698208
C 1.061202 -1.129013 -1.853170
C 1.170122 -0.941786 -1.897554
C 1.205008 -0.935620 -1.796047
C 1.243662 -0.968292 -1.707151
C 1.334867 -0.754709 -1.754195
C 1.392881 -0.389098 -1.838290
C 1.327274 -0.087039 -1.810154
C 1.217166 -0.048033 -1.661762
C 1.219093 -0.170498 -1.497786
C 1.288787 -0.368280 -1.437537
C 1.406209 -0.546090 -1.458091
C 1.483292 -1.038913 -1.297339
C 1.552084 -1.519622 -1.065333
C 1.712928 -1.853492 -0.955362
C 1.930439 -1.996351 -0.929856
C 2.052268 -1.956314 -0.960967
C 2.108563 -1.734276 -0.944959
C 2.071621 -1.647396 -0.772881
C 2.145984 -1.361874 -0.797595
C 2.248844 -1.142874 -0.817439
C 2.402206 -0.959462 -0.828445
C 2.416844 -0.683281 -0.856127
C 2.346878 -0.307475 -0.877101
C 2.329251 -0.042913 -0.861183
C 2.232579 0.195563 -0.882657
C 1.991931 0.605879 -0.860336
C 1.713447 1.088270 -0.923799
C 1.415617 1.546540 -0.973864
C 1.121248 1.897791 -0.923728
C 0.966410 2.129801 -0.839184
C 0.739807 2.448246 -0.744179
C 0.634707 2.694383 -0.703255
C 0.576492 2.784427 -0.614045
C 0.592393 2.980025 -0.501307
C 0.627944 2.966828 -0.392195
C 0.794644 2.876645 -0.319916
C 1.085189 2.822486 -0.318101
C 1.363854 2.566631 -0.350059
C 1.727999 2.159325 -0.304385
C 2.119634 1.757097 -0.269775
C 2.364853 1.258257 -0.172802
C 2.426625 1.128677 -0.085778
C 2.570567 1.010812 -0.009843
C 2.493003 0.907695 0.102127
C 2.565012 0.823018 0.254649
C 2.518921 0.900837 0.387338
C 2.261215 1.152908 0.475912
C 2.013866 1.325237 0.531734
C 1.909947 1.420320 0.607853
C 1.620096 1.615392 0.714037
C 1.426492 1.826509 0.794604
C 1.161548 2.008647 0.870421
C 0.976353 2.090617 0.956129
C 1.127769 1.945656 1.054435
C 1.349591 1.845670 1.188677
C 1.506830 1.554062 1.256995
C 1.657834 1.322779 1.311358
C 1.736382 1.123768 1.420545
C 1.761473 1.156366 1.499295
C 1.714012 1.213066 1.589749
C 1.607440 1.188066 1.621472
C 1.620492 0.987909 1.575177
C 1.698302 0.807198 1.585442
C 1.861104 0.529766 1.566702
C 2.029970 0.072102 1.515926
C 2.246989 -0.488091 1.497286
C 2.490920 -0.912103 1.520852
C 2.647148 -1.117929 1.645703
C 2.676150 -1.189837 1.812866
C 2.603200 -1.111433 1.998374
C 2.482121 -1.048240 2.151264
C 2.381041 -0.935883 2.359720
C 2.198109 -0.701019 2.483635
C 1.943871 -0.543005 2.513231
C 1.730562 -0.686899 2.484959
C 1.513035 -0.850038 2.482617
C 1.383356 -1.114984 2.468160
C 1.255039 -1.340150 2.436744
C 1.141901 -1.454355 2.420776
C 1.038473 -1.797662 2.316553
C 1.020740 -2.033465 2.282606
C 0.872912 -1.776091 2.301954
C 0.673639 -1.371529 2.234953
C 0.485015 -0.979724 2.220922
C 0.350525 -0.798133 2.234268
C 0.176669 -0.664651 2.182408
C -0.000919 -0.322768 2.221197
C -0.187607 -0.144434 2.232693
C -0.273816 -0.404615 2.176547
C -0.298460 -0.857758 2.208632
C -0.402984 -1.292835 2.329235
C -0.634671 -1.045671 2.330770
C -0.876142 -0.768802 2.415532
C -1.066379 -0.511246 2.500147
C -1.165713 -0.542906 2.565249
C -1.309245 -0.281858 2.683924
C -1.532677 0.272706 2.787628
