161
chr18 3D structure from Hi-C (resolution 500000bp)
C -1.840958 -0.884861 -2.220641
C -1.732876 -0.888985 -2.334909
C -1.719743 -0.439248 -2.425734
C -1.652222 -0.111992 -2.489309
C -1.412689 0.061854 -2.757540
C -1.222719 0.289333 -3.012555
C -1.217000 0.668614 -3.166676
C -1.271692 0.912362 -3.197686
C -1.242841 1.064135 -3.237332
C -1.223350 0.893190 -3.249093
C -1.235238 0.631052 -3.274548
C -1.288318 0.358031 -3.316146
C -1.403828 0.134529 -3.164017
C -1.517554 0.043043 -2.994095
C -1.691573 0.175739 -2.857526
C -1.933974 0.407393 -2.728551
C -2.094325 0.584982 -2.660907
C -2.253298 0.896682 -2.571471
C -2.390241 1.335657 -2.408918
C -2.472844 1.668321 -2.302635
C -2.511354 1.982011 -2.210125
C -2.541618 2.190854 -2.072400
C -2.455149 2.311937 -1.961083
C -2.456795 2.253981 -1.763363
C -2.430413 2.046857 -1.580546
C -2.520441 1.519602 -1.526874
C -2.634917 0.822977 -1.623508
C -2.980778 -0.042273 -1.705335
C -3.406576 -1.271877 -1.426971
C -3.815421 -2.552287 -0.863686
C -4.121064 -3.519604 -0.053424
C -4.456083 -4.111172 1.002065
C -4.601179 -4.050742 2.314678
C -4.728095 -3.306566 3.679448
C -4.788514 -2.220188 4.828219
C -4.901699 -0.894220 5.400884
C -5.263263 0.108787 5.564574
C -5.719826 0.736958 5.280290
C -5.956322 1.088486 4.326902
C -5.606012 1.119402 3.217143
C -5.275210 0.888354 2.140405
C -4.778203 0.282826 1.261654
C -4.106908 -0.132433 0.578920
C -3.289663 0.037410 0.019477
C -2.360682 0.388057 -0.397916
C -1.639716 0.617564 -0.374189
C -1.526643 0.612245 -0.429164
C -1.407847 0.406377 -0.437680
C -1.325158 0.317663 -0.461500
C -1.235968 0.402045 -0.513062
C -1.071356 -0.035818 -0.620877
C -0.908519 -0.534827 -0.762693
C -0.766968 -1.003498 -0.882299
C -0.653562 -1.283954 -0.900941
C -0.493463 -1.530795 -0.978096
C -0.295535 -1.784316 -1.027561
C -0.036031 -2.300265 -1.128842
C 0.194063 -2.557863 -1.184194
C 0.344086 -2.591022 -1.188812
C 0.428244 -2.464070 -1.183876
C 0.489720 -2.070609 -1.266918
C 0.538135 -1.839106 -1.244260
C 0.579543 -1.640506 -1.288987
C 0.648125 -1.522978 -1.344148
C 0.706456 -1.313113 -1.386380
C 0.766682 -1.109187 -1.453266
C 0.881486 -0.944746 -1.578717
C 1.028537 -0.865163 -1.657329
C 1.132500 -0.594255 -1.823315
C 1.192844 -0.207767 -1.885633
C 1.189176 0.173556 -1.856345
C 1.236932 0.361777 -1.867974
C 1.349233 0.316528 -1.873412
C 1.484412 0.175671 -1.861517
C 1.557146 -0.015824 -1.881529
C 1.746455 -0.383991 -1.875369
C 1.924209 -0.878360 -1.781683
C 2.080444 -1.239230 -1.718887
C 2.229690 -1.415419 -1.687371
C 2.330457 -1.420859 -1.619050
C 2.330886 -1.248298 -1.559480
C 2.371478 -1.129342 -1.430493
C 2.398480 -0.974456 -1.298312
C 2.454181 -0.765154 -1.254287
C 2.608108 -0.510092 -1.252659
C 2.586247 -0.283035 -1.166251
C 2.458881 0.110810 -1.111542
C 2.443332 0.342109 -1.062304
C 2.267756 0.529328 -0.982254
C 1.949064 0.903233 -0.911669
C 1.641455 1.395098 -0.886343
C 1.259914 1.799723 -0.851879
C 0.953329 2.157194 -0.761322
C 0.774403 2.308007 -0.684883
C 0.532118 2.622958 -0.523063
C 0.447811 2.881551 -0.388542
C 0.516789 3.029770 -0.349103
C 0.588462 3.161303 -0.268781
C 0.677970 3.086563 -0.150025
C 0.822764 2.986423 -0.113352
C 1.141108 2.940047 -0.057876
C 1.447870 2.689635 -0.088585
C 1.757418 2.285464 -0.109833
C 2.029644 1.822053 -0.030000
C 2.263052 1.388376 0.011270
C 2.315477 1.241704 0.069339
C 2.495070 1.136984 0.166157
C 2.395855 1.060117 0.291080
C 2.422800 0.966995 0.442858
C 2.494249 1.018837 0.539683
C 2.310453 1.291031 0.653120
C 2.065852 1.430026 0.775243
C 1.932528 1.555553 0.878289
C 1.630101 1.728782 0.952159
C 1.468679 1.893067 1.059716
C 1.244620 2.038149 1.155696
C 1.014880 2.100887 1.267426
C 1.077254 1.963636 1.400865
C 1.301649 1.841219 1.485445
C 1.546388 1.593002 1.532191
C 1.687728 1.350161 1.558557
C 1.676489 1.141018 1.610887
C 1.610713 1.178415 1.670309
C 1.510558 1.251904 1.747158
C 1.469988 1.161136 1.709630
C 1.485563 0.991215 1.702111
C 1.613367 0.802859 1.689279
C 1.808141 0.604163 1.772881
C 2.155521 0.255044 1.726352
C 2.526775 -0.286661 1.642170
C 2.829315 -0.786304 1.529683
C 2.994422 -1.081619 1.559551
C 3.008098 -1.335106 1.558275
C 2.906089 -1.416504 1.676409
C 2.808846 -1.466610 1.723158
C 2.636813 -1.511343 1.852221
C 2.397892 -1.364373 2.008267
C 2.170604 -1.212532 2.131969
C 2.001121 -1.317752 2.081387
C 1.872739 -1.379862 2.159595
C 1.733967 -1.569993 2.146383
C 1.612657 -1.792945 2.120358
C 1.500916 -1.908347 2.115788
C 1.440110 -2.146238 2.089793
C 1.402943 -2.306397 2.114662
C 1.181472 -1.995910 2.238799
C 0.882148 -1.562305 2.270487
C 0.646159 -1.173808 2.328188
C 0.463372 -0.989830 2.314802
C 0.292613 -0.792087 2.281665
C 0.055585 -0.528814 2.263201
C -0.128461 -0.407945 2.201704
C -0.199789 -0.693159 2.074329
C -0.191818 -1.196311 1.995882
C -0.283215 -1.661324 2.020023
C -0.480989 -1.450872 2.097486
C -0.696593 -1.201703 2.250963
C -0.856582 -1.084711 2.428643
C -0.928284 -1.128353 2.525795
C -1.046706 -0.892885 2.726971
C -1.265998 -0.360999 2.968175
