181
chr16 3D structure from Hi-C (resolution 500000bp)
C -3.513866 -0.063078 -1.588805
C -3.601380 0.069695 -1.550414
C -3.541473 0.181525 -1.643639
C -3.369351 0.234655 -1.699904
C -3.211789 0.375851 -1.837225
C -3.070230 0.545710 -1.851264
C -2.843784 0.692928 -1.855143
C -2.290258 0.986307 -1.690383
C -1.583272 1.272286 -1.553958
C -0.951729 1.622245 -1.290517
C -0.478142 1.932457 -1.025280
C 0.084047 2.260673 -0.668913
C 0.673198 2.463751 -0.504025
C 1.165623 2.740384 -0.342747
C 1.093143 2.611866 -0.412169
C 0.967764 2.588669 -0.490722
C 0.852438 2.493473 -0.625288
C 0.692346 2.525318 -0.775550
C 0.336936 2.521417 -0.956782
C -0.059842 2.284246 -1.179615
C -0.493853 2.167901 -1.371913
C -0.654236 2.347955 -1.478937
C -0.622811 2.254602 -1.543253
C -0.551759 2.235891 -1.572089
C -0.489065 2.136806 -1.652324
C -0.620520 2.126550 -1.686431
C -1.047227 2.221575 -1.343913
C -1.411646 2.147648 -0.941079
C -1.800261 2.083722 -0.485420
C -2.354327 2.232372 -0.125916
C -2.936493 2.368507 0.126459
C -2.993994 2.378400 0.031098
C -2.573093 2.350500 -0.086182
C -2.006773 2.586761 -0.507251
C -1.570644 2.762386 -1.062589
C -1.027178 2.655998 -1.658188
C -0.499796 2.385330 -2.172869
C 0.141386 2.163508 -2.596063
C 0.125933 2.010344 -2.705695
C -0.101449 1.893659 -2.873404
C -0.133477 1.521251 -3.093452
C -0.056102 1.194997 -3.244278
C 0.041635 1.171885 -3.335533
C 0.059636 1.064871 -3.543245
C -0.146933 0.799535 -3.643421
C -0.001628 0.678779 -3.631491
C 0.114118 0.538222 -3.545969
C 0.266930 0.532165 -3.239919
C 0.574126 0.618815 -2.947060
C 0.748064 0.688137 -2.701875
C 0.923204 0.830521 -2.437079
C 1.150962 0.939948 -2.353273
C 1.276582 0.941648 -2.318594
C 1.368877 0.857645 -2.417059
C 1.066285 0.586281 -2.643199
C 0.512437 0.218674 -2.875551
C -0.130618 -0.215503 -3.022057
C -0.694350 -0.560336 -3.104397
C -1.271696 -0.800883 -3.061521
C -1.724471 -0.822190 -2.942566
C -1.882179 -0.418525 -2.406612
C -1.958920 0.309555 -1.768021
C -1.956094 0.990582 -0.983790
C -1.871136 1.671949 -0.262195
C -1.685010 2.403516 0.421700
C -1.359530 3.128643 1.035357
C -1.038559 3.561291 1.657442
C -0.817866 3.664290 1.907700
C -0.345851 3.552199 2.053614
C -0.040416 3.486195 2.235760
C 0.071923 3.351883 2.437336
C -0.008778 3.082829 2.692219
C -0.233488 2.697603 2.995991
C -0.622729 2.325797 3.265395
C -1.094255 1.842206 3.613388
C -1.545250 1.298348 3.932948
C -1.827478 0.701305 4.041090
C -2.000693 0.104514 4.032196
C -2.162947 -0.452854 3.939202
C -2.351176 -0.945034 3.755207
C -2.585126 -1.342045 3.466358
C -2.879993 -1.623824 3.076684
C -3.218496 -1.746428 2.625452
C -3.552576 -1.686826 2.196299
C -3.827864 -1.483133 1.873406
C -4.005897 -1.196274 1.707495
C -4.079848 -0.840209 1.687980
C -4.054286 -0.394416 1.786405
C -3.921115 0.121082 1.981287
C -2.985532 0.745153 2.001391
C -2.350184 0.949839 1.952204
C -1.741706 1.024349 2.108724
C -1.078660 1.161212 2.165464
C -0.479936 1.212079 2.073157
C 0.414308 1.289260 1.721484
C 1.269745 1.197796 1.271585
C 1.311912 0.813097 1.035543
C 1.613807 0.649850 0.809417
C 1.987381 0.528081 0.330601
C 2.379780 0.460665 -0.006416
C 2.751414 0.421156 -0.208863
C 2.793344 0.248542 -0.140704
C 2.789543 0.158812 -0.003039
C 2.859108 0.125554 -0.080637
C 2.952587 0.172541 -0.004411
C 2.952489 0.248420 0.162449
C 2.951091 0.187992 0.197998
C 2.934406 0.092361 0.143186
C 3.013549 -0.031644 0.012370
C 3.026170 -0.231891 -0.218037
C 2.700544 -0.519902 -0.228246
C 2.228395 -0.806204 -0.307101
C 1.941319 -1.182227 -0.453609
C 1.563291 -1.415692 -0.334788
C 1.289273 -1.547541 -0.155529
C 1.177577 -1.477834 0.198140
C 1.114656 -1.186472 0.656453
C 1.378434 -0.798825 1.086985
C 1.831069 -0.371749 1.564347
C 2.070513 0.141853 2.044487
C 2.278135 0.411596 2.228163
C 2.423075 0.623783 2.421849
C 2.236769 0.580423 2.527540
C 2.125580 0.441478 2.635105
C 1.987300 0.367438 2.821749
C 1.902252 0.194564 2.853377
C 1.851120 0.003803 2.874468
C 1.852934 -0.080508 2.864435
C 1.864508 -0.214046 2.753574
C 1.836754 -0.247950 2.471379
C 1.507042 -0.607483 2.096971
C 1.007475 -1.034458 1.585513
C 0.415806 -1.449524 1.104381
C -0.092048 -1.824953 0.637840
C -0.636831 -2.257818 0.351599
C -1.138193 -2.620952 0.063168
C -1.515025 -3.033895 -0.083612
C -1.607055 -3.227268 -0.076934
C -1.397216 -3.297904 0.055020
C -1.085768 -3.233138 0.321150
C -0.841484 -3.157418 0.483341
C -0.541961 -3.051045 0.696799
C -0.302955 -2.986943 1.031914
C -0.014943 -2.788062 1.310023
C 0.306117 -2.556578 1.519333
C 0.475552 -2.485719 1.695036
C 0.564370 -2.527497 1.678747
C 0.667883 -2.549295 1.630346
C 0.863684 -2.614464 1.526597
C 1.114420 -2.603815 1.460090
C 1.272192 -2.654266 1.424892
C 1.431019 -2.695381 1.302197
C 1.583450 -2.532830 1.130636
C 1.704111 -2.255824 1.044140
C 1.879583 -2.104035 1.057053
C 1.932250 -1.877139 0.991333
C 1.998637 -1.777128 0.847704
C 2.084497 -1.684776 0.714942
C 2.014224 -1.608170 0.601248
C 2.003917 -1.696132 0.469264
C 1.953673 -1.829492 0.312482
C 2.016080 -1.886285 0.204096
C 2.032609 -1.911195 0.116821
C 1.983572 -1.856399 -0.043318
C 1.942902 -1.851360 -0.307461
C 1.905184 -1.810468 -0.562816
C 1.761415 -1.846996 -0.737903
C 1.663461 -1.924503 -0.857481
C 1.370172 -1.990574 -1.024341
C 1.268409 -2.042691 -1.284125
C 1.200217 -2.129123 -1.484339
C 1.072480 -2.202427 -1.672746
C 0.874660 -2.291876 -1.750178
C 0.797904 -2.372684 -1.898024
C 0.590113 -2.435226 -1.998124
C 0.351224 -2.475909 -2.088540
C -0.120261 -2.587712 -2.081140
C -0.865020 -2.632250 -1.952582
C -1.227234 -2.698330 -1.903465
C -1.482611 -2.786051 -1.879120
C -1.912266 -2.702050 -1.713892
