181
chr16 3D structure from Hi-C (resolution 500000bp)
C 2.334007 2.462436 -1.393103
C 2.258154 2.644290 -1.229354
C 2.192010 2.641331 -1.313227
C 2.106198 2.514897 -1.396450
C 2.002401 2.339346 -1.617425
C 1.959224 2.095724 -1.801241
C 1.856840 1.834228 -1.936783
C 1.426967 1.355125 -2.062712
C 0.961133 0.672433 -2.239018
C 0.412975 0.114155 -2.274460
C -0.057899 -0.322002 -2.226801
C -0.630239 -0.696886 -2.036318
C -1.209026 -1.034078 -1.913056
C -1.713353 -1.312544 -1.826260
C -1.559535 -1.203407 -1.773779
C -1.383496 -1.116187 -1.886720
C -1.098805 -1.039633 -2.021537
C -0.818848 -0.924358 -2.185195
C -0.408491 -0.758239 -2.428203
C 0.004057 -0.506075 -2.536052
C 0.409903 -0.194419 -2.711157
C 0.464916 -0.104887 -2.882277
C 0.483852 -0.016121 -2.873191
C 0.360983 0.027516 -2.799944
C 0.206309 0.019057 -2.799760
C 0.032538 0.137756 -2.845348
C -0.048404 0.666127 -2.301370
C -0.212549 1.133498 -1.668578
C -0.437515 1.649940 -1.099628
C -0.737394 2.201393 -0.696452
C -1.000578 2.725839 -0.362372
C -1.080360 2.946805 -0.367750
C -1.205455 2.907351 -0.252554
C -1.669209 2.483529 -0.734331
C -2.004857 2.148274 -1.253878
C -2.017814 1.685648 -1.697627
C -1.862251 1.303156 -2.045832
C -1.687850 0.968438 -2.317586
C -1.673053 1.031788 -2.185063
C -1.640411 1.317725 -2.111848
C -1.390513 1.557105 -2.064161
C -1.231897 1.678257 -1.963156
C -1.243000 1.834833 -1.896572
C -1.288349 1.967143 -1.926616
C -1.048224 2.098246 -1.867610
C -1.031620 2.049944 -1.783103
C -0.939342 1.898067 -1.731228
C -0.859071 1.547665 -1.691626
C -0.829382 1.170894 -1.659648
C -0.904224 0.859205 -1.623952
C -0.870843 0.550491 -1.472166
C -0.860199 0.412229 -1.494626
C -0.718619 0.367800 -1.668326
C -0.656678 0.447513 -1.793523
C -0.530346 0.858403 -1.802849
C -0.330100 1.373453 -1.728398
C 0.001624 1.884123 -1.623556
C 0.271756 2.344244 -1.565705
C 0.421144 2.621828 -1.429631
C 0.589102 2.730960 -1.380761
C 0.317136 2.444211 -1.146374
C -0.262287 2.155284 -0.824843
C -0.836907 1.880499 -0.592037
C -1.456522 1.688177 -0.404292
C -2.151733 1.443469 -0.308104
C -2.915038 1.014844 -0.247421
C -3.578800 0.665028 0.015654
C -3.747973 0.435997 0.122639
C -3.669045 0.111091 0.085808
C -3.648146 -0.210019 0.203812
C -3.487371 -0.399366 0.606847
C -3.119310 -0.216495 1.053564
C -2.695711 0.277744 1.440334
C -2.379010 0.900043 1.731406
C -2.273979 1.593358 1.950243
C -2.164915 2.165223 2.115087
C -1.937630 2.666084 2.205425
C -1.514861 3.052819 2.112318
C -1.247048 3.133216 2.099044
C -1.246879 2.945217 2.270888
C -1.244082 2.611861 2.565365
C -1.061555 2.297840 2.943919
C -0.724687 2.081497 3.297470
C -0.388786 1.956094 3.531408
C -0.424469 1.810186 3.669706
C -0.844062 1.603646 3.677526
C -1.129962 1.524439 3.530519
C -1.414608 1.485921 3.320353
C -1.777927 1.419623 3.047047
C -2.204317 1.019132 2.337982
C -2.067715 0.520537 1.508944
C -1.809146 -0.105996 0.710858
C -1.401010 -0.728418 -0.007054
C -0.806416 -1.266778 -0.638546
C -0.292666 -1.766537 -1.219955
C 0.220984 -2.168490 -1.716275
C 0.758164 -2.292188 -1.765783
C 0.741565 -2.317185 -1.664259
C 0.567798 -2.321661 -1.522929
C 0.498733 -2.361482 -1.268464
C 0.268037 -2.424324 -1.086971
C 0.119923 -2.451700 -0.895822
C 0.071672 -2.469864 -0.710750
C 0.228475 -2.479995 -0.649543
C 0.160685 -2.624991 -0.508455
C 0.055038 -2.613204 -0.394067
C -0.012197 -2.630020 -0.308042
C 0.018766 -2.594835 -0.256737
C 0.219194 -2.644896 -0.228996
C 0.451084 -2.622025 -0.258447
C 0.501623 -2.474705 -0.256098
C 0.748898 -2.165994 -0.372648
C 1.092261 -2.092008 -0.409569
C 1.419106 -1.924132 -0.451316
C 1.605213 -1.869637 -0.392628
C 1.384066 -1.838596 -0.225369
C 0.972776 -1.912396 -0.061213
C 0.519247 -2.086248 0.138846
C -0.087147 -2.333578 0.489815
C -0.638617 -2.476827 0.769586
C -1.115850 -2.517054 0.922253
C -1.464411 -2.543432 1.085441
C -1.561493 -2.398570 1.168427
C -1.486649 -2.270794 1.370435
C -1.499831 -2.171724 1.584437
C -1.425168 -2.119900 1.664709
C -1.353160 -2.059794 1.738031
C -1.231667 -2.048910 1.805651
C -1.109558 -2.025333 1.812880
C -0.862940 -1.981328 1.747068
C -0.338227 -1.747616 1.587918
C 0.161657 -1.243742 1.420232
C 0.720435 -0.709290 1.414863
C 1.254741 -0.261668 1.318761
C 1.779095 0.148097 1.342571
C 2.232277 0.641456 1.368676
C 2.575602 0.985338 1.527505
C 2.543640 1.186969 1.684102
C 2.510111 0.980312 1.868549
C 2.325552 0.737304 1.916069
C 2.148540 0.599296 1.936330
C 1.955464 0.406329 2.034938
C 1.763916 0.132137 2.199005
C 1.534927 -0.098460 2.198799
C 1.233334 -0.396048 2.174362
C 1.036052 -0.565650 2.248908
C 1.131527 -0.731977 2.232637
C 1.189913 -0.838019 2.208830
C 1.151164 -1.008956 2.210093
C 0.955967 -1.118179 2.226756
C 0.893058 -1.266615 2.278699
C 0.959235 -1.393815 2.312687
C 0.977270 -1.469089 2.086103
C 0.739857 -1.526522 1.905750
C 0.544914 -1.672811 1.849113
C 0.495983 -1.723012 1.698761
C 0.611241 -1.850473 1.487308
C 0.651055 -1.909443 1.336737
C 0.768033 -1.865966 1.119545
C 0.935046 -1.860799 1.072731
C 1.162146 -1.809193 1.028413
C 1.286426 -1.806881 1.016746
C 1.259018 -1.708987 0.911588
C 1.214500 -1.647697 0.808144
C 1.301861 -1.465726 0.670518
C 1.365380 -1.311669 0.603737
C 1.459693 -1.141729 0.495649
C 1.574157 -1.005121 0.461633
C 1.760282 -0.761852 0.288372
C 1.979707 -0.628771 0.135989
C 2.292042 -0.468854 -0.029352
C 2.547253 -0.371000 -0.114734
C 2.667184 -0.252659 -0.187954
C 2.824755 -0.185012 -0.204870
C 2.926779 0.008508 -0.277892
C 2.991997 0.215254 -0.218381
C 3.063150 0.533537 -0.143889
C 3.027704 1.081088 0.115094
C 3.016356 1.318089 0.137145
C 3.064096 1.514721 0.195426
C 2.907990 1.853296 0.253526
