319
chr7 3D structure from Hi-C (resolution 500000bp)
C -4.322441 0.513950 -0.696271
C -4.304682 0.246313 -0.435638
C -4.212848 0.093649 -0.438131
C -4.023050 0.071922 -0.618254
C -3.689697 -0.115124 -0.821478
C -3.457675 -0.105814 -1.170969
C -3.276679 -0.091713 -1.380475
C -3.180657 -0.161025 -1.413491
C -3.132096 -0.239384 -1.417634
C -3.068510 -0.365523 -1.247011
C -3.186364 -0.540638 -1.042839
C -3.299303 -0.864033 -0.731531
C -3.358903 -1.280069 -0.378327
C -3.076305 -1.664900 -0.357998
C -2.563422 -1.911221 -0.723407
C -1.969728 -2.012142 -1.333733
C -1.425784 -2.076494 -1.966939
C -0.906319 -2.220757 -2.436473
C -0.536311 -2.331918 -2.630105
C -0.187151 -2.458650 -2.837238
C -0.029794 -2.515873 -2.990127
C -0.040831 -2.597303 -2.906777
C -0.115990 -2.723767 -2.755515
C -0.094833 -2.812411 -2.637414
C -0.044991 -2.834411 -2.582658
C 0.079479 -2.770705 -2.703266
C 0.199824 -2.730192 -2.824678
C 0.265973 -2.675690 -2.885273
C 0.392503 -2.709563 -2.926853
C 0.534332 -2.628313 -2.968592
C 0.442477 -2.691279 -2.884061
C 0.332640 -2.813954 -2.564393
C 0.227072 -2.948675 -2.292333
C 0.190336 -2.984837 -2.149854
C 0.182948 -3.066139 -1.987642
C 0.179228 -3.075232 -1.936714
C 0.135489 -3.210926 -1.756067
C 0.033443 -3.254327 -1.503634
C 0.091566 -3.272796 -1.599641
C 0.024191 -3.262880 -1.603394
C -0.103814 -3.299410 -1.490591
C -0.308564 -3.291336 -1.283526
C -0.668033 -3.302845 -0.911616
C -1.000447 -3.235128 -0.616554
C -1.123108 -3.230380 -0.591535
C -1.334900 -3.202576 -0.479533
C -1.545431 -3.163808 -0.246472
C -1.723738 -3.081256 -0.203118
C -1.889611 -2.981727 -0.250554
C -2.030196 -2.905098 -0.216763
C -2.084325 -2.885541 -0.359356
C -2.173297 -2.761048 -0.499770
C -2.216431 -2.726828 -0.424356
C -2.138804 -2.726001 -0.539191
C -2.139841 -2.725132 -0.477646
C -2.050440 -2.714096 -0.592840
C -1.916597 -2.645799 -0.806679
C -1.915891 -2.564700 -0.678069
C -1.935926 -2.495462 -0.640116
C -1.853383 -2.350876 -0.912282
C -1.822551 -2.180601 -1.155904
C -1.724004 -2.044195 -1.448843
C -1.772278 -2.106565 -1.398779
C -1.626932 -2.061554 -1.505613
C -1.350768 -1.988061 -1.866775
C -1.121533 -1.893452 -2.164670
C -1.044916 -1.856158 -2.225417
C -1.011182 -1.889212 -2.303798
C -1.111344 -1.911029 -2.055823
C -1.178148 -1.732915 -2.047465
C -1.252563 -1.811117 -1.860978
C -1.450874 -1.896533 -1.567472
C -1.545715 -2.037403 -1.163519
C -1.715110 -2.054810 -0.895814
C -1.774418 -2.062661 -0.716063
C -1.750962 -2.024297 -0.893035
C -1.725306 -1.997297 -0.836269
C -1.829210 -1.897355 -1.096939
C -1.700916 -1.730397 -1.397628
C -1.731726 -1.501250 -1.695352
C -1.709944 -1.360925 -1.891944
C -1.735856 -1.228112 -2.058314
C -1.719890 -1.107517 -2.083878
C -1.760039 -1.053150 -2.143697
C -1.874366 -1.007822 -1.803046
C -2.239114 -1.029465 -1.445227
C -2.506582 -1.079275 -1.096584
C -2.639500 -1.054111 -0.953113
C -2.734435 -0.969124 -0.865825
C -2.684804 -0.893669 -0.915895
C -2.506251 -0.797087 -1.092712
C -2.313399 -0.703662 -1.373348
C -2.107755 -0.636322 -1.602637
C -1.682639 -0.605602 -1.937730
C -1.315013 -0.637466 -2.250012
C -0.895171 -0.713616 -2.416514
C -0.663442 -0.829036 -2.500684
C -0.672378 -0.920312 -2.392555
C -0.547792 -0.892406 -2.498546
C -0.361344 -0.815943 -2.718703
C -0.285267 -0.703355 -2.891039
C -0.262766 -0.570525 -2.961436
C -0.304949 -0.421757 -2.999527
C -0.250989 -0.252093 -3.115261
C -0.007741 -0.110444 -3.412619
C 0.162676 -0.031199 -3.518218
C 0.230999 0.011366 -3.501372
C 0.056564 0.034445 -3.286458
C -0.163259 0.126806 -3.025981
C -0.366100 0.271516 -2.930676
C -0.662599 0.534511 -2.994454
C -0.863865 0.765299 -2.996454
C -0.941036 1.012486 -3.126336
C -1.156908 1.520842 -3.362863
C -1.606574 2.236998 -3.303892
C -2.070461 2.853031 -3.105301
C -2.544514 3.448572 -2.771298
C -2.756655 4.034644 -2.456184
C -2.726557 4.449328 -2.553480
C -2.743037 4.719264 -2.618322
C -2.473164 4.655206 -2.719208
C -1.810540 4.291676 -3.198243
C -1.042611 4.032159 -3.680781
C -0.334759 3.664726 -4.124966
C 0.056356 3.267344 -4.347643
C 0.220202 2.925044 -4.109468
C 0.171024 2.653825 -3.718947
C -0.067280 2.458798 -3.194777
C -0.466572 2.262151 -2.409178
C -0.784103 1.893716 -1.810377
C -1.135960 1.585416 -1.198825
C -1.373963 1.384802 -0.809202
C -1.446780 1.383968 -0.740849
C -1.398012 1.433624 -0.760707
C -1.175081 1.460116 -0.886636
C -0.912894 1.551190 -1.210308
C -0.904006 1.628236 -1.295545
C -0.750501 1.698063 -1.487565
C -0.556513 1.613277 -1.540424
C -0.556359 1.617374 -1.515635
C -0.608654 1.620961 -1.502130
C -0.684002 1.569376 -1.400319
C -0.939381 1.534954 -1.203213
C -1.298979 1.530072 -0.885739
C -1.562130 1.462412 -0.578489
C -1.909462 1.282786 -0.113169
C -2.431660 0.976479 0.565537
C -2.989853 0.680283 1.369011
C -3.300809 0.416744 1.933083
C -3.269842 0.101427 2.321443
C -2.863580 -0.583346 2.607431
C -2.554016 -0.960717 2.734109
C -2.165152 -1.145161 2.657046
C -1.410116 -1.185756 2.172403
C -0.452122 -1.220303 1.477492
C 0.265425 -1.177399 0.931755
C 0.956058 -1.105100 0.376935
C 1.481210 -0.554369 -0.347629
C 1.924198 -0.216991 -0.865956
C 2.328605 0.039072 -1.311374
C 2.332711 -0.086976 -1.142340
C 2.362231 -0.144956 -1.050807
C 2.415269 -0.205147 -0.967004
C 2.482530 -0.317019 -0.874435
C 2.534820 -0.517831 -0.726670
C 2.629894 -0.699759 -0.621878
C 2.720164 -0.879169 -0.483999
C 2.976234 -0.819524 -0.638982
C 3.102883 -0.830754 -0.612752
C 3.213624 -0.820240 -0.572890
C 3.143620 -0.863267 -0.463755
C 2.976611 -0.943335 -0.265867
C 2.749832 -1.012352 -0.062732
C 2.575109 -1.120931 0.172371
C 2.549512 -1.172543 0.233861
C 2.556186 -1.081023 0.164277
C 2.524152 -1.014966 0.106499
C 2.508046 -1.104393 0.222872
C 2.470640 -1.093647 0.290414
C 2.583394 -0.976013 0.168274
C 2.597938 -0.862976 0.067231
C 2.254511 -0.932782 0.376925
C 1.872896 -1.132066 0.767158
C 1.662697 -1.411250 1.135390
C 1.690889 -1.357204 1.124947
C 1.769794 -1.301204 0.995853
C 1.752657 -1.335922 1.103995
C 1.777344 -1.407236 1.177031
C 1.968184 -1.254701 0.984639
C 2.044738 -1.160027 0.882272
C 2.042575 -1.076937 0.806900
C 1.851944 -0.795654 0.732826
C 1.763997 -0.531911 0.698536
C 1.354932 -0.411514 0.842098
C 0.881037 -0.232015 0.992345
C 0.375012 -0.220526 1.270389
C -0.035625 -0.142219 1.513857
C -0.605700 -0.086510 1.840640
C -1.094047 -0.207041 2.294643
C -1.527861 -0.323062 2.681959
C -1.626185 -0.449978 2.898179
C -1.678390 -0.597249 3.150046
C -1.425442 -0.771809 3.301342
C -1.103943 -0.983825 3.373852
C -0.601565 -1.032799 3.187918
C -0.113086 -1.151698 3.035078
C 0.257618 -1.260958 2.894337
C 0.431552 -1.287520 2.860867
C 0.611734 -1.253481 2.747052
C 0.538929 -1.138757 2.706624
C 0.488958 -1.014459 2.659175
C 0.382582 -0.973704 2.786828
C 0.265946 -0.881220 2.812338
C 0.317430 -0.817167 2.853998
C 0.733942 -0.573547 2.537941
C 1.259089 -0.336542 2.154326
C 1.796684 -0.048776 1.679895
C 2.285665 0.169385 1.322088
C 2.652833 0.364504 0.977905
C 2.871520 0.377714 0.937799
C 3.120810 0.491330 0.816197
C 3.045547 0.425665 0.964657
C 2.934910 0.308170 1.183283
C 2.903738 0.160235 1.372391
C 2.901480 0.057880 1.481912
C 2.951555 -0.067871 1.601601
C 2.969311 -0.078187 1.593532
C 3.016427 -0.129046 1.642988
C 3.229439 -0.119274 1.591856
C 3.195023 -0.126345 1.671335
C 2.945085 -0.142731 1.828182
C 2.629473 -0.162954 2.004350
C 2.449879 -0.064083 2.057039
C 2.573956 0.049606 1.933704
C 2.629527 0.184282 1.746677
C 2.624283 0.247851 1.675736
C 2.798357 0.350772 1.517919
C 2.886648 0.320823 1.512303
C 2.969554 0.326161 1.504466
C 2.918006 0.317205 1.593881
C 2.889270 0.374651 1.673904
C 2.784188 0.417868 1.730443
C 2.644461 0.514985 1.813510
C 2.508462 0.627345 1.773212
C 2.522724 0.819539 1.704342
C 2.687182 1.074655 1.533980
C 2.828916 1.297141 1.419678
C 2.860593 1.422340 1.355343
C 2.873182 1.514337 1.452328
C 2.798954 1.506464 1.641703
C 2.696464 1.463715 1.924524
C 2.645362 1.510427 1.957889
C 2.261481 1.327049 2.159633
C 1.823271 1.143827 2.367825
C 1.230143 0.980341 2.729154
C 0.653210 0.768758 3.015824
C 0.223213 0.675710 3.111069
C -0.119363 0.520971 3.251798
C -0.473122 0.412619 3.452304
C -0.654069 0.366842 3.582305
C -0.609478 0.468107 3.569377
C -0.356792 0.627597 3.370729
C -0.155048 0.756467 3.288094
C 0.017772 0.773335 3.222229
C 0.156830 0.824037 3.088868
C 0.299049 0.892266 2.918122
C 0.471637 1.015792 2.867752
C 0.470906 0.947390 2.899476
C 0.496673 0.893344 2.907264
C 0.690955 0.981153 2.629604
C 0.983673 1.206992 2.324779
C 1.219685 1.440733 2.044726
C 1.341217 1.486382 2.001672
C 1.402895 1.622634 1.914852
C 1.468981 1.768200 1.795125
C 1.299840 1.766296 1.858213
C 0.977353 1.653789 2.074973
C 0.585279 1.534237 2.330926
C 0.242389 1.454681 2.561773
C 0.092647 1.532325 2.532265
C 0.074603 1.575507 2.528239
C -0.028479 2.138162 2.445572
C -0.448724 2.786730 2.192608
C -0.216056 3.031387 2.094160
C 0.069431 3.313956 2.101941
C 0.362195 3.524899 2.036083
C 0.587338 3.586303 1.990356
C 0.879011 3.678352 1.701498
C 1.276134 3.276034 1.496035
C 2.131195 2.879976 1.333950
C 2.298342 2.983050 1.080340
C 2.426147 2.954367 0.733978
C 2.477654 2.949488 0.497827
C 2.497427 3.163798 0.477740
C 2.152098 3.063802 0.722186
C 1.699214 2.948257 1.006590
C 1.210441 2.843778 1.374198
C 0.642385 2.667883 1.782106
C 0.073529 2.502855 2.067031
C -0.447801 2.386634 2.392789
C -0.883773 2.151982 2.526351
C -1.084340 2.148566 2.568896
C -1.026846 2.242993 2.457606
C -0.733987 2.407761 2.072408
C -0.316523 2.644097 1.544390
C 0.069522 2.921456 1.175598
C 0.366688 3.097020 0.856842
C 0.463307 3.158943 0.688272
C 0.525117 3.259072 0.584358
C 0.540446 3.293996 0.510603
C 0.224084 3.181084 0.759735
C -0.077826 3.028470 1.031945
C -0.255846 3.101109 1.055672
C -0.313448 3.325846 0.903082
C -0.328803 3.340199 0.841929
C -0.248864 3.485961 0.603247
C -0.296281 3.562210 0.551688
C -0.182234 3.757198 0.323082
C -0.016980 4.014312 0.051556
