319
chr7 3D structure from Hi-C (resolution 500000bp)
C 0.184835 4.201059 -1.157841
C -0.177517 4.123256 -1.102373
C -0.256475 3.975168 -1.177259
C -0.131524 3.782593 -1.334076
C -0.098273 3.465304 -1.519099
C 0.148248 3.272887 -1.664375
C 0.272379 3.106487 -1.808261
C 0.237951 3.004730 -1.882129
C 0.217817 2.978863 -1.981738
C 0.010679 2.927580 -1.946428
C -0.322363 2.994019 -1.900700
C -0.736048 2.979898 -1.916639
C -1.255922 2.914545 -1.903501
C -1.469849 2.544797 -2.090195
C -1.373109 1.949847 -2.427534
C -0.969559 1.278999 -2.768491
C -0.556003 0.743082 -3.188471
C -0.227791 0.219129 -3.539797
C -0.178459 -0.165001 -3.716633
C -0.126211 -0.548418 -3.916912
C 0.012686 -0.772155 -3.972181
C -0.061851 -0.822111 -3.932063
C -0.325331 -0.820530 -3.862314
C -0.419367 -0.909039 -3.778892
C -0.369837 -0.917004 -3.697379
C -0.215373 -1.015182 -3.689328
C -0.053346 -1.123549 -3.694690
C 0.020218 -1.175331 -3.666051
C 0.202611 -1.237675 -3.671964
C 0.333329 -1.280835 -3.702917
C 0.249788 -1.173172 -3.697551
C -0.120800 -1.107238 -3.530015
C -0.379419 -1.070582 -3.404377
C -0.505300 -1.063612 -3.393600
C -0.701571 -1.042893 -3.355155
C -0.890868 -1.048886 -3.348034
C -1.094771 -1.036489 -3.300818
C -1.325256 -1.002806 -3.153672
C -1.256602 -1.121427 -3.247768
C -1.349295 -1.056677 -3.247717
C -1.464936 -0.918546 -3.159912
C -1.640840 -0.711469 -3.068682
C -1.879124 -0.382278 -2.935874
C -2.109898 -0.008032 -2.710418
C -2.158485 0.226554 -2.676977
C -2.295924 0.510556 -2.598879
C -2.402151 0.742551 -2.476763
C -2.416869 0.995080 -2.446104
C -2.406049 1.177761 -2.433935
C -2.420656 1.377293 -2.320017
C -2.248379 1.424656 -2.487836
C -2.144893 1.441318 -2.576094
C -2.196019 1.396684 -2.530502
C -2.115054 1.318670 -2.589717
C -2.133574 1.182292 -2.543547
C -2.015875 1.083098 -2.614877
C -1.883739 0.897631 -2.748703
C -1.921227 0.897711 -2.561963
C -1.846818 0.970707 -2.463663
C -1.526618 0.947485 -2.532517
C -1.234289 0.988803 -2.629906
C -0.971326 0.942080 -2.712288
C -0.959467 1.067114 -2.684503
C -0.774414 1.016488 -2.647145
C -0.459758 0.797146 -2.879766
C -0.159850 0.561064 -2.988368
C -0.068050 0.525037 -3.005907
C -0.048240 0.435566 -3.015717
C -0.281037 0.542930 -2.887325
C -0.298429 0.520908 -2.808774
C -0.440541 0.561515 -2.760059
C -0.734900 0.688448 -2.571995
C -1.133040 0.836832 -2.395511
C -1.348477 0.949471 -2.272601
C -1.448387 1.007719 -2.169079
C -1.202184 1.050291 -2.248901
C -1.127506 1.069349 -2.193724
C -0.947238 1.079073 -2.256670
C -0.587661 1.028926 -2.405393
C -0.187831 1.050179 -2.553652
C 0.069456 1.096224 -2.640578
C 0.297882 1.145812 -2.692238
C 0.431731 1.161228 -2.690927
C 0.495358 1.217056 -2.720193
C 0.334349 1.468598 -2.569089
C 0.032049 1.807688 -2.307052
C -0.304056 2.046289 -2.043370
C -0.430337 2.180100 -1.909925
C -0.469199 2.330618 -1.821052
C -0.422980 2.301791 -1.794110
C -0.175139 2.125109 -1.843467
C 0.067783 1.957596 -1.934418
C 0.264942 1.734872 -2.064337
C 0.553419 1.384202 -2.258452
C 0.822826 0.945116 -2.402625
C 0.945416 0.507852 -2.483112
C 0.968137 0.268255 -2.529077
C 0.802538 0.245931 -2.455955
C 0.911111 0.032246 -2.458863
C 1.136003 -0.173104 -2.510304
C 1.389669 -0.260745 -2.549981
C 1.487342 -0.172339 -2.536363
C 1.609068 -0.078230 -2.493028
C 1.779798 -0.042150 -2.478897
C 2.115839 -0.194599 -2.537712
C 2.266327 -0.253433 -2.555399
C 2.282963 -0.234328 -2.500574
C 2.110922 -0.072314 -2.367484
C 1.972368 0.154260 -2.178801
C 1.984941 0.432612 -2.050946
C 2.198139 0.696368 -1.986978
C 2.332897 0.989413 -1.903247
C 2.567769 1.197982 -1.868044
C 3.153319 1.274455 -1.836252
C 3.939717 0.866241 -1.603708
C 4.634577 0.233744 -1.473966
C 5.172617 -0.460294 -1.347400
C 5.272039 0.035782 -0.817895
C 5.524973 0.283124 -0.637238
C 5.684958 0.514931 -0.499058
C 5.675823 0.649284 -0.419652
C 5.440873 1.106753 -0.636252
C 5.227748 1.773784 -0.591173
C 4.988269 2.306014 -0.626835
C 5.025203 1.740621 -0.910353
C 4.739502 1.320939 -0.942000
C 4.339357 1.164077 -0.824826
C 3.810867 1.166408 -0.659390
C 3.182498 1.384310 -0.383642
C 2.487162 1.396649 -0.311372
C 1.776482 1.625441 -0.109539
C 1.304996 1.822515 -0.034826
C 1.252518 1.930682 0.008202
C 1.362168 1.811098 0.018395
C 1.487683 1.661961 -0.035558
C 1.733736 1.332481 -0.126776
C 1.877516 1.331182 -0.183753
C 2.086732 1.183417 -0.256628
C 2.055650 0.994078 -0.272868
C 2.043294 0.939467 -0.264026
C 1.998950 0.956046 -0.243413
C 1.901442 1.019944 -0.203499
C 1.691389 1.317265 -0.089306
C 1.442202 1.656505 0.093105
C 1.168084 1.906562 0.244974
C 0.712546 2.199682 0.348737
C -0.011428 2.684674 0.612827
C -0.678185 3.307737 0.902528
C -1.244698 3.531683 1.067149
C -1.710402 3.423097 1.114644
C -2.309920 2.968425 1.079442
C -2.561776 2.612892 1.000042
C -2.513238 2.196732 0.950177
C -2.152462 1.420150 0.692399
C -1.679327 0.379832 0.373578
C -1.219991 -0.305112 0.190789
C -0.689936 -0.934284 0.008367
C 0.179976 -1.407775 -0.181374
C 0.736470 -1.833152 -0.267286
C 1.150765 -2.242585 -0.378372
C 0.918899 -2.300428 -0.351368
C 0.752530 -2.338191 -0.326048
C 0.618284 -2.388107 -0.324655
C 0.515855 -2.446528 -0.299428
C 0.382824 -2.498961 -0.242214
C 0.315663 -2.604082 -0.217606
C 0.197667 -2.700258 -0.205068
C 0.391256 -2.888857 -0.193818
C 0.375265 -3.017794 -0.218574
C 0.362202 -3.128226 -0.211302
C 0.210903 -3.121937 -0.197554
C -0.095126 -2.988226 -0.166467
C -0.442683 -2.780091 -0.139327
C -0.712583 -2.596008 -0.048731
C -0.764074 -2.627797 -0.034900
C -0.806452 -2.668252 -0.005549
C -0.866470 -2.724350 0.037659
C -1.033910 -2.715405 0.111670
C -1.015336 -2.676599 0.137771
C -0.894621 -2.802572 0.137846
C -0.874809 -2.854314 0.116396
C -1.158247 -2.508573 0.214602
C -1.426014 -2.130401 0.312213
C -1.672491 -1.900136 0.364128
C -1.624051 -1.935987 0.345258
C -1.600049 -2.072638 0.370718
C -1.594870 -2.030946 0.408292
C -1.582674 -2.053852 0.429505
C -1.425847 -2.243288 0.396839
C -1.297999 -2.307318 0.396658
C -1.012434 -2.236878 0.428950
C -0.874963 -1.999370 0.455540
C -0.507497 -1.817826 0.499034
C -0.620142 -1.369070 0.607872
C -0.700147 -0.827057 0.761817
C -0.879830 -0.315275 0.888425
C -1.050736 0.110576 0.997647
C -1.515327 0.628365 1.112241
C -1.860910 1.117126 1.302782
C -2.377890 1.580139 1.441229
C -2.601383 1.691647 1.499263
C -2.835616 1.685342 1.545193
C -3.015345 1.427539 1.584753
C -3.135273 1.069194 1.593494
C -3.032083 0.549016 1.546168
C -2.943187 0.093745 1.472944
C -2.864794 -0.334893 1.394890
C -2.817374 -0.518867 1.390467
C -2.706266 -0.650657 1.390161
C -2.592078 -0.601317 1.398527
C -2.514491 -0.534162 1.451272
C -2.493689 -0.388265 1.523492
C -2.475846 -0.273616 1.583892
C -2.395657 -0.293461 1.637437
C -1.947834 -0.633790 1.646525
C -1.370600 -1.088920 1.611528
C -0.794096 -1.523024 1.585738
C -0.257193 -1.914152 1.560891
C 0.130615 -2.195135 1.574330
C 0.303401 -2.418391 1.615268
C 0.505511 -2.626327 1.626626
C 0.383523 -2.571335 1.693756
C 0.068731 -2.508731 1.834413
C -0.058871 -2.491098 1.906617
C -0.182256 -2.496646 1.933014
C -0.363386 -2.605386 1.951804
C -0.441173 -2.618742 1.948645
C -0.513032 -2.671545 1.961557
C -0.452899 -2.874059 1.947484
C -0.551823 -2.845814 1.933845
C -0.773163 -2.607416 1.961094
C -0.986636 -2.320386 2.008084
C -0.959473 -2.162300 2.024261
C -0.829581 -2.279463 2.056248
C -0.635771 -2.348001 2.036207
C -0.588106 -2.362549 1.991639
C -0.411785 -2.538247 1.892785
C -0.431939 -2.657207 1.848759
C -0.422318 -2.732923 1.814292
C -0.524406 -2.680810 1.856587
C -0.411217 -2.632420 1.873122
C -0.438396 -2.514993 1.987543
C -0.417058 -2.319390 2.125797
C -0.258681 -2.165927 2.232141
C -0.029445 -2.090141 2.333381
C 0.233197 -2.184909 2.480758
C 0.486145 -2.211049 2.570244
C 0.604768 -2.243699 2.596708
C 0.674746 -2.210994 2.669123
C 0.560073 -2.143817 2.798096
C 0.328675 -2.001203 2.910225
C 0.292297 -1.960275 2.944472
C -0.054284 -1.676246 2.870938
C -0.347360 -1.347819 2.811020
C -0.840517 -0.740463 2.917302
C -1.315992 -0.179214 2.881352
C -1.571868 0.232132 2.775261
C -1.834831 0.552393 2.748344
C -2.136474 0.848192 2.749444
C -2.210527 1.024174 2.805940
C -2.106205 1.040577 2.875477
C -1.839721 0.846813 2.835555
C -1.653755 0.636839 2.881260
C -1.557193 0.433615 2.903081
C -1.409922 0.276451 2.893817
C -1.229498 0.156665 2.878435
C -1.052406 0.049294 2.903834
C -1.173136 0.024806 2.895244
C -1.248672 -0.059160 2.918103
C -1.001513 -0.209368 2.883213
C -0.535286 -0.468282 2.789576
C -0.156260 -0.631457 2.778308
C -0.042234 -0.690189 2.776041
C 0.069517 -0.734765 2.832864
C 0.245459 -0.747512 2.879922
C 0.162447 -0.564775 2.873238
C -0.122363 -0.327241 2.875173
C -0.503512 0.072061 2.964736
C -0.776717 0.382781 2.939527
C -0.727977 0.498964 2.974563
C -0.670342 0.531193 2.977351
C -0.170035 0.766646 3.207008
C 0.525181 1.358637 3.226699
C 0.818337 1.266161 3.264740
C 1.107985 0.999294 3.499846
C 1.384509 0.796003 3.663672
C 1.528188 0.624511 3.667711
C 1.801597 0.345605 3.566151
C 1.685077 -0.157358 3.301814
C 1.535928 -1.100497 3.268763
C 1.804286 -1.310033 3.259947
C 2.035788 -1.406096 2.974933
C 2.186129 -1.483821 2.834761
C 2.331168 -1.502155 2.974774
C 2.039546 -1.133510 3.016393
C 1.645098 -0.709124 3.030387
C 1.262264 -0.250648 3.059411
C 0.820378 0.282705 3.096397
C 0.402124 0.788693 3.156597
C -0.034261 1.261214 3.180910
C -0.338187 1.659790 3.018563
C -0.336405 1.782741 3.016736
C -0.125137 1.740499 2.983466
C 0.287354 1.503199 2.908951
C 0.805537 1.115525 2.828415
C 1.286217 0.826441 2.759459
C 1.699868 0.582555 2.684639
C 1.874774 0.513948 2.711987
C 1.977937 0.536643 2.719589
C 2.068884 0.531090 2.688645
C 1.791655 0.767599 2.682606
C 1.497236 1.053358 2.631044
C 1.530866 1.267115 2.656454
C 1.761184 1.458454 2.697994
C 1.772206 1.484656 2.587190
C 2.103842 1.407291 2.542479
C 2.177709 1.485934 2.534994
C 2.487906 1.457540 2.532035
C 2.854956 1.418225 2.576919
