167
chr17 3D structure from Hi-C (resolution 500000bp)
C -2.062012 2.298550 1.466422
C -2.117053 2.013699 1.457782
C -2.119652 1.942104 1.377989
C -2.079914 2.019977 1.151917
C -2.220280 1.729432 1.082512
C -2.422971 1.600587 1.163926
C -2.481941 1.509905 1.019593
C -2.477402 1.616323 0.823421
C -2.320858 1.679826 0.556247
C -2.233842 1.722490 0.337508
C -2.246042 1.535090 0.392267
C -2.279801 1.493489 0.305498
C -2.222328 1.473279 0.196462
C -2.166842 1.411398 0.014512
C -2.073841 1.238270 -0.167899
C -2.072856 1.175849 -0.288907
C -1.994021 1.168406 -0.457190
C -1.833800 1.279364 -0.698873
C -1.433627 1.456930 -0.986367
C -0.977777 1.680437 -1.384061
C -0.583597 1.820063 -1.680343
C -0.319807 1.819437 -1.909804
C -0.160634 1.893400 -2.070852
C 0.070091 1.855133 -2.184886
C 0.257914 1.812650 -2.361893
C 0.249398 1.686563 -2.411592
C 0.259295 1.558440 -2.436635
C 0.236072 1.507281 -2.491586
C 0.179303 1.417487 -2.655698
C 0.053589 1.176071 -2.747786
C -0.266473 0.948773 -2.780924
C -0.612779 0.741599 -2.656591
C -0.949633 0.619196 -2.546831
C -1.458850 0.528859 -2.378636
C -1.926331 0.426918 -2.276223
C -2.264575 0.487622 -2.101586
C -2.408725 0.660244 -2.000121
C -2.409116 0.813912 -2.061974
C -2.271778 0.924098 -2.228368
C -2.000955 0.970710 -2.392942
C -1.354363 1.185815 -2.540653
C -0.702571 1.435384 -2.564983
C -0.052777 1.728993 -2.460825
C 0.643219 2.027987 -2.042983
C 1.270292 2.277261 -1.383293
C 1.730800 2.538246 -0.647917
C 2.019185 2.796608 0.096272
C 1.929016 2.897085 0.779999
C 1.706863 3.112444 1.151655
C 1.463078 3.307260 1.364069
C 1.154753 3.404947 1.115763
C 0.755617 3.018010 0.622611
C 0.305337 2.567860 -0.006809
C -0.162642 2.027170 -0.552602
C -0.667210 1.445534 -0.861476
C -1.032616 0.691003 -0.960473
C -1.494638 -0.114761 -0.952348
C -2.037320 -0.931691 -0.828361
C -2.466779 -1.247547 -0.665335
C -2.738439 -1.430450 -0.479226
C -2.763094 -1.531486 -0.363625
C -2.648774 -1.711602 -0.511340
C -2.504898 -1.748132 -0.650037
C -2.148542 -1.740413 -0.912105
C -1.811009 -1.588051 -1.112595
C -1.545337 -1.468982 -1.251062
C -1.302620 -1.454827 -1.333398
C -1.224200 -1.480747 -1.439680
C -1.096159 -0.872787 -1.089374
C -0.943322 -0.177926 -0.611257
C -0.844884 0.551913 -0.081548
C -0.617858 1.234595 0.344944
C -0.239743 1.954717 0.728358
C 0.164500 2.695840 1.049347
C -0.041729 2.890247 1.557325
C -0.180324 2.407328 1.465709
C -0.401164 1.693717 1.324163
C -0.739392 0.976521 1.215471
C -1.072560 -0.018551 0.908916
C -1.431213 -0.940819 0.468267
C -1.942570 -1.806359 0.411782
C -1.831142 -2.044320 0.297284
C -1.838349 -2.165737 0.318809
C -1.714849 -2.129077 0.311934
C -1.606733 -2.303455 0.273446
C -1.634039 -2.136950 0.635738
C -1.694260 -2.010223 1.290839
C -1.615018 -1.929836 1.581650
C -0.950647 -1.412330 1.784958
C -0.280204 -0.918515 2.036134
C -0.006409 -1.103438 2.304604
C 0.100708 -1.079846 2.386880
C 0.280216 -1.139579 2.341960
C 0.483616 -1.238159 2.186654
C 0.636693 -1.363734 2.034016
C 0.234213 -1.990588 1.717968
C -0.202776 -2.572897 1.381846
C -0.338373 -2.595807 0.970518
C -0.183628 -2.572326 0.755581
C -0.043927 -2.409230 0.392437
C 0.176686 -2.122271 -0.094054
C 0.542590 -1.762942 -0.627958
C 0.853017 -1.324989 -1.056632
C 1.229919 -0.936281 -1.560488
C 1.564017 -0.485438 -1.956244
C 1.893284 -0.101266 -2.274017
C 2.050806 0.041496 -2.362425
C 2.032508 -0.055202 -2.329072
C 1.909689 -0.195287 -2.294621
C 1.858852 -0.409335 -2.336027
C 1.674338 -0.651159 -2.116184
C 1.485716 -0.958658 -1.897412
C 1.277767 -1.365963 -1.709839
C 1.146753 -1.707248 -1.515106
C 1.028962 -1.912205 -1.296149
C 0.914049 -2.138355 -0.958708
C 0.855356 -2.324764 -0.559990
C 0.928747 -2.560462 -0.410833
C 1.128014 -2.721792 -0.334528
C 1.265378 -2.701164 -0.323775
C 1.418531 -2.614260 -0.298405
C 1.744238 -2.481741 -0.295928
C 2.004498 -2.328240 -0.430382
C 2.231041 -2.203744 -0.605355
C 2.189861 -2.013041 -0.437584
C 2.156826 -1.877523 -0.165995
C 2.219524 -1.767045 0.261974
C 2.258242 -1.646375 0.341644
C 2.109131 -1.543323 0.354121
C 2.200952 -1.376194 0.551630
C 2.145018 -1.284726 0.717123
C 2.329427 -1.186466 0.730708
C 2.401306 -1.129491 0.698917
C 2.394776 -1.016818 0.555243
C 2.501254 -0.899955 0.512473
C 2.619633 -0.795241 0.578332
C 2.517237 -0.676369 0.377921
C 2.658352 -0.431471 0.321734
C 2.732836 -0.174320 0.066998
C 2.848933 0.141937 -0.162163
C 2.947623 0.374126 -0.352167
C 2.881713 0.437961 -0.397041
C 2.864062 0.529930 -0.410637
C 2.815848 0.497378 -0.196373
C 2.555696 0.395908 -0.170337
C 2.283829 0.282375 -0.002539
C 2.011852 0.151615 0.383413
C 1.703049 -0.149012 0.805998
C 1.407877 -0.325336 1.266767
C 1.008880 -0.512752 1.681981
C 0.705756 -0.639673 1.929464
C 0.453260 -0.699138 2.303755
C 0.320451 -0.700070 2.682887
C 0.081612 -0.670600 2.717131
C 0.010082 -0.576936 2.687362
C 0.085831 -0.400083 2.625873
C 0.230461 -0.232171 2.574804
C 0.269768 -0.083000 2.648926
C 0.239054 -0.015116 2.684825
C 0.193639 0.075434 2.754428
C 0.191331 0.153293 2.879602
C -0.006057 0.321317 2.969241
C -0.228019 0.428807 3.069308
C -0.296548 0.607344 3.205900
C -0.388117 0.668693 3.257562
C -0.371952 0.792009 3.340400
C -0.433820 0.901866 3.306733
