167
chr17 3D structure from Hi-C (resolution 500000bp)
C -1.321373 2.912814 1.433696
C -1.501100 2.677330 1.443979
C -1.423651 2.623177 1.359089
C -1.435076 2.650035 1.189005
C -1.645937 2.420526 1.104288
C -1.686793 2.387047 1.296469
C -1.693746 2.182053 1.353544
C -1.726703 2.086677 1.354119
C -1.587698 2.095411 1.127001
C -1.606525 2.088203 0.954531
C -1.608383 1.955492 0.949781
C -1.579070 1.872177 0.968684
C -1.677759 1.768786 0.779971
C -1.703271 1.766084 0.530790
C -1.655713 1.738480 0.210997
C -1.644251 1.629918 0.076434
C -1.608493 1.585217 -0.113642
C -1.477346 1.592588 -0.351733
C -1.271940 1.729989 -0.753690
C -0.893689 1.818170 -1.253454
C -0.615368 1.899740 -1.649801
C -0.416236 1.885797 -1.889147
C -0.306776 1.917825 -2.103361
C -0.159069 1.855449 -2.268670
C -0.031595 1.815630 -2.443947
C 0.004088 1.649205 -2.533581
C -0.031980 1.591071 -2.499688
C -0.104519 1.456991 -2.561884
C -0.288763 1.477272 -2.682569
C -0.576091 1.484052 -2.562703
C -0.942809 1.468436 -2.362100
C -1.353543 1.370920 -2.078320
C -1.667196 1.209422 -1.910191
C -2.147440 1.148477 -1.656319
C -2.574147 1.088412 -1.360111
C -2.805128 0.961703 -1.211154
C -2.779993 0.810617 -1.308823
C -2.682682 0.569354 -1.576063
C -2.569553 0.482163 -1.887761
C -2.399132 0.674640 -1.991052
C -1.810296 0.866919 -2.241977
C -1.133110 1.147516 -2.468318
C -0.408521 1.441746 -2.450152
C 0.339002 1.811363 -2.197692
C 1.010287 2.271989 -1.750857
C 1.515045 2.722373 -1.142767
C 1.839600 3.003259 -0.603339
C 1.834181 3.182188 -0.086177
C 1.767809 3.373684 0.287771
C 1.671461 3.565580 0.510547
C 1.444516 3.623896 0.414926
C 0.926202 3.244715 0.212382
C 0.479841 2.712527 -0.227892
C -0.001065 2.063835 -0.617912
C -0.526402 1.442565 -0.727810
C -1.053996 0.776901 -0.697849
C -1.626815 -0.065951 -0.869995
C -2.259401 -0.812732 -0.804524
C -2.662937 -1.036078 -0.522476
C -2.936530 -1.175135 -0.252118
C -2.922276 -1.197410 -0.129166
C -2.832434 -1.345682 -0.253467
C -2.704487 -1.427802 -0.444518
C -2.424862 -1.293590 -0.445967
C -2.144833 -1.145498 -0.507032
C -1.802746 -1.173215 -0.814578
C -1.537008 -1.202386 -1.039016
C -1.466889 -1.280237 -1.167172
C -1.441923 -1.445699 -1.238781
C -0.863442 -0.921599 -0.749435
C -0.384000 -0.437377 -0.221530
C 0.221016 0.023285 0.166829
C 0.837249 0.570210 0.557282
C 1.424129 1.186111 0.909282
C 1.205850 1.369176 1.346286
C 1.180698 1.610549 1.661271
C 0.615784 1.060179 1.471090
C -0.055904 0.495187 1.291353
C -0.804361 -0.244637 1.201780
C -1.543743 -0.979345 1.081689
C -2.225190 -1.650996 1.202871
C -2.019041 -1.799374 1.222387
C -2.008957 -1.802367 1.329896
C -1.975095 -1.693772 1.368236
C -1.904269 -1.518022 1.557654
C -1.829780 -1.209264 1.782746
C -1.712252 -1.067826 2.163116
C -1.624881 -0.903648 2.320720
C -0.852725 -0.560198 2.275001
C -0.021819 -0.300256 2.265920
C 0.638586 -0.179679 2.421191
C 0.823338 -0.488233 2.359366
C 0.954939 -0.641499 2.265054
C 1.046978 -0.684089 2.036759
C 1.141386 -0.918291 1.810618
C 0.507682 -1.367798 1.775811
C -0.097524 -1.853564 1.654193
C -0.490266 -2.243488 1.485752
C -0.470764 -2.110217 1.247064
C -0.359937 -2.001253 0.824609
C -0.137086 -1.773794 0.339391
C 0.225133 -1.516846 -0.276285
C 0.552782 -1.251738 -0.853846
C 0.887119 -0.854885 -1.472566
C 1.064007 -0.487304 -2.140592
C 1.288005 -0.259816 -2.641948
C 1.420696 -0.199468 -2.808838
C 1.410047 -0.299072 -2.799781
C 1.264529 -0.374098 -2.732137
C 1.192307 -0.560237 -2.776653
C 0.999464 -0.844845 -2.558467
C 0.862061 -1.115835 -2.238626
C 0.682495 -1.469429 -1.946663
C 0.598113 -1.720435 -1.610967
C 0.487603 -1.952487 -1.346205
C 0.441784 -2.191943 -0.977027
C 0.348292 -2.387045 -0.522995
C 0.377965 -2.657011 -0.280710
C 0.404237 -2.862680 -0.277868
C 0.580941 -2.931152 -0.242668
C 0.649185 -2.954374 -0.346983
C 0.775601 -2.948087 -0.509590
C 0.939199 -2.911685 -0.719286
C 1.178976 -2.865393 -0.987591
C 1.237775 -2.674694 -0.912223
C 1.404716 -2.533287 -0.601299
C 1.566452 -2.467605 -0.317583
C 1.700823 -2.355766 -0.269136
C 1.801983 -2.132096 -0.199829
C 1.999546 -2.017861 -0.130186
C 1.986930 -1.855165 -0.001669
C 2.240166 -1.715388 -0.071257
C 2.335049 -1.652397 -0.186943
C 2.313117 -1.506929 -0.301223
C 2.390010 -1.390096 -0.386133
C 2.465109 -1.322051 -0.347768
C 2.408967 -1.166441 -0.410020
C 2.581881 -0.929546 -0.492732
C 2.563469 -0.683913 -0.740253
C 2.617864 -0.354451 -0.997543
C 2.725343 -0.165970 -1.210880
C 2.710576 -0.065224 -1.185922
C 2.788537 0.002738 -1.129233
C 2.763622 -0.013696 -0.932265
C 2.543366 -0.105690 -0.787805
C 2.353376 -0.271684 -0.499494
C 2.211410 -0.442027 -0.023985
C 1.948607 -0.617292 0.520790
C 1.734982 -0.754639 1.041598
C 1.406884 -0.860572 1.475580
C 1.160125 -0.888132 1.774645
C 0.972750 -0.953115 2.171353
C 0.976398 -0.926060 2.499416
C 0.768618 -0.880353 2.584770
C 0.642990 -0.751384 2.583818
C 0.684177 -0.593052 2.523602
C 0.717173 -0.475558 2.533410
C 0.697291 -0.321317 2.634868
C 0.669960 -0.184343 2.705506
C 0.571424 -0.048880 2.816755
C 0.539348 0.122093 2.953655
C 0.493911 0.317327 3.070394
C 0.436822 0.484561 3.172000
C 0.404960 0.799522 3.221719
C 0.394924 0.892076 3.277133
C 0.450479 1.056599 3.306771
C 0.389017 1.229505 3.276942
