229
chr13 3D structure from Hi-C (resolution 500000bp)
C -1.585919 7.399130 -2.150759
C -1.486540 7.203208 -2.636010
C -1.666289 7.013872 -2.917448
C -2.005967 6.825576 -3.006414
C -2.307373 6.449511 -3.420792
C -2.701826 5.938552 -3.864339
C -3.141130 5.394158 -4.286799
C -3.524857 4.861857 -4.656855
C -3.818224 4.272106 -4.986371
C -4.060173 3.538318 -5.313793
C -4.224015 2.725978 -5.667526
C -4.379061 2.018077 -5.888291
C -4.617611 1.531894 -5.847684
C -5.057074 1.192134 -5.485716
C -5.688046 0.975018 -4.806771
C -6.325956 0.947240 -3.852028
C -6.780602 1.157311 -2.679629
C -7.086638 1.429639 -1.427748
C -7.309065 1.541994 -0.289673
C -7.483818 1.385293 0.550281
C -7.606529 1.038808 1.013657
C -7.651645 0.594418 1.056232
C -7.602185 0.103381 0.654447
C -6.554967 0.100135 -0.669862
C -5.402069 0.289077 -2.115916
C -4.175856 0.827963 -3.467557
C -2.961363 1.665243 -4.559663
C -2.482821 2.743312 -4.570541
C -2.137172 3.765420 -4.176939
C -1.958472 4.684190 -3.566005
C -2.855497 5.001923 -2.505807
C -3.865896 5.132635 -1.714542
C -4.322422 4.536497 -1.863675
C -4.651632 3.639664 -2.075079
C -4.226823 2.260924 -2.841158
C -3.537350 1.023992 -3.547519
C -2.934323 -0.057027 -3.910881
C -2.285826 -1.220261 -4.029418
C -1.668272 -2.235524 -3.867826
C -1.646526 -2.683021 -2.877365
C -1.552515 -2.934827 -2.136856
C -1.425755 -2.828371 -1.734705
C -1.420247 -2.767448 -1.617512
C -1.333382 -2.745484 -1.647071
C -1.351841 -2.744398 -1.547431
C -1.400349 -2.810587 -1.440353
C -1.385186 -2.897584 -1.312655
C -1.463751 -2.934287 -1.104035
C -1.635732 -3.026427 -1.054501
C -1.723773 -3.123527 -0.839920
C -1.698160 -3.252708 -0.856815
C -1.647517 -3.301830 -0.844001
C -1.477710 -3.363513 -0.978703
C -1.386271 -3.375200 -1.023426
C -1.249130 -3.408476 -1.077245
C -1.050439 -3.311325 -1.016558
C -1.021342 -3.364987 -0.908405
C -0.987245 -3.507513 -0.706527
C -0.835862 -3.506417 -0.705603
C -0.636699 -3.383832 -0.750388
C -0.417557 -3.279131 -0.908382
C -0.273506 -3.356334 -0.857860
C -0.092759 -3.576917 -0.696404
C 0.171372 -3.573143 -0.719305
C 0.379092 -3.447066 -0.825665
C 0.591006 -3.264431 -1.108209
C 0.712677 -3.173115 -1.289618
C 0.845819 -3.157757 -1.416322
C 0.979189 -2.977373 -1.584568
C 1.059264 -2.715944 -1.756244
C 1.086887 -2.587367 -1.788613
C 1.237117 -2.466862 -1.856105
C 1.386847 -2.416410 -1.870774
C 1.514936 -2.459385 -1.732806
C 1.580096 -2.447607 -1.540077
C 1.576517 -2.510069 -1.290354
C 1.572380 -2.663571 -0.997310
C 1.547723 -2.772245 -0.758003
C 1.397138 -2.925349 -0.445280
C 1.148281 -3.166702 0.034690
C 0.784153 -3.339114 0.477613
C 0.497730 -3.526971 0.881208
C 0.304518 -3.649847 1.152387
C 0.186492 -3.705720 1.338465
C 0.166498 -3.713836 1.445585
C 0.104764 -3.678063 1.546925
C 0.073743 -3.580298 1.644535
C 0.043464 -3.517018 1.659875
C -0.015235 -3.382362 1.678189
C -0.139682 -3.286562 1.727839
C -0.179105 -3.163049 1.690848
C -0.237778 -3.013861 1.600223
C -0.235554 -2.817216 1.466078
C -0.338421 -2.725831 1.449207
C -0.239059 -2.574272 1.433794
C -0.214215 -2.511441 1.391994
C -0.301822 -2.463804 1.369133
C -0.574424 -2.418531 1.433624
C -0.850472 -2.425448 1.516361
C -1.042360 -2.430983 1.606532
C -1.064095 -2.326285 1.518172
C -1.211570 -2.203760 1.386507
C -1.192861 -1.986046 1.094851
C -0.918036 -1.641422 0.683450
C -0.537129 -1.291715 0.105042
C -0.207137 -0.863482 -0.408383
C 0.091508 -0.530452 -0.897516
C 0.387965 -0.220782 -1.410875
C 0.797612 0.043807 -1.871704
C 1.097965 0.228861 -2.180221
C 1.270026 0.342491 -2.379761
C 1.438211 0.438648 -2.425238
C 1.631351 0.413671 -2.435415
C 1.804418 0.366588 -2.451110
C 1.833189 0.264635 -2.339914
C 1.737992 0.182119 -2.156620
C 1.633651 0.032164 -1.923879
C 1.538728 -0.160470 -1.644015
C 1.485915 -0.308561 -1.421051
C 1.481976 -0.379090 -1.313111
C 1.551189 -0.428452 -1.207436
C 1.691163 -0.507511 -1.022530
C 1.970296 -0.586204 -1.003625
C 2.298724 -0.500378 -1.114922
C 2.689416 -0.391819 -1.307198
C 2.927878 -0.338983 -1.373228
C 3.107504 -0.311711 -1.369807
C 3.218014 -0.367111 -1.315956
C 3.384045 -0.295646 -1.394322
C 3.383092 -0.359989 -1.247325
C 3.422083 -0.499087 -1.101238
C 3.338775 -0.529075 -0.917749
C 3.323410 -0.509476 -0.800070
C 3.348646 -0.508566 -0.628150
C 3.391207 -0.390464 -0.503694
C 3.411279 -0.375966 -0.354582
C 3.464337 -0.263718 -0.261726
C 3.544598 -0.163060 -0.099931
C 3.659305 -0.181624 0.072726
C 3.688369 -0.327965 0.338937
C 3.718421 -0.437812 0.530666
C 3.642189 -0.523865 0.738392
C 3.444396 -0.655978 1.002236
C 3.293481 -0.695052 1.126596
C 3.034592 -0.809657 1.260142
C 2.866683 -0.902880 1.432517
C 2.818448 -0.867988 1.497396
C 2.675897 -0.918543 1.627060
C 2.493003 -1.040141 1.833294
C 2.622698 -0.859027 1.873720
C 2.601566 -0.849267 1.994772
C 2.477263 -0.894250 2.248724
C 2.378992 -0.874006 2.380870
C 2.313228 -0.853728 2.519362
C 2.311866 -0.724137 2.601649
C 2.267280 -0.664635 2.617481
C 2.118310 -0.658972 2.649234
C 2.108652 -0.645954 2.695268
C 2.364841 -0.298513 2.499354
C 2.484991 -0.043303 2.349101
C 2.548442 0.182413 2.224084
C 2.644473 0.440754 2.034696
C 2.857285 0.795195 1.806208
C 3.028597 1.032854 1.579524
C 3.106617 1.308469 1.380219
C 3.044670 1.420315 1.284462
C 3.035862 1.591597 1.197513
C 2.983634 1.729149 1.059912
C 2.871397 1.797280 0.994029
C 2.794678 1.928142 0.826158
C 2.666277 2.069575 0.733851
C 2.607645 2.255634 0.627842
C 2.524834 2.402205 0.484793
C 2.427916 2.506911 0.291023
C 2.263440 2.551761 0.203014
C 2.168046 2.660134 0.146722
C 2.102950 2.847219 0.245765
C 1.931133 2.833421 0.262030
C 1.794681 2.733919 0.271429
C 1.615718 2.530630 0.364598
C 1.374332 2.320735 0.513416
C 1.236563 2.324711 0.600536
C 1.116412 2.353529 0.631705
C 0.973560 2.242359 0.696686
C 0.941562 2.270885 0.815940
C 0.778296 2.258851 0.940125
C 0.661024 2.224475 1.054687
C 0.536336 2.042838 1.272448
C 0.507474 1.758047 1.522127
C 0.457982 1.577582 1.683447
C 0.429635 1.415165 1.799344
C 0.297496 1.075525 2.003319
C 0.268768 0.891022 2.146140
C 0.206556 0.753326 2.324413
C 0.222361 0.714826 2.428859
C 0.089954 0.577277 2.557592
C -0.043653 0.339273 2.812809
C -0.165938 0.088481 3.026272
C -0.133622 0.149725 3.102838
C 0.000010 0.282548 3.210080
C 0.198256 0.488288 3.276968
C 0.400588 0.781875 3.285910
C 0.479643 0.982669 3.312075
C 0.532472 1.136771 3.375558
C 0.606387 1.519169 3.381144
C 0.715236 1.867173 3.349430
C 0.704076 2.004193 3.415190
C 0.668409 2.146290 3.425502
C 0.673434 2.309823 3.395136
C 0.695449 2.498815 3.369255
C 0.728169 2.605143 3.234892
C 0.736802 2.619054 3.064554
C 0.642606 2.511387 3.015552
C 0.520217 2.422788 2.859267
C 0.361788 2.398297 2.675015
C 0.046737 2.210791 2.584519
C -0.128223 2.175784 2.415998
C -0.373010 1.991377 2.347835
C -0.674326 1.573200 2.449934
C -0.989290 1.292931 2.467187
C -1.265500 1.385127 2.437445
C -1.564680 1.519435 2.577460
C -1.673568 1.311191 2.681958
C -1.836465 0.973995 2.836334
C -2.054764 0.822576 3.015444
C -2.240278 0.726754 3.152110
C -2.321515 0.757234 3.261945
C -2.392352 0.404493 3.458948
C -2.381059 -0.304929 3.518443
