229
chr13 3D structure from Hi-C (resolution 500000bp)
C -6.129059 -3.807204 3.996944
C -6.285346 -3.224923 4.083022
C -6.356122 -1.958206 3.794128
C -6.327933 -0.885576 3.480651
C -6.306786 0.539524 3.138816
C -6.426434 1.868655 2.513989
C -6.635184 2.983424 1.619347
C -6.813052 3.756958 0.578670
C -6.926140 4.122371 -0.451241
C -7.084622 3.470188 -1.185687
C -7.249082 2.378240 -1.902239
C -7.339861 1.283625 -2.576883
C -7.387921 0.454577 -3.075901
C -7.520998 -0.123819 -2.938060
C -7.611413 -0.660390 -2.581463
C -7.353978 -1.714513 -2.009113
C -6.929288 -2.650314 -1.421382
C -6.480398 -3.401159 -0.876822
C -6.045627 -4.173539 -0.427947
C -5.607414 -5.031409 -0.194264
C -5.135198 -5.875539 -0.579983
C -4.805340 -6.499714 -1.021252
C -4.925313 -6.334019 -1.423751
C -5.288100 -5.886381 -1.640954
C -5.804832 -5.145084 -1.510436
C -6.373046 -4.092731 -1.025120
C -6.878261 -2.903073 -0.272759
C -7.199288 -1.668874 0.686073
C -7.151012 -0.255357 1.746621
C -6.891962 1.044907 2.718070
C -6.568050 2.019467 3.590881
C -6.248453 2.552906 4.278867
C -5.875816 2.610225 4.892722
C -5.287836 2.367370 5.493707
C -4.486577 1.940878 5.927626
C -3.755572 1.231501 5.893525
C -3.052431 0.226661 5.461917
C -2.292445 -0.741731 4.884167
C -1.465058 -1.381990 4.349644
C -0.684332 -1.829262 3.768977
C -0.230263 -1.949167 3.186607
C -0.068000 -2.038638 2.747793
C -0.034850 -2.141548 2.693688
C -0.063752 -2.025881 2.795059
C -0.006372 -2.010119 2.838483
C 0.075787 -2.067804 2.816516
C 0.194875 -2.104225 2.774229
C 0.383683 -2.323158 2.699796
C 0.489041 -2.504824 2.781437
C 0.589753 -2.627163 2.627972
C 0.732600 -2.621613 2.726802
C 0.837252 -2.625061 2.800250
C 0.868259 -2.557480 2.945672
C 0.975391 -2.590641 2.972849
C 1.013302 -2.456941 3.103613
C 1.058494 -2.297377 2.965719
C 1.184139 -2.355423 2.987676
C 1.351862 -2.507901 2.881940
C 1.435237 -2.390142 2.857392
C 1.480802 -2.148576 2.763721
C 1.429285 -1.785689 2.829496
C 1.571539 -1.702618 2.739893
C 1.839295 -1.772195 2.715068
C 1.978292 -1.575930 2.689355
C 2.019101 -1.271085 2.688907
C 1.945017 -0.807277 2.805836
C 1.933283 -0.538010 2.961371
C 1.962301 -0.359556 3.051157
C 1.869614 -0.115293 3.107587
C 1.675746 0.205195 3.109600
C 1.558106 0.340445 3.090568
C 1.504886 0.529972 3.102730
C 1.562901 0.615832 3.089168
C 1.707055 0.597505 2.954175
C 1.843310 0.577198 2.783812
C 1.936271 0.427092 2.613075
C 2.193793 0.205124 2.507972
C 2.404565 0.009144 2.372611
C 2.550140 -0.434253 2.149565
C 2.730887 -0.996282 1.875480
C 2.814500 -1.557296 1.625769
C 2.861007 -2.097251 1.383738
C 3.032036 -2.349491 1.241047
C 3.120968 -2.481676 1.110141
C 3.235783 -2.487413 1.117715
C 3.332358 -2.353262 1.122455
C 3.347394 -2.236240 1.064038
C 3.396652 -2.141198 0.997628
C 3.375441 -2.067158 0.993096
C 3.333567 -2.147738 0.885345
C 3.245629 -2.129877 0.760742
C 3.150200 -2.031324 0.630577
C 3.036943 -1.940031 0.532856
C 2.984050 -2.012188 0.438968
C 2.886312 -1.908848 0.400345
C 2.868471 -1.833136 0.322801
C 2.742258 -1.849047 0.339814
C 2.567561 -2.063736 0.284329
C 2.332956 -2.339754 0.224265
C 2.153866 -2.530996 0.159145
C 1.974807 -2.459018 0.157725
C 1.760258 -2.435587 0.188552
C 1.462752 -2.181296 0.293471
C 1.162720 -1.654943 0.439139
C 0.847360 -0.926456 0.718306
C 0.525525 -0.281814 0.886555
C 0.229806 0.350333 1.091806
C -0.022334 0.985936 1.306616
C -0.195957 1.622002 1.514288
C -0.332578 2.117701 1.631438
C -0.346150 2.434208 1.759189
C -0.261928 2.604884 1.809909
C -0.135200 2.730867 1.860828
C -0.009948 2.797460 1.851913
C 0.055332 2.694225 1.868334
C 0.131558 2.545960 1.792631
C 0.341023 2.240220 1.688293
C 0.526496 1.912608 1.543998
C 0.658663 1.721513 1.399046
C 0.840333 1.642036 1.342074
C 1.050152 1.647551 1.344885
C 1.362391 1.651431 1.271418
C 1.667988 1.760210 1.233117
C 1.754698 2.143286 1.291357
C 1.891642 2.511534 1.357272
C 2.004963 2.756245 1.378792
C 2.026529 2.906791 1.272331
C 1.970911 2.983238 1.147811
C 1.918085 3.164306 1.090149
C 1.968456 3.098793 1.034028
C 2.129177 3.007501 0.960833
C 2.098547 2.931337 0.822058
C 2.100604 2.901693 0.641026
C 2.188472 2.859529 0.525228
C 2.382263 2.778749 0.427563
C 2.483751 2.755346 0.258148
C 2.509170 2.806258 0.108307
C 2.529747 2.867860 -0.152625
C 2.660557 2.859019 -0.376437
C 2.868638 2.688586 -0.499151
C 3.019173 2.599265 -0.644298
C 3.048890 2.481205 -0.794960
C 3.089320 2.150588 -0.867809
C 3.064200 1.983116 -0.971833
C 3.091671 1.635055 -0.950425
C 3.146967 1.382242 -0.949577
C 3.120410 1.332278 -1.050272
C 3.092344 1.032398 -1.090045
C 3.107820 0.746292 -1.160179
C 3.133924 0.846588 -1.319527
C 3.162372 0.815901 -1.442787
C 3.197200 0.541675 -1.561510
C 3.168637 0.420483 -1.714155
C 3.155295 0.305155 -1.817116
C 3.163246 0.372118 -1.950081
C 3.134139 0.352466 -2.049816
C 3.007988 0.264126 -2.068651
C 2.901416 0.248187 -2.057153
C 2.696151 0.778161 -2.103950
C 2.495277 1.079644 -2.115159
C 2.279030 1.387586 -2.140322
C 1.985574 1.748774 -2.109334
C 1.747141 2.236669 -2.118266
C 1.553319 2.638634 -2.104885
C 1.407358 2.875271 -2.141558
C 1.262043 2.887486 -2.071916
C 1.062853 3.024511 -1.934419
C 0.858414 3.030237 -1.790935
C 0.701204 3.009557 -1.699005
C 0.484539 3.044322 -1.599200
C 0.291673 2.995574 -1.579405
C 0.053273 3.065714 -1.582724
C -0.196225 3.097129 -1.579697
C -0.386404 3.031008 -1.667029
C -0.562873 2.900748 -1.693825
C -0.702481 2.870638 -1.750687
C -0.839573 2.889156 -1.920360
C -0.902884 2.788157 -1.998698
C -0.954610 2.650357 -2.011600
C -0.777534 2.370322 -2.069172
C -0.572363 2.165584 -2.169933
C -0.430387 2.178038 -2.330102
C -0.374932 2.073616 -2.493342
C -0.254482 1.881826 -2.547369
C -0.129553 1.777002 -2.674728
C 0.050256 1.680684 -2.803398
C 0.032744 1.531079 -2.831166
C 0.079284 1.203260 -2.773140
C 0.149372 0.797426 -2.668028
C 0.185178 0.581154 -2.570087
C 0.158836 0.390765 -2.447067
C 0.296987 0.024080 -2.307458
C 0.356782 -0.231234 -2.237202
C 0.469137 -0.396498 -2.315928
C 0.554287 -0.467511 -2.385141
C 0.748488 -0.687805 -2.499377
C 0.989272 -0.996796 -2.584604
C 1.243818 -1.350417 -2.662245
C 1.280731 -1.293611 -2.773701
C 1.319021 -1.192866 -2.957130
C 1.332743 -1.007355 -3.094357
C 1.251783 -0.756871 -3.307940
C 1.119551 -0.609237 -3.449035
C 1.030325 -0.528579 -3.632411
C 0.912661 -0.298673 -3.883082
C 0.709994 -0.076364 -4.129263
C 0.574526 -0.025629 -4.220074
C 0.398090 -0.016653 -4.323512
C 0.228375 0.058355 -4.379830
C 0.077474 0.246130 -4.431465
C -0.049178 0.410688 -4.383791
C -0.202314 0.528777 -4.258867
C -0.300424 0.530116 -4.105414
C -0.378906 0.389488 -3.881580
C -0.508276 0.350255 -3.682074
C -0.572376 0.135092 -3.428784
C -0.655094 -0.036460 -3.221313
C -0.673134 -0.298222 -3.064575
C -0.531444 -0.740695 -2.881670
C -0.449244 -1.209432 -2.686463
C -0.754094 -1.214176 -2.729040
C -0.998759 -1.411907 -2.972777
C -0.868902 -1.670342 -2.907150
C -0.695860 -1.993481 -2.852388
C -0.633610 -2.307879 -2.880191
C -0.611861 -2.605867 -2.912680
C -0.676224 -2.682138 -3.015997
C -0.321946 -3.133313 -2.967591
C 0.268790 -3.515675 -2.527357
