381
chr4 3D structure from Hi-C (resolution 500000bp)
C -2.606790 2.711000 1.154498
C -2.687012 2.580268 1.080408
C -2.807489 2.453308 1.052303
C -2.838739 2.391627 0.967379
C -2.939201 2.306634 0.840447
C -2.920314 2.235800 0.674844
C -2.847380 2.194347 0.476123
C -2.650530 2.298297 0.283153
C -2.501382 2.402880 0.139728
C -2.342591 2.514662 -0.017858
C -2.284947 2.538376 -0.061249
C -2.222053 2.553691 -0.138920
C -2.215285 2.609073 -0.154495
C -2.290014 2.583526 -0.188040
C -2.274654 2.583655 -0.179408
C -2.160050 2.732160 -0.070187
C -2.104588 2.730772 -0.168962
C -1.907444 2.720495 -0.338357
C -1.814443 2.694321 -0.395181
C -1.667169 2.723007 -0.443759
C -1.379000 2.847527 -0.455197
C -1.167141 2.909403 -0.539767
C -1.046874 2.843810 -0.738718
C -0.829406 2.994134 -0.664765
C -0.762748 3.189088 -0.579357
C -0.636009 3.303992 -0.598329
C -0.620438 3.330183 -0.616371
C -0.672454 3.301493 -0.679297
C -0.803526 3.196658 -0.716293
C -0.896358 3.100801 -0.785626
C -0.892167 3.032965 -0.918220
C -0.911341 2.985724 -1.010353
C -0.975899 2.969442 -1.060834
C -0.892628 2.925362 -1.168402
C -0.719312 2.942360 -1.203026
C -0.442167 3.070180 -1.201482
C -0.204582 3.182262 -1.131352
C -0.101674 3.197378 -1.119276
C 0.061368 3.191626 -1.154364
C 0.272652 3.159564 -1.202868
C 0.454355 3.247729 -1.186474
C 0.412224 3.185082 -1.247228
C 0.329260 3.118466 -1.372459
C 0.269815 3.088255 -1.476290
C 0.382474 3.068556 -1.494823
C 0.277153 3.013141 -1.601811
C 0.054594 2.967758 -1.616072
C -0.213122 2.811252 -1.608448
C -0.400525 2.752856 -1.594795
C -0.708307 2.591924 -1.557541
C -0.873944 2.446533 -1.625406
C -1.085850 2.313144 -1.746221
C -0.990843 2.242629 -1.740402
C -0.757982 2.211558 -1.789836
C -0.405515 2.301877 -1.873925
C -0.094077 2.367305 -1.975308
C 0.402088 2.484377 -2.011019
C 0.628081 2.508113 -2.047793
C 0.751099 2.524191 -2.031856
C 0.796267 2.523074 -2.068544
C 0.800184 2.506271 -2.138672
C 0.764596 2.408190 -2.193086
C 0.750540 2.310462 -2.253234
C 0.770054 2.260646 -2.292934
C 0.961945 2.247174 -2.268552
C 1.097117 2.210541 -2.293112
C 1.455565 2.207203 -2.241096
C 1.425873 2.124152 -2.246937
C 1.286100 2.077564 -2.248583
C 1.015004 1.993690 -2.152653
C 0.596529 1.872856 -2.122629
C 0.185305 1.755045 -2.097136
C -0.328487 1.657738 -1.971216
C -1.098793 1.543280 -1.834994
C -1.459736 1.479143 -1.595307
C -1.911185 1.370403 -1.309343
C -2.226961 1.292171 -1.074565
C -2.433517 1.181823 -0.932639
C -2.714381 1.119639 -0.755135
C -2.649970 1.102452 -0.806306
C -2.576620 1.066033 -0.984423
C -2.510695 1.048063 -1.199138
C -2.273181 1.080301 -1.489471
C -1.566035 1.129449 -1.896159
C -0.977236 1.211774 -2.196494
C -0.590447 1.241752 -2.540478
C -0.369526 1.254441 -2.779258
C -0.083330 1.309214 -2.918570
C 0.333979 1.395008 -3.027177
C 0.673683 1.419496 -3.130708
C 0.394416 1.414165 -3.108452
C 0.022810 1.381148 -3.052143
C -0.289709 1.390671 -2.909651
C -0.534604 1.332772 -2.619350
C -0.840629 1.299898 -2.415084
C -0.565121 1.315092 -2.286635
C -1.265323 1.136260 -1.565962
C -0.622731 1.115999 -1.366010
C -1.006513 1.046025 -0.656500
C -1.228862 0.952689 -0.019747
C -0.606665 0.943352 -0.226083
C -0.391730 0.831505 -0.358139
C -1.054617 0.629979 -0.325435
C -0.872758 0.654105 -0.876069
C -1.731954 0.564840 -0.903092
C -1.403913 0.467941 -1.591887
C -1.023896 0.385136 -2.340582
C -1.548578 0.265688 -2.234374
C -1.724365 0.178962 -2.122910
C -1.717286 0.145066 -2.100165
C -1.588319 0.074935 -2.044347
C -1.447609 -0.008650 -2.094934
C -1.276312 -0.064647 -2.179474
C -1.110386 -0.089834 -2.153672
C -0.957314 -0.144685 -2.277816
C -0.658747 -0.226715 -2.479789
C -0.437408 -0.308011 -2.585915
C -0.050301 -0.332470 -2.719368
C 0.198072 -0.375257 -2.831234
C 0.353406 -0.397848 -2.790405
C 0.527926 -0.462360 -2.870992
C 0.637192 -0.492871 -2.855109
C 0.672456 -0.450711 -2.762936
C 0.861293 -0.445229 -2.799532
C 0.787481 -0.516648 -2.829390
C 0.721802 -0.604587 -2.858591
C 0.696745 -0.691544 -2.844231
C 0.563446 -0.759413 -2.719687
C 0.570561 -0.828042 -2.685400
C 0.618143 -0.912376 -2.654575
C 0.420825 -1.011095 -2.614748
C 0.280578 -1.035758 -2.559384
C 0.068234 -1.000994 -2.352666
C 0.365034 -0.900404 -2.354052
C 0.861589 -0.703114 -2.333402
C 0.663959 -0.713427 -2.271577
C 0.494993 -0.783928 -2.266116
C 0.789542 -0.725312 -2.290750
C 0.554272 -0.747383 -2.290553
C 0.484431 -0.882022 -2.443510
C 0.022851 -0.979834 -2.374983
C -0.654344 -1.277731 -2.487846
C -0.610034 -1.358097 -2.629380
C -0.916153 -1.298325 -2.514914
C -1.471231 -1.372253 -2.384521
C -1.378258 -1.377454 -2.282545
C -1.397009 -1.326743 -2.190041
C -1.549111 -1.267257 -2.056366
C -1.818168 -1.127692 -1.712939
C -2.133760 -0.986469 -1.342610
C -2.122328 -0.939463 -1.155473
C -2.175655 -0.862934 -0.994959
C -2.375267 -0.848742 -0.865107
C -2.458717 -0.831572 -0.723493
C -2.670922 -0.890474 -0.580399
C -2.585220 -1.048571 -0.685984
C -2.487779 -1.197230 -0.846934
C -2.547023 -1.298778 -0.898721
C -2.651977 -1.455739 -0.920424
C -2.583499 -1.561138 -0.939607
C -2.541075 -1.627024 -0.947069
C -2.370716 -1.665039 -1.043539
C -2.428905 -1.552846 -0.903615
C -2.586806 -1.422809 -0.667904
C -2.407458 -1.417579 -0.695998
C -2.152026 -1.509411 -0.844537
C -1.835027 -1.570244 -1.001362
C -1.562367 -1.551425 -1.049334
C -1.444615 -1.610347 -1.061173
C -1.198081 -1.784477 -1.198154
C -1.181757 -1.891700 -1.125757
C -1.228338 -1.867380 -1.027229
C -1.146441 -1.769430 -0.955644
C -1.337209 -1.707610 -0.767181
C -1.499118 -1.831729 -0.766806
C -1.470416 -1.833274 -0.741710
C -1.197801 -1.818120 -0.796570
C -0.765807 -1.969059 -1.127494
C -0.310029 -2.096852 -1.398331
C -0.116994 -2.153260 -1.416232
C 0.434091 -2.141283 -1.623153
C 0.907715 -2.058048 -1.738321
C 1.257204 -2.144684 -1.900392
C 1.189909 -2.156815 -1.894348
C 1.288705 -2.113688 -1.828959
C 1.109576 -2.155060 -1.709599
C 1.046030 -2.155938 -1.621240
C 0.813494 -2.237218 -1.464121
C 0.639137 -2.400271 -1.361874
C 0.775993 -2.322795 -1.323340
C 0.975200 -2.337122 -1.301793
C 1.038607 -2.387093 -1.323750
C 1.226630 -2.424880 -1.360059
C 1.140148 -2.551614 -1.352152
C 1.037646 -2.525937 -1.332908
C 0.869939 -2.440465 -1.253328
C 0.413145 -2.503833 -1.062310
C 0.120963 -2.590916 -0.980520
C -0.153515 -2.585537 -0.784136
C -0.617968 -2.596960 -0.554405
C -0.633929 -2.576605 -0.481585
C -0.721405 -2.586583 -0.374035
C -0.983392 -2.494283 -0.105482
C -1.038925 -2.582317 -0.066652
C -0.971134 -2.561615 0.009198
C -1.150390 -2.567130 0.154985
C -1.149319 -2.505880 0.233860
C -1.369798 -2.366244 0.408510
C -1.493267 -2.395090 0.499611
C -1.410314 -2.566477 0.450019
C -1.167109 -2.588832 0.415335
C -1.179087 -2.666801 0.480101
C -1.048357 -2.748435 0.473880
C -0.991044 -2.790199 0.505560
C -0.775778 -2.873026 0.428316
C -0.576267 -3.003751 0.434465
C -0.534952 -2.867755 0.438373
C -0.787495 -2.694102 0.579480
C -0.841837 -2.612914 0.692871
C -0.516016 -2.607053 0.523270
C -0.325851 -2.656767 0.496938
C -0.381937 -2.603800 0.606273
C -0.554666 -2.432649 0.703593
C -0.444168 -2.481983 0.750746
C -0.467933 -2.437091 0.808135
C -0.354818 -2.380735 0.743645
C -0.429205 -2.312218 0.856133
C -0.325013 -2.215450 0.823456
C -0.096445 -2.248324 0.736956
C 0.252275 -2.374928 0.656085
C 0.527470 -2.375141 0.525136
C 0.870410 -2.540599 0.454096
C 1.033963 -2.615170 0.414477
C 1.032893 -2.656415 0.494265
C 0.952727 -2.649152 0.581829
C 0.922070 -2.543861 0.593017
C 0.949889 -2.414992 0.558212
C 1.151131 -2.291529 0.441600
C 1.192776 -2.166641 0.402587
C 0.981710 -2.011026 0.521298
C 0.854004 -1.866514 0.552593
C 0.819104 -1.886631 0.639782
C 0.695257 -1.921907 0.745705
C 0.553913 -1.815144 0.815623
C 0.426534 -1.835149 0.932622
C 0.516067 -1.879818 0.938064
C 0.795854 -1.944468 0.919819
C 1.116322 -1.935842 0.774196
C 1.457541 -1.837156 0.549868
C 1.861660 -1.800259 0.365407
C 2.140448 -1.841854 0.281260
C 2.198372 -1.847470 0.336149
C 2.034923 -1.858616 0.524200
C 1.655661 -1.740832 0.622452
C 1.345865 -1.722278 0.867220
C 1.256065 -1.658280 0.971515
C 1.321665 -1.603200 0.996090
C 1.341285 -1.587438 1.080190
C 1.425623 -1.548228 1.045984
C 1.712912 -1.386851 0.857547
C 2.240004 -1.317277 0.649812
C 2.569893 -1.204013 0.441551
C 2.603879 -1.224170 0.469863
C 2.533984 -1.285962 0.637333
C 2.497267 -1.358246 0.721986
C 2.316441 -1.417478 0.925434
C 2.105590 -1.558546 1.153786
C 1.917406 -1.686912 1.422014
C 1.961608 -1.750718 1.542244
C 2.084681 -1.736333 1.571263
C 1.966692 -1.724111 1.647443
C 1.877191 -1.599855 1.652305
C 1.744447 -1.625309 1.766264
C 1.601774 -1.487775 1.742485
C 1.363969 -1.375357 1.738157
C 0.809575 -1.263865 1.849078
C 0.321675 -1.198352 1.974199
C -0.017552 -1.146938 2.076806
C -0.330285 -1.126175 2.230325
C -0.529221 -1.027934 2.313962
C -0.753661 -0.996922 2.412245
C -0.849145 -0.986519 2.525403
C -0.205361 -0.933139 2.269992
C -0.293125 -0.918162 2.397335
C -0.407489 -0.793385 2.457094
C -0.490498 -0.626134 2.509749
C -0.586021 -0.437633 2.523339
C -0.600016 -0.347853 2.572810
C -0.732750 -0.299007 2.549780
C -1.336778 -0.291134 2.886177
C -1.175020 -0.280713 2.895967
C -0.937958 -0.365702 2.898626
C -0.874662 -0.447270 2.885697
C -0.636563 -0.595861 2.815759
C -0.371862 -0.686386 2.810978
C -0.043182 -0.733821 2.834580
C 0.231056 -0.860088 2.868414
C 0.269643 -0.853444 2.784426
C 0.168833 -0.737336 2.713998
C 0.248037 -0.724758 2.596520
C 0.138940 -0.648129 2.563480
C -0.046748 -0.553985 2.556283
C -0.328248 -0.392629 2.556867
C -0.615972 -0.205370 2.499215
C -0.650181 -0.138013 2.489838
C -0.541445 -0.139892 2.536856
C -0.389425 -0.137304 2.607146
C -0.186881 -0.135518 2.692293
C -0.094428 -0.094955 2.783908
C 0.238096 -0.204099 2.769874
C 0.576685 -0.223852 2.873454
C 0.984626 -0.266909 2.792717
C 1.204714 -0.316216 2.734805
C 1.355002 -0.327053 2.714898
C 1.322396 -0.254053 2.759876
C 1.371298 -0.245955 2.694992
C 1.507477 -0.211463 2.694482
C 1.654599 -0.262206 2.576284
C 1.618857 -0.229872 2.604256
C 1.717900 -0.150373 2.599558
C 1.915273 -0.084478 2.487575
C 2.207178 -0.028433 2.322445
C 2.494449 -0.045744 2.158713
C 2.470073 0.018953 2.118608
C 2.373809 0.052520 2.058898
C 2.501384 0.148068 1.954359
C 2.357659 0.135735 1.908130
C 2.092567 0.158257 1.960073
C 2.075009 0.132878 1.840613
C 2.135988 0.202184 1.808358
C 1.984863 0.277998 1.876821
C 2.183804 0.406605 1.835207
C 2.183760 0.469562 1.770320
C 2.270401 0.580412 1.820906
C 2.341212 0.618808 1.797914
C 1.977941 0.710119 2.016102
C 1.718961 0.717761 2.106496
C 1.873201 0.761530 1.974382
C 1.785582 0.776055 1.975105
C 1.764853 0.899597 1.972574
C 1.935374 0.977291 1.754143
C 2.068029 1.093511 1.669662
C 2.409618 1.102294 1.454473
C 2.575506 1.233829 1.362110
C 2.622891 1.293842 1.291887
C 2.591138 1.364216 1.305124
C 2.398412 1.250895 1.452480
C 2.313143 1.283420 1.569704
C 2.273713 1.410506 1.612114
C 2.088262 1.413676 1.768578
C 2.062928 1.386315 1.869654
C 1.936363 1.371730 2.030319
C 1.883044 1.419988 2.101546
C 1.918822 1.595931 2.100500
C 1.834212 1.658653 2.149837
C 1.681612 1.539062 2.265045
C 1.717215 1.598181 2.233951
C 1.636257 1.585394 2.244204
C 1.599323 1.590280 2.190339
C 1.545777 1.580221 2.234887
C 1.404404 1.517636 2.306887
C 1.229143 1.450599 2.391916
C 1.095904 1.473747 2.427999
C 0.920485 1.452744 2.493114
C 0.750254 1.477013 2.537245
C 0.514543 1.473676 2.595647
C 0.231563 1.373823 2.576102
C 0.008928 1.273313 2.599270
C -0.077650 1.225785 2.558603
C -0.050395 1.198363 2.499144
C -0.023538 1.377107 2.507401
C 0.024499 1.517898 2.512566
C 0.168332 1.690000 2.504597
C 0.353529 1.950548 2.497977
C 0.577149 2.201820 2.429292
C 0.731275 2.414916 2.382506
C 1.213292 2.501343 1.918828
C 0.727263 2.413472 1.933127
C 0.767267 2.426966 1.811923
C 0.776973 2.424353 1.690217
C 0.785609 2.329914 1.520279
