381
chr4 3D structure from Hi-C (resolution 500000bp)
C -3.708655 0.654044 -1.233276
C -3.709074 0.582361 -1.145093
C -3.745042 0.537306 -1.066409
C -3.735987 0.435087 -1.013561
C -3.762768 0.337189 -0.962446
C -3.669593 0.248563 -0.991977
C -3.540157 0.035436 -1.016168
C -3.384589 -0.064298 -1.175464
C -3.251061 -0.185859 -1.302910
C -3.117841 -0.295602 -1.423256
C -3.050687 -0.356705 -1.474243
C -2.962782 -0.461542 -1.542528
C -2.951562 -0.467839 -1.642747
C -2.968423 -0.472661 -1.698491
C -2.913029 -0.534136 -1.761979
C -2.850290 -0.443751 -1.967632
C -2.762681 -0.497522 -2.024216
C -2.570024 -0.573713 -2.112971
C -2.463242 -0.655419 -2.078648
C -2.344066 -0.718281 -2.123787
C -2.140294 -0.740758 -2.276509
C -1.953714 -0.757406 -2.386309
C -1.819845 -0.882962 -2.385113
C -1.746721 -0.831938 -2.553919
C -1.707993 -0.778485 -2.765269
C -1.614804 -0.813102 -2.901696
C -1.556173 -0.856469 -2.936544
C -1.596155 -0.950630 -2.871272
C -1.748849 -1.045602 -2.693018
C -1.794366 -1.126328 -2.563283
C -1.723296 -1.224347 -2.548011
C -1.712749 -1.275391 -2.508863
C -1.778204 -1.172917 -2.526104
C -1.691770 -1.167255 -2.545828
C -1.507848 -1.133321 -2.657989
C -1.225555 -1.013008 -2.908082
C -0.958080 -0.967575 -3.089743
C -0.863659 -0.986611 -3.116813
C -0.745946 -1.039597 -3.112272
C -0.495367 -1.159138 -3.151442
C -0.357869 -1.167359 -3.233351
C -0.348351 -1.226130 -3.174739
C -0.407095 -1.284721 -3.140482
C -0.466596 -1.293259 -3.117923
C -0.396974 -1.274868 -3.150570
C -0.427464 -1.295250 -3.164445
C -0.632532 -1.357042 -3.055926
C -0.883469 -1.398995 -2.804674
C -1.055705 -1.433571 -2.650278
C -1.251675 -1.525681 -2.406033
C -1.431478 -1.672199 -2.197979
C -1.531272 -1.802616 -2.020402
C -1.498221 -1.860869 -1.896103
C -1.291611 -1.866038 -1.918882
C -0.925776 -1.911305 -2.131957
C -0.606928 -1.935382 -2.292604
C -0.195124 -1.977095 -2.478016
C -0.007506 -1.983567 -2.572769
C 0.053363 -1.990512 -2.576803
C 0.159623 -1.985717 -2.616081
C 0.204187 -2.029058 -2.605951
C 0.179667 -2.063442 -2.534736
C 0.161637 -2.106464 -2.470181
C 0.187787 -2.149082 -2.426405
C 0.433891 -2.114359 -2.468055
C 0.578081 -2.138535 -2.471088
C 0.891459 -2.028877 -2.608880
C 0.880496 -2.020839 -2.533701
C 0.783714 -2.065755 -2.430490
C 0.545482 -2.005715 -2.246936
C 0.248477 -2.047923 -2.025535
C -0.099223 -2.065392 -1.804016
C -0.493304 -1.967250 -1.617867
C -1.135367 -1.984826 -1.216130
C -1.506098 -1.850922 -1.007244
C -1.937712 -1.660082 -0.755588
C -2.254129 -1.515295 -0.589190
C -2.467412 -1.370050 -0.404698
C -2.699805 -1.276597 -0.236415
C -2.692116 -1.327660 -0.166962
C -2.627610 -1.459943 -0.190727
C -2.521604 -1.624256 -0.254783
C -2.281071 -1.825601 -0.401017
C -1.569902 -2.097186 -0.691572
C -1.003253 -2.272910 -0.972153
C -0.503378 -2.444352 -1.237876
C -0.135891 -2.606141 -1.434376
C 0.147480 -2.722150 -1.604929
C 0.538088 -2.803837 -1.753343
C 0.737678 -2.922259 -1.835952
C 0.481701 -2.922427 -1.760166
C 0.192438 -2.955044 -1.639755
C -0.198351 -2.969503 -1.482047
C -0.509402 -2.758692 -1.284743
C -0.837611 -2.594453 -1.099364
C -0.604623 -2.390241 -1.248572
C -0.078512 -2.057679 -1.388674
C -0.616712 -1.460278 -1.005469
C -1.126900 -0.843049 -0.668876
C -0.327415 -0.618971 -0.850152
C -0.588209 -0.563826 -0.671061
C -0.404628 -0.670625 -0.646490
C -0.989360 -0.721175 -0.233741
C -1.830818 -0.901693 0.183491
C -1.469029 -1.355695 0.016364
C -1.087617 -1.901957 -0.159246
C -1.717496 -2.166076 0.123124
C -1.326742 -2.309762 0.006325
C -1.385232 -2.256313 0.120015
C -1.372039 -2.307978 0.194775
C -1.197165 -2.292696 0.209649
C -0.990640 -2.350356 0.243874
C -0.600648 -2.379345 0.166413
C -0.420307 -2.289695 0.168701
C -0.222455 -2.396645 0.195026
C 0.082183 -2.495743 0.166169
C 0.412772 -2.503709 0.082632
C 0.771517 -2.529318 -0.013564
C 0.994468 -2.593150 -0.076607
C 1.000280 -2.642986 -0.014666
C 1.200259 -2.718316 -0.049409
C 1.267526 -2.705641 -0.074528
C 1.273606 -2.641503 -0.094069
C 1.351960 -2.704031 -0.063205
C 1.370598 -2.743573 -0.013207
C 1.432583 -2.741765 0.010764
C 1.475168 -2.651750 0.041776
C 1.313698 -2.547903 0.167418
C 1.334333 -2.489671 0.248748
C 1.355483 -2.457065 0.350609
C 1.270259 -2.410112 0.455614
C 1.103324 -2.358640 0.580520
C 0.785989 -2.245860 0.722698
C 0.966615 -2.272616 0.676247
C 0.241828 -1.715422 0.694564
C 0.064633 -1.721465 0.801014
C -0.020934 -1.751076 0.869185
C -0.102873 -1.857326 0.952902
C -0.257429 -1.937348 1.073456
C -0.219328 -2.153711 1.131563
C -0.612441 -2.175849 1.321417
C 0.043932 -2.908742 1.438490
C 0.011943 -2.998495 1.528412
C -0.249100 -2.966907 1.613910
C -0.494321 -2.785266 1.641146
C -0.540655 -2.653994 1.608306
C -0.683539 -2.510732 1.618908
C -0.846982 -2.330134 1.644390
C -1.236146 -1.994521 1.644022
C -1.462352 -1.697154 1.564491
C -1.497627 -1.505367 1.499517
C -1.531541 -1.417330 1.455358
C -1.734752 -1.320487 1.499576
C -1.753482 -1.212346 1.524777
C -1.926886 -1.202231 1.640313
C -1.748125 -1.329485 1.761986
C -1.609315 -1.417523 1.895658
C -1.645316 -1.421068 2.034929
C -1.685129 -1.437658 2.223596
C -1.547949 -1.471750 2.312740
C -1.467470 -1.462768 2.355937
C -1.300777 -1.469005 2.333578
C -1.426121 -1.302420 2.275958
C -1.635246 -1.108250 2.231338
C -1.410809 -1.183451 2.150602
C -1.141794 -1.296260 2.119295
C -0.910705 -1.392075 2.087954
C -0.726495 -1.371767 2.002484
C -0.633456 -1.347956 1.996230
C -0.289227 -1.479003 1.974354
C -0.293219 -1.434236 2.006734
C -0.432269 -1.292303 2.031497
C -0.399155 -1.152852 1.937441
C -0.557951 -0.965350 1.922648
C -0.695558 -0.957409 2.127315
C -0.662680 -0.944745 2.108372
C -0.561927 -0.956373 2.166912
C 0.010728 -1.180182 2.212949
C 0.462695 -1.390347 2.161178
C 0.663024 -1.450223 2.209096
C 1.178536 -1.625556 2.097257
C 1.635021 -1.704036 1.882933
C 2.049371 -1.767947 1.793887
C 2.163330 -1.704989 1.696025
C 2.247341 -1.653144 1.553092
C 2.106889 -1.532128 1.661342
C 2.007599 -1.419740 1.611039
C 1.846822 -1.261751 1.667504
C 1.773098 -1.220145 1.757708
C 1.838377 -1.197977 1.691426
C 1.948119 -1.171789 1.697750
C 1.943341 -1.193032 1.760227
C 2.110270 -1.224479 1.750191
C 2.064848 -1.214778 1.893589
C 1.918524 -1.223762 1.973031
C 1.667347 -1.121300 2.022227
C 1.198053 -0.974288 2.272710
C 0.858152 -0.879568 2.473305
C 0.664835 -0.739706 2.587084
C 0.199614 -0.547344 2.712285
C 0.238032 -0.480473 2.662187
C 0.228760 -0.358466 2.662698
C -0.036708 -0.178843 2.720202
C 0.019947 -0.103517 2.802060
C 0.197892 -0.094226 2.710682
C -0.083485 0.050860 2.730856
C -0.122574 0.150203 2.650162
C -0.438393 0.281720 2.641349
C -0.613887 0.378225 2.696546
C -0.331985 0.333703 2.789559
C -0.046662 0.253618 2.672510
C 0.036899 0.259969 2.630513
C 0.182529 0.248068 2.692286
C 0.325035 0.240991 2.771543
C 0.555446 0.183804 2.759099
C 0.695290 0.206689 2.816323
C 0.512524 0.250508 2.670571
C 0.140638 0.387964 2.648190
C 0.029649 0.470714 2.721770
C 0.475380 0.334271 2.334830
C 0.751906 0.253827 2.273195
C 0.632223 0.360309 2.252662
C 0.512082 0.389146 2.162833
C 0.578212 0.441890 2.202657
C 0.497355 0.517318 2.191717
C 0.470905 0.537451 2.147571
C 0.305211 0.670416 2.382384
C 0.295504 0.726979 2.299203
C 0.506543 0.705069 2.318932
C 0.778742 0.691104 2.338402
C 1.061844 0.668146 2.227966
C 1.538320 0.574244 2.210740
C 1.776630 0.534488 2.101418
C 1.933877 0.537277 2.014054
C 1.811442 0.602973 2.036277
C 1.859987 0.622560 1.975396
C 1.923678 0.606441 1.804730
C 2.110805 0.510844 1.685524
C 2.062697 0.481796 1.573239
C 1.746904 0.592063 1.589966
C 1.398624 0.663574 1.612106
C 1.406657 0.722667 1.603771
C 1.261256 0.729983 1.588429
C 1.067266 0.761784 1.580769
C 0.788963 0.974640 1.724570
C 0.749304 1.143614 1.845692
C 1.018181 1.183527 1.879098
C 1.280962 1.211518 1.860749
C 1.503650 1.181674 1.727072
C 1.824153 1.178059 1.637419
C 2.043364 1.242382 1.654150
C 2.172947 1.259473 1.577599
C 1.975815 1.331660 1.631488
C 1.630423 1.389796 1.610950
C 1.297527 1.463189 1.648256
C 1.217389 1.511428 1.618266
C 1.303876 1.499937 1.547756
C 1.416105 1.420143 1.421389
C 1.550853 1.301805 1.236409
C 1.874980 1.109711 0.910519
C 2.328768 0.950518 0.630339
C 2.689257 0.921940 0.443033
C 2.737360 0.903496 0.378557
C 2.712919 0.964426 0.372529
C 2.760236 1.003742 0.291017
C 2.679237 1.065154 0.304921
C 2.704587 1.162934 0.366330
C 2.660815 1.221184 0.370948
C 2.729160 1.114523 0.218137
C 2.850795 1.059327 0.087724
C 2.775965 1.144242 0.055105
C 2.576061 1.231685 0.168056
C 2.448824 1.435195 0.315225
C 2.039790 1.536975 0.407892
C 1.700478 1.660158 0.556361
C 1.153075 1.829762 0.816340
C 0.660720 1.974175 1.027290
C 0.227060 2.037018 1.184069
C -0.119315 2.139245 1.260030
C -0.362139 2.159217 1.343468
C -0.436005 2.267079 1.386244
C -0.475378 2.372527 1.479644
C -0.584674 2.477113 1.474891
C -0.628985 2.636838 1.497496
C -0.711491 2.748964 1.445745
C -0.750688 2.863014 1.379081
C -0.364155 2.603580 0.929461
C -0.496009 2.592093 0.882115
C -0.746738 2.570731 0.817923
C -0.670153 2.523363 0.711954
C -0.573662 2.482004 0.684683
C -0.396772 2.441553 0.706276
C -0.439312 2.353297 0.647925
C -0.719912 2.590774 0.948880
C -0.320245 2.549227 0.848125
C 0.048875 2.582604 0.777170
C 0.328080 2.671351 0.807072
C 0.346796 2.645145 0.744430
C 0.236804 2.599316 0.667352
C 0.350919 2.543814 0.679701
C 0.126003 2.486585 0.676000
C -0.294171 2.463419 0.731492
C -0.723110 2.436075 0.778626
C -1.062987 2.342376 0.745094
C -1.084961 2.344655 0.694325
C -0.893125 2.400827 0.658740
C -0.744450 2.497442 0.629717
C -0.456092 2.603803 0.570631
C 0.078474 2.540434 0.292922
C 0.474227 2.577907 0.180091
C 1.054380 2.503947 -0.019099
C 1.419862 2.462983 -0.155162
C 1.611576 2.377897 -0.273273
C 1.768922 2.323393 -0.347250
C 1.765120 2.350062 -0.397920
C 1.539434 2.503997 -0.209023
C 1.732082 2.471498 -0.340091
C 1.665932 2.578611 -0.326515
C 1.653092 2.526948 -0.368265
C 1.665648 2.510142 -0.504109
C 1.809725 2.429597 -0.738148
C 1.939825 2.334074 -0.918129
C 2.088363 2.296803 -1.021455
C 1.968120 2.348892 -1.002177
C 1.796479 2.344649 -0.978727
C 1.847602 2.300068 -1.120352
C 1.762070 2.302710 -1.019818
C 1.485456 2.317517 -0.852104
C 1.468614 2.248062 -0.912034
C 1.465474 2.180481 -1.057235
C 1.268121 2.241327 -1.049036
C 1.405076 2.140143 -1.296627
C 1.318237 2.165943 -1.372999
C 1.306595 2.230228 -1.492886
C 1.285279 2.318181 -1.515672
C 0.864372 2.449955 -1.315326
C 0.652705 2.507467 -1.111818
C 0.737639 2.475270 -1.148825
C 0.568740 2.651818 -0.974182
C 0.503868 2.627786 -1.068283
C 0.476378 2.544261 -1.202700
C 0.580433 2.491010 -1.401957
C 0.880722 2.398856 -1.588317
C 0.704617 2.494188 -1.683925
C 0.747712 2.456807 -1.783029
C 0.657876 2.475505 -1.801721
C 0.565951 2.568194 -1.538304
C 0.606874 2.555898 -1.537384
C 0.583618 2.542754 -1.624634
C 0.454851 2.601620 -1.582118
C 0.699321 2.532938 -1.696466
C 0.566398 2.572530 -1.653835
C 0.655498 2.502696 -1.783314
C 0.578303 2.577697 -1.900078
C 0.438746 2.666120 -1.897701
C 0.335756 2.745818 -1.733087
C 0.296096 2.783453 -1.742398
C 0.203765 2.796811 -1.642714
C 0.225328 2.729285 -1.656876
C 0.116658 2.716578 -1.628377
C -0.017943 2.699661 -1.561405
C -0.175287 2.742358 -1.428992
C -0.352409 2.745481 -1.374441
C -0.450291 2.677215 -1.299912
C -0.611352 2.653997 -1.270269
C -0.874874 2.637189 -1.145389
C -1.064737 2.616143 -0.949333
C -1.165454 2.612105 -0.765245
C -1.169258 2.574191 -0.674728
C -1.104727 2.514448 -0.649107
C -1.125079 2.575751 -0.857663
C -1.032917 2.553177 -1.103731
C -0.906799 2.563864 -1.348096
C -0.843049 2.573854 -1.634343
C -0.714741 2.553214 -1.973428
C -0.665233 2.554337 -2.215330
C -0.132860 2.174225 -2.525925
C 0.438803 1.747436 -2.676728
C 0.598646 1.629398 -2.713613
C 0.859215 1.471200 -2.793111
C 1.328897 1.202132 -2.873882
