214
chr14 3D structure from Hi-C (resolution 500000bp)
C -4.684793 -3.907351 -1.418330
C -4.882927 -3.637410 -1.309895
C -5.044091 -3.116909 -1.448821
C -5.136205 -2.633966 -1.620383
C -5.262025 -2.024248 -1.758232
C -5.304840 -1.392233 -2.096018
C -5.228982 -0.805224 -2.646278
C -4.960483 -0.368644 -3.333854
C -4.427728 -0.115098 -4.073990
C -3.675168 -0.211895 -4.676963
C -2.846857 -0.546809 -5.182794
C -2.126779 -0.999279 -5.540273
C -1.712905 -1.419596 -5.729305
C -1.564438 -1.777763 -5.735142
C -1.588318 -2.157014 -5.559423
C -1.734812 -2.743290 -5.087413
C -1.989677 -3.357621 -4.513659
C -2.209028 -3.873065 -4.019546
C -2.239844 -4.267751 -3.682657
C -1.990262 -4.581841 -3.519561
C -1.642754 -4.837722 -3.499825
C -1.461707 -4.962676 -3.531072
C -1.751144 -4.567693 -3.569269
C -2.269178 -3.972767 -3.410192
C -2.961405 -3.274968 -3.027770
C -3.796251 -2.522395 -2.352441
C -4.636102 -1.739946 -1.362788
C -5.368042 -0.899496 -0.311017
C -5.875819 0.006778 0.575881
C -6.007525 0.680323 1.100940
C -6.020040 1.168704 1.256428
C -6.018448 1.453665 1.251747
C -5.977441 1.294091 1.368954
C -5.913035 0.886197 1.340891
C -5.707572 0.169032 1.299431
C -5.464759 -0.735492 1.341438
C -4.937346 -1.578811 1.596552
C -4.264929 -2.055383 1.935036
C -3.562101 -2.256508 2.273793
C -2.908585 -2.017042 2.388790
C -2.264987 -1.752858 2.254366
C -1.843674 -1.209108 2.215759
C -1.506584 -0.433888 2.267534
C -1.424703 0.209599 2.184451
C -1.455172 0.450707 2.116895
C -1.493537 0.602247 2.090789
C -1.400310 0.412456 1.956566
C -1.350356 0.162840 1.967384
C -1.149235 -0.406551 1.849744
C -0.931740 -1.089989 1.813895
C -0.733198 -1.771760 1.864333
C -0.555643 -2.359482 1.816570
C -0.421232 -3.010500 1.797419
C -0.376123 -3.396419 1.785253
C -0.322938 -3.486026 1.871078
C -0.366674 -3.326735 2.064299
C -0.402256 -3.199998 2.094766
C -0.387410 -2.968155 2.128688
C -0.406866 -2.462691 2.295085
C -0.391643 -1.887976 2.418548
C -0.339201 -1.478958 2.576949
C -0.316760 -1.172844 2.705878
C -0.298629 -1.000646 2.724443
C -0.231487 -0.874399 2.794266
C -0.203439 -0.782905 2.810538
C -0.173659 -0.847464 2.767504
C -0.219340 -0.729134 2.729839
C -0.300954 -0.494492 2.711534
C -0.294674 -0.406501 2.661032
C -0.263787 -0.394628 2.490431
C -0.187763 -0.457024 2.289507
C -0.097045 -0.686034 2.060645
C 0.029225 -1.047613 1.916227
C 0.264356 -1.589578 1.747819
C 0.497716 -1.998630 1.675956
C 0.590221 -2.037305 1.667631
C 0.747096 -2.108912 1.787071
C 0.898156 -2.175577 1.892487
C 1.031211 -2.195752 1.996134
C 1.175761 -2.185657 2.077618
C 1.285603 -2.228185 2.168423
C 1.337816 -2.234711 2.217188
C 1.536744 -2.616616 2.057970
C 1.623283 -2.880850 1.878285
C 1.635690 -3.017986 1.724473
C 1.635510 -3.057042 1.639831
C 1.625177 -2.851042 1.626131
C 1.593551 -2.527217 1.646035
C 1.675761 -2.436064 1.657260
C 1.727448 -2.290795 1.738191
C 1.841028 -1.998148 1.901263
C 1.971949 -1.707306 2.043202
C 2.112650 -1.496266 2.093376
C 2.316891 -1.545120 2.070962
C 2.527075 -1.708800 1.995151
C 2.566488 -1.656716 1.856845
C 2.319953 -1.203158 1.931309
C 2.009776 -0.691741 1.986380
C 1.716435 -0.277430 1.996852
C 1.457440 0.119891 2.043033
C 1.160124 0.571252 2.201303
C 0.974370 0.904261 2.213555
C 0.780727 1.261998 2.261396
C 0.915258 1.219653 2.246102
C 1.112642 1.019284 2.163804
C 1.244318 0.970810 2.154268
C 1.242678 1.135235 2.173554
C 1.258212 1.253379 2.102952
C 1.331356 1.374580 2.185533
C 1.555697 1.203792 2.129858
C 1.706377 1.127937 2.029484
C 1.751532 1.145476 1.990467
C 1.906838 1.010466 1.839285
C 2.045523 0.937701 1.826083
C 2.217364 0.825864 1.731988
C 2.221223 0.872921 1.642368
C 2.316213 0.882948 1.588287
C 2.272447 0.977532 1.591087
C 2.386045 1.044177 1.499858
C 2.381246 1.232790 1.528247
C 2.487706 1.226050 1.450760
C 2.619574 1.025739 1.382326
C 2.819597 0.719216 1.259197
C 2.757166 0.826905 1.198788
C 2.638642 1.055664 1.179952
C 2.378266 1.303976 1.230843
C 2.224075 1.457610 1.118723
C 2.059522 1.670622 1.059252
C 1.859943 2.070482 1.037586
C 1.667676 2.438953 0.983689
C 1.551638 2.723287 1.028689
C 1.438008 2.764690 0.961312
C 1.347267 2.842049 0.901746
C 1.096592 3.005458 0.987179
C 0.964889 3.133820 1.006785
C 0.711226 3.247103 0.973684
C 0.411351 3.399994 0.968993
C 0.127295 3.431232 0.890585
C -0.077954 3.523329 0.848705
C -0.236025 3.564724 0.786869
C -0.133733 3.604306 0.652375
C -0.051216 3.598197 0.535758
C -0.029235 3.633100 0.460139
C -0.121978 3.751291 0.442159
C -0.221842 3.868664 0.349607
C -0.158683 3.854974 0.182393
C -0.032538 3.887621 -0.005970
C -0.126480 3.868934 -0.073835
C -0.169582 3.798773 -0.152068
C -0.033256 3.690541 -0.250412
C 0.161430 3.497743 -0.343759
C 0.434464 3.284937 -0.414509
C 0.656790 3.030508 -0.416721
C 0.920816 2.573239 -0.405271
C 1.347406 2.118887 -0.465460
C 1.659861 1.555439 -0.483537
C 1.948013 1.075624 -0.505738
C 2.317492 0.627312 -0.540120
C 2.571548 0.303376 -0.516026
C 2.731134 0.092381 -0.535625
C 2.765974 -0.088008 -0.554312
C 2.843941 -0.321857 -0.617272
C 2.894771 -0.450961 -0.731635
C 2.915975 -0.600561 -0.793684
C 2.903553 -0.763849 -0.859658
C 2.920647 -1.088243 -1.000362
C 2.980928 -1.407029 -1.154884
C 3.037118 -1.556300 -1.265162
C 2.951103 -1.641448 -1.349043
C 2.865661 -1.725887 -1.396929
C 2.754079 -1.781499 -1.470318
C 2.625090 -1.820796 -1.523932
C 2.527081 -1.660281 -1.476557
C 2.467478 -1.401480 -1.439940
C 2.428490 -1.113856 -1.418252
C 2.370515 -0.674250 -1.324524
C 2.332969 -0.156866 -1.276862
C 2.246712 0.290471 -1.241799
C 2.168415 0.787804 -1.251108
C 2.044211 1.296585 -1.327146
C 1.910378 1.731721 -1.622478
C 1.792929 2.009944 -1.688479
C 1.618434 2.209806 -1.852216
C 0.938875 2.181602 -2.501446
C 0.395235 2.160460 -3.170525
C 0.351428 2.145158 -3.571094
C 0.383528 1.892576 -3.655413
C 0.313776 1.775866 -3.427977
C 0.247882 1.704556 -3.465356
C 0.294055 1.502170 -3.456885
C 0.760588 1.436212 -2.865862
C 1.288759 1.328805 -2.310971
C 1.327983 1.074707 -2.023132
C 1.305730 0.819807 -2.032367
C 1.415341 0.429742 -2.131757
C 1.496865 0.220436 -2.179981
C 1.439080 0.190480 -2.179690
C 1.329884 0.330745 -2.149764
C 1.200097 0.361701 -2.159974
C 1.138638 0.435063 -2.222728
C 0.935694 0.818584 -2.199921
C 0.683168 1.295076 -2.093523
C 0.341507 1.707217 -2.006510
C 0.115542 2.000008 -1.963904
C 0.006540 2.190201 -2.058750
C -0.183918 2.496569 -2.121331
C -0.543879 2.944261 -2.117032
C -0.765467 3.150533 -2.140044
C -1.377089 3.252727 -2.266032
C -2.010217 3.171157 -2.409844
C -2.507220 3.149245 -2.596725
C -2.815546 3.138638 -2.668805
C -3.278968 3.219900 -2.661428
C -3.787933 3.188806 -2.646006
