214
chr14 3D structure from Hi-C (resolution 500000bp)
C 5.773445 -1.433633 -2.186558
C 5.509077 -1.718412 -2.504591
C 5.196174 -1.922336 -2.847216
C 4.831065 -2.084854 -3.183931
C 4.186028 -2.461921 -3.782676
C 3.473280 -2.655801 -4.409388
C 2.789461 -2.567247 -4.993148
C 2.210146 -2.243624 -5.487009
C 2.178986 -1.109316 -4.880290
C 2.260967 0.016624 -3.986029
C 2.517215 1.062295 -2.854315
C 2.977227 1.946003 -1.581446
C 3.605725 2.572942 -0.252459
C 4.332113 2.896176 1.057529
C 5.080005 2.959287 2.272620
C 5.394818 2.186486 2.360972
C 5.716361 1.429971 2.128059
C 5.884629 0.854544 1.313068
C 5.896442 0.396914 0.290039
C 5.724561 0.064206 -0.837665
C 5.370348 -0.112237 -1.995957
C 4.856611 -0.082856 -3.125238
C 4.249847 0.151922 -4.145177
C 3.685158 0.505358 -4.967731
C 3.356529 0.829961 -5.258813
C 3.233694 1.181205 -5.306979
C 3.312504 1.569171 -5.114626
C 3.604350 2.088498 -4.298387
C 4.052406 2.441840 -3.351152
C 4.605629 2.566131 -2.484762
C 5.097046 2.577268 -1.819816
C 5.408600 2.626601 -1.353908
C 5.506534 2.807133 -1.052756
C 5.357090 3.102483 -0.933290
C 4.945103 3.352232 -1.316903
C 4.482362 3.727101 -1.736417
C 3.674278 4.071402 -1.984756
C 2.844125 4.181368 -1.785641
C 2.081662 4.146010 -1.405291
C 1.478787 3.919058 -0.840725
C 0.966799 3.567024 -0.403935
C 0.627273 3.202736 0.157256
C 0.385453 2.714146 0.847880
C 0.466140 2.273592 1.364305
C 0.583267 2.126318 1.515469
C 0.646751 2.016641 1.655480
C 0.543529 1.995988 1.382739
C 0.455630 2.128840 1.144110
C 0.266730 2.201558 0.608627
C 0.055921 2.388470 -0.045751
C -0.237261 2.665631 -0.650011
C -0.487667 2.839444 -1.200884
C -0.713850 3.014047 -1.892394
C -0.878177 3.146897 -2.231364
C -0.959773 3.179946 -2.216847
C -0.981016 3.247324 -2.058741
C -1.042292 3.293727 -1.940298
C -1.047603 3.244075 -1.656262
C -1.049770 3.145419 -1.139169
C -0.995963 3.057418 -0.451027
C -0.955966 3.041554 0.008188
C -0.975621 2.959653 0.270554
C -0.962640 2.892252 0.436487
C -1.048576 2.857525 0.598682
C -0.977554 2.756321 0.621434
C -0.975067 2.712291 0.570298
C -0.890919 2.640030 0.623782
C -0.744695 2.511643 0.860910
C -0.707474 2.430694 0.928663
C -0.737612 2.253362 0.871008
C -0.736311 2.074821 0.753059
C -0.892641 1.995921 0.514665
C -1.029840 1.928628 0.040934
C -1.293130 1.937806 -0.588215
C -1.584498 1.913784 -1.077789
C -1.722335 1.910230 -1.135830
C -1.860373 1.969169 -1.109792
C -2.040390 2.010874 -1.132157
C -2.192531 2.114172 -1.107005
C -2.336637 2.230350 -1.025727
C -2.469100 2.326624 -0.914806
C -2.604594 2.399857 -0.997839
C -2.754581 2.418473 -1.433117
C -2.828839 2.357518 -1.799904
C -2.820615 2.247440 -1.984429
C -2.806143 2.118068 -2.064407
C -2.740151 2.015336 -1.871442
C -2.629683 1.832767 -1.640029
C -2.627523 1.730007 -1.412120
C -2.704419 1.669975 -1.136617
C -2.820782 1.620323 -0.772139
C -2.903409 1.532924 -0.627024
C -3.011152 1.463926 -0.442846
C -3.213713 1.364003 -0.513845
C -3.418473 1.335164 -0.652688
C -3.402506 1.278787 -0.635474
C -3.105404 1.204001 -0.235023
C -2.717048 1.138601 0.241435
C -2.379424 1.132758 0.762840
C -2.100191 1.096698 1.147302
C -1.764200 1.062966 1.618370
C -1.558211 1.039790 1.988347
C -1.394877 1.004056 2.353274
C -1.512627 0.934525 2.295616
C -1.725311 0.918218 2.145654
C -1.829584 0.823679 2.042493
C -1.774642 0.732219 2.184875
C -1.778587 0.662364 2.298760
C -1.724855 0.548188 2.321624
C -1.879988 0.409725 2.143746
C -1.985686 0.330560 1.992491
C -2.015676 0.293721 1.926941
C -2.200331 0.259837 1.809967
C -2.332767 0.208394 1.722395
C -2.460625 0.117480 1.602733
C -2.586210 0.077573 1.613613
C -2.615372 0.017514 1.570470
C -2.595045 -0.081987 1.649721
C -2.629797 -0.262807 1.686339
C -2.533465 -0.385295 1.806105
C -2.565849 -0.478593 1.783810
C -2.714758 -0.488887 1.538814
C -2.849905 -0.542917 1.221308
C -2.801885 -0.597432 1.240978
C -2.584139 -0.593831 1.484779
C -2.298260 -0.570127 1.718685
C -2.097919 -0.632292 1.843871
C -1.916438 -0.703145 1.991257
C -1.633814 -0.834909 2.356190
C -1.349230 -0.960363 2.672111
C -1.222441 -1.046805 2.920321
C -1.120685 -1.084381 2.891699
C -1.041241 -1.195465 2.912349
C -0.845675 -1.121927 3.091690
C -0.683098 -1.108328 3.216431
C -0.420896 -1.075258 3.297421
C -0.141016 -1.084647 3.449698
C 0.211443 -1.041440 3.491648
C 0.402327 -1.093667 3.547299
C 0.622668 -1.116453 3.541177
C 0.733988 -1.159465 3.479926
C 0.706197 -1.273702 3.401555
C 0.708616 -1.408825 3.385750
C 0.832990 -1.397706 3.506554
C 0.940123 -1.485623 3.563837
C 0.974180 -1.615213 3.505286
C 0.912454 -1.743498 3.446947
C 0.869432 -1.907218 3.446344
C 0.893846 -1.954368 3.401338
C 0.784208 -1.992088 3.276273
C 0.573211 -2.119025 3.035574
C 0.326159 -2.196992 2.854411
C 0.054058 -2.160843 2.630624
C -0.275562 -2.072434 2.204233
C -0.691821 -2.008846 1.751184
C -1.086318 -1.926335 1.247580
C -1.471813 -1.827352 0.776823
C -1.875549 -1.760284 0.331898
C -2.170628 -1.647079 0.007730
C -2.294824 -1.556222 -0.237543
C -2.427238 -1.542369 -0.389461
C -2.520712 -1.502320 -0.674979
C -2.549160 -1.540576 -0.837994
C -2.534039 -1.525277 -0.984133
C -2.529796 -1.511903 -1.163374
C -2.577064 -1.527053 -1.496093
C -2.673280 -1.583100 -1.807571
C -2.648307 -1.583996 -2.029880
C -2.543160 -1.573101 -2.097039
C -2.452069 -1.480124 -2.230759
C -2.374049 -1.445866 -2.372599
C -2.240962 -1.383013 -2.432504
C -2.110560 -1.374288 -2.301511
C -2.015371 -1.407466 -2.065298
C -1.943614 -1.497645 -1.742822
C -1.883574 -1.682701 -1.325266
C -1.763214 -1.851325 -0.850086
C -1.591576 -2.033296 -0.388003
C -1.445789 -2.268918 0.058823
C -1.273503 -2.471262 0.497198
C -1.036186 -2.880114 0.715259
C -0.830338 -3.016689 0.916908
C -0.586242 -3.162049 1.016626
C 0.039989 -3.505506 0.430933
C 0.585858 -3.859450 -0.155269
C 0.807361 -4.150519 -0.434344
C 0.797266 -4.156452 -0.730547
C 0.795466 -3.904569 -0.723770
C 0.810155 -3.870407 -0.830542
C 0.745195 -3.737331 -0.979865
C 0.263898 -3.396524 -0.520173
C -0.242036 -3.062911 -0.214597
C -0.427315 -2.655571 -0.324812
C -0.450696 -2.541562 -0.570572
C -0.584191 -2.493352 -0.968569
C -0.605168 -2.408899 -1.177294
C -0.539937 -2.403153 -1.201766
C -0.415598 -2.377625 -1.092377
C -0.287352 -2.373852 -0.970667
C -0.195168 -2.439708 -0.852602
C -0.004878 -2.513793 -0.491482
C 0.370106 -2.515987 0.004739
C 0.725474 -2.545226 0.408304
C 0.944967 -2.597331 0.682204
C 1.104908 -2.730720 0.801684
C 1.352022 -2.869448 1.000751
C 1.743097 -3.036630 1.436480
C 2.030162 -3.130085 1.581715
C 2.550807 -3.257537 1.439358
C 3.063680 -3.348363 1.105227
C 3.527838 -3.445705 0.752360
C 3.839079 -3.478223 0.636258
C 4.249139 -3.458075 0.601127
C 4.641024 -3.411455 0.305714
