397
chr3 3D structure from Hi-C (resolution 500000bp)
C -4.126884 -2.560798 -1.315683
C -4.070710 -2.691305 -1.266642
C -3.985226 -2.799320 -1.090549
C -3.945451 -2.847524 -0.918352
C -4.075261 -2.969770 -0.949498
C -3.991738 -2.995150 -0.695971
C -3.656500 -3.038570 -0.239725
C -3.386400 -3.179257 0.257936
C -3.363308 -3.254014 0.503660
C -3.382170 -3.354993 0.554703
C -3.442055 -3.439124 0.487802
C -3.498961 -3.515695 0.627928
C -3.648155 -3.474262 0.483826
C -3.905732 -3.453310 0.331960
C -3.831614 -3.339685 0.382806
C -3.558108 -3.216374 0.687635
C -3.203683 -3.056843 1.203571
C -2.793128 -2.916257 1.832022
C -2.476160 -2.772623 2.316096
C -2.044883 -2.738226 2.855919
C -1.788077 -2.743705 3.287788
C -1.768686 -2.708403 3.501183
C -1.633787 -2.642255 3.634760
C -1.649511 -2.526479 3.694920
C -1.802086 -2.434451 3.687640
C -1.746916 -2.417048 3.757051
C -1.661856 -2.400150 3.853896
C -1.458899 -2.358897 3.875543
C -1.369139 -2.349363 3.884190
C -1.516117 -2.336167 3.684306
C -1.680082 -2.396953 3.387039
C -1.739842 -2.447058 3.092338
C -1.942834 -2.405550 2.720799
C -2.385179 -2.349806 2.201826
C -2.882641 -2.210160 1.502815
C -3.300084 -2.154706 0.839498
C -3.615170 -2.088482 0.488677
C -3.903063 -2.105766 0.298824
C -4.240373 -1.959835 -0.152974
C -4.506631 -1.879714 -0.532212
C -4.623937 -1.808833 -0.691933
C -4.696339 -1.749007 -0.725881
C -4.760391 -1.687316 -0.608227
C -4.671040 -1.693640 -0.409097
C -4.464487 -1.590913 -0.310970
C -4.390643 -1.569675 -0.164192
C -4.400348 -1.487324 0.014767
C -4.388280 -1.391413 0.094842
C -4.316254 -1.393235 0.402345
C -4.356674 -1.321446 0.342289
C -4.601765 -1.136388 0.066873
C -4.804650 -0.996878 -0.048282
C -4.717961 -0.918727 0.036486
C -4.573209 -0.929091 0.125622
C -4.546553 -0.909481 0.125316
C -4.586113 -0.858898 0.180580
C -4.516682 -0.846765 0.421427
C -4.446536 -0.824674 0.669552
C -4.388438 -0.808415 0.775537
C -4.263632 -0.875959 0.997219
C -4.122959 -0.876260 1.164492
C -3.866487 -0.900588 1.528213
C -3.517437 -0.911795 1.763189
C -3.207520 -0.918127 1.993963
C -2.999299 -0.967637 2.169898
C -2.997690 -0.904956 2.154958
C -3.265933 -0.680651 1.895177
C -3.591050 -0.514157 1.676110
C -3.890246 -0.367539 1.484561
C -4.258075 -0.177120 1.138543
C -4.352345 -0.094676 1.040502
C -4.188598 -0.083368 1.127185
C -4.000928 -0.056932 1.380505
C -3.499406 -0.189064 1.883972
C -3.101707 -0.222652 2.313565
C -2.568903 -0.337502 2.667117
C -2.289389 -0.295593 3.072907
C -2.138251 -0.224211 3.351887
C -2.161457 -0.104517 3.504573
C -2.173745 -0.056376 3.649374
C -2.321953 0.037029 3.727457
C -2.171410 0.033044 3.836548
C -2.133503 0.111305 3.916140
C -1.859121 0.075984 4.012957
C -1.714589 0.009936 4.088798
C -1.453088 -0.025998 4.119256
C -1.111586 -0.106541 4.238625
C -0.788335 -0.160927 4.339933
C -0.510998 -0.231176 4.529307
C -0.335119 -0.294343 4.719603
C -0.221937 -0.436961 4.918789
C 0.047998 -0.394009 5.171759
C 0.260039 -0.568763 5.450991
C 0.454352 -0.627452 5.602028
C 0.658334 -0.657799 5.766138
C 0.755299 -0.572307 5.871112
C 0.787607 -0.607971 5.957144
C 0.819515 -0.440967 6.005846
C 0.621906 -0.325086 5.838265
C 0.383521 0.024897 5.663967
C 0.193307 0.246790 5.531012
C 0.062542 0.385171 5.465362
C -0.062122 0.500772 5.362553
C -0.140927 0.720518 5.171628
C -0.258418 0.860241 4.955438
C -0.400457 1.030580 4.803750
C -0.642983 1.172758 4.604066
C -0.888464 1.339704 4.398005
C -1.114035 1.508119 4.108524
C -1.424313 1.617056 3.777051
C -1.496428 1.725315 3.682794
C -1.511887 1.798312 3.634466
C -1.286334 1.734071 3.674104
C -1.022969 1.705072 3.723553
C -0.955468 1.754436 3.699714
C -0.972755 1.852106 3.611436
C -0.988823 2.052857 3.590121
C -1.305819 2.198014 3.363112
C -1.667875 2.209391 3.129927
C -1.931783 2.344038 2.909369
C -2.202988 2.424396 2.690018
C -2.457912 2.384131 2.459124
C -2.715347 2.378916 2.269079
C -2.963021 2.301361 2.079743
C -2.881321 2.254759 1.992617
C -2.846144 2.300276 1.963404
C -3.156971 2.262648 1.748362
C -3.398152 2.295422 1.538222
C -3.414245 2.369724 1.446978
C -3.288801 2.320063 1.475380
C -3.146729 2.361104 1.508868
C -3.232162 2.425682 1.459040
C -3.166317 2.479694 1.347003
C -3.064518 2.583171 1.340362
C -2.940157 2.655142 1.403928
C -2.655462 2.607855 1.480822
C -2.771270 2.680264 1.295545
C -2.852200 2.784089 1.133467
C -2.921127 2.831054 0.987237
C -2.868190 2.909642 1.038262
C -2.651893 2.913000 1.132471
C -2.317839 2.847219 1.321478
C -2.243798 2.910080 1.389056
C -2.105221 3.008462 1.502866
C -2.120175 2.926397 1.382976
C -2.251584 2.878775 1.248492
C -2.536668 2.885158 0.934519
C -2.738664 2.981644 0.762555
C -3.185855 3.205250 0.361095
C -3.669755 3.244282 -0.129567
C -3.978607 3.162508 -0.502016
C -4.058590 3.157379 -0.649218
C -3.998459 3.284021 -0.760850
C -3.897610 3.335062 -0.790635
C -3.748722 3.355522 -0.837354
C -3.676567 3.111420 -1.002133
C -3.559490 3.155872 -1.054800
C -3.470159 3.084269 -1.206651
C -3.464722 3.018103 -1.310524
C -3.288010 3.079555 -1.202702
C -2.998300 3.041086 -1.071510
C -3.029237 3.035528 -1.202535
C -3.001103 3.266764 -1.239751
C -2.885657 3.450671 -1.237679
C -2.782886 3.709739 -1.147001
C -2.707113 3.810184 -1.245726
C -2.795326 3.700843 -1.524567
C -3.044041 3.702401 -1.912923
C -3.151932 3.542435 -2.124386
C -3.145802 3.261011 -2.243909
C -3.187360 2.931365 -2.354443
C -3.072539 2.754656 -2.360218
C -2.920456 2.698338 -2.310577
C -2.758377 2.635318 -2.155823
C -2.685719 2.702603 -2.155521
C -2.597046 2.752584 -2.205889
C -2.599582 2.823898 -2.341195
C -2.616081 2.990543 -2.555104
C -2.832015 2.904297 -3.229908
C -3.056592 2.822812 -3.767765
C -3.402711 2.337012 -4.527367
C -3.628521 1.203364 -4.994753
C -3.864201 0.196113 -5.466042
C -4.019932 -0.560611 -5.915895
C -3.566282 -0.209860 -5.685772
C -2.995156 0.012988 -5.019508
C -2.438340 0.347669 -4.573749
C -1.744826 1.017013 -3.976957
C -1.056640 2.252937 -3.489376
C -0.437238 3.430756 -3.125128
C 0.181048 4.381227 -2.691800
C 0.225282 4.121029 -2.853838
C 0.293122 4.201083 -2.829559
C 0.399354 4.130779 -2.610381
C 0.530116 4.122435 -2.301107
C 0.588352 4.069792 -2.152123
C 0.752694 3.997690 -1.786463
C 0.978541 3.921078 -1.290160
C 1.173197 3.947708 -0.837927
C 1.293208 3.923993 -0.744318
C 1.479452 3.854540 -0.575195
C 1.578771 3.882708 -0.754023
C 1.521499 3.774591 -1.078600
C 1.548257 3.887474 -1.332117
C 1.487679 3.958371 -1.799156
C 1.455040 3.941735 -2.215302
C 1.356706 3.855247 -2.574945
C 1.381792 3.941980 -2.858083
C 1.497601 3.886568 -2.798369
C 1.788815 3.919903 -2.282399
C 1.854623 3.825522 -2.273630
C 1.848827 3.683858 -2.177261
C 1.929636 3.517780 -1.881577
C 2.123551 3.508883 -1.456638
C 2.066490 3.357799 -1.416733
C 1.788286 3.201767 -1.741965
C 1.496858 3.060266 -2.325171
C 1.367288 2.935126 -2.555310
C 1.414695 2.922019 -2.697329
C 1.353513 2.923905 -2.993795
C 1.320948 2.884101 -3.144631
C 1.498786 2.870584 -2.840265
C 1.773725 2.921839 -2.176684
C 2.088185 2.939325 -1.461641
C 2.310117 2.839774 -0.747673
C 2.421559 2.734622 -0.254272
C 2.536475 2.649861 0.048144
C 2.662762 2.586861 0.103681
C 2.619461 2.534217 -0.172303
C 2.553093 2.435941 -0.595033
C 2.486526 2.405543 -1.102648
C 2.392095 2.411072 -1.582191
C 2.427012 2.458098 -1.924563
C 2.505193 2.542483 -2.095394
C 2.478166 2.485002 -2.081518
C 2.531258 2.406199 -1.912872
C 2.617708 2.351568 -1.539745
C 2.730014 2.316847 -1.174665
C 2.870329 2.338166 -0.820295
C 2.961010 2.361985 -0.495619
C 3.045298 2.322095 0.084037
C 3.105242 2.365023 0.570552
C 3.144808 2.334974 1.003121
C 3.167161 2.267019 1.243040
C 3.170615 2.138951 1.599276
C 3.179635 1.979242 1.969009
C 3.220517 1.725950 2.429729
C 3.214002 1.378517 2.640411
C 3.399845 1.290003 2.839595
C 3.389303 1.172930 2.940241
C 3.453571 1.077318 3.044245
C 3.493221 1.091492 3.204573
C 3.532300 0.964295 3.299775
C 3.554155 0.883518 3.357594
C 3.540479 0.856975 3.409849
C 3.467016 0.565247 3.339298
C 3.503929 0.474881 3.273114
C 3.651269 0.480340 3.112218
C 3.635618 0.371875 2.819225
C 3.728369 0.497049 2.563740
C 3.694523 0.614858 2.255719
C 3.799902 0.835633 1.884136
C 3.812868 0.986153 1.658298
C 3.892042 1.145712 1.500768
C 3.767843 1.084481 1.448909
C 3.842682 1.039950 1.426266
C 3.735562 0.919851 1.370184
C 3.820235 0.852148 1.299863
C 3.836574 0.840658 1.169101
C 3.852372 0.688271 1.137052
C 3.900500 0.515228 1.108319
C 4.029017 0.596896 0.902918
C 4.168128 0.673332 0.719224
C 4.249134 0.604952 0.669768
C 4.252719 0.471457 0.746366
C 4.172813 0.324072 0.751741
C 4.111420 0.416307 0.570172
C 3.988554 0.457120 0.355960
C 3.783469 0.326724 0.387825
C 3.577283 0.129062 0.523650
C 3.611550 0.018076 0.578681
C 3.617279 -0.058837 0.505479
C 3.587950 -0.143592 0.385969
C 3.580011 -0.248675 0.272496
C 3.594649 -0.287132 0.038774
C 3.623107 -0.249463 -0.430057
C 3.460027 -0.067355 -1.191485
C 3.323042 0.156829 -1.983440
C 3.155614 0.368377 -2.670667
C 3.131754 0.500420 -3.119494
C 2.965789 0.605393 -3.651642
C 2.844631 0.639147 -4.045982
C 2.638990 0.623948 -4.280520
C 2.743922 0.539610 -4.197867
C 2.666285 0.429661 -4.133017
C 2.787610 0.233749 -3.772797
C 2.858840 -0.016804 -3.311375
C 3.056595 -0.219880 -2.779023
C 3.148158 -0.432415 -2.252423
C 3.374019 -0.556703 -1.924001
C 3.547970 -0.641447 -1.883088
C 3.742587 -0.818237 -1.475839
C 3.707879 -0.814813 -1.609854
C 3.621944 -0.706166 -1.980242
C 3.514814 -0.688701 -2.377247
C 3.528771 -0.633400 -2.837643
C 3.246799 -0.560349 -3.188905
C 2.841691 -0.598286 -3.236662
C 2.698258 -0.538983 -3.396056
C 2.674636 -0.595179 -3.394012
C 2.703206 -0.768397 -3.151009
C 2.748269 -0.838477 -2.939817
C 2.541006 -0.862809 -2.890404
C 2.659301 -1.015370 -2.609846
C 2.759025 -1.089128 -2.516070
C 2.663321 -1.109031 -2.779100
C 2.549575 -1.143201 -2.807685
C 2.496125 -1.194326 -2.794824
C 2.447384 -1.255859 -2.858178
C 2.541772 -1.402775 -2.788050
C 2.529473 -1.478528 -3.003592
C 2.420646 -1.474007 -3.315328
C 2.304733 -1.531695 -3.505298
C 2.105560 -1.619011 -3.909823
C 1.864573 -1.603673 -4.445201
C 1.623400 -1.617054 -4.848197
C 1.373056 -1.645660 -5.143204
C 1.271918 -1.629053 -5.268568
C 1.331208 -1.747553 -5.174541
C 1.203757 -1.930070 -5.189117
C 1.216405 -2.027196 -5.123610
C 1.251713 -2.118041 -5.052825
C 1.378017 -2.200106 -4.827562
C 1.510978 -2.235575 -4.497126
C 1.537586 -2.381175 -4.264184
C 1.493945 -2.420285 -4.110133
C 1.815448 -2.439225 -3.523738
C 2.101074 -2.449031 -2.773597
C 2.386868 -2.490417 -2.190522
C 2.473885 -2.494680 -1.719350
C 2.653463 -2.558463 -1.390451
C 2.846214 -2.595137 -0.977124
C 2.960219 -2.663059 -0.746355
C 2.782060 -2.671335 -1.080064
C 2.552393 -2.722374 -1.687647
C 2.177264 -2.820022 -2.201011
C 1.858545 -2.983026 -2.712937
C 1.588399 -3.075725 -3.080146
C 1.225320 -3.181792 -3.599194
C 1.032301 -3.326033 -3.937468
C 0.988966 -3.426030 -3.923405
C 1.116019 -3.517227 -3.618835
C 1.286412 -3.533291 -3.470108
C 1.410850 -3.539168 -3.333537
C 1.563943 -3.606594 -3.111154
C 1.920171 -3.615889 -2.649266
C 2.209193 -3.563717 -2.179564
C 2.272458 -3.620160 -1.935252
C 2.189747 -3.659183 -1.971235
C 2.078511 -3.783036 -1.941481
C 1.995954 -3.821064 -1.855936
C 1.774722 -3.855245 -1.983985
C 1.684461 -3.860525 -1.956845
C 1.710878 -3.886269 -1.686093
C 1.953569 -3.831961 -1.159847
C 2.129888 -3.813607 -0.514711
C 2.396193 -3.663252 0.177565
C 2.699805 -3.552527 0.774952
C 2.975103 -3.405835 1.406311
C 3.027684 -3.366251 1.704846
C 2.957708 -3.364165 1.768386
C 2.814540 -3.411842 1.586121
C 2.765319 -3.427987 1.242115
C 2.520461 -3.598474 0.891447
C 2.299782 -3.746924 0.559077
C 2.160483 -3.877474 0.230988
C 2.093543 -4.008310 -0.000198
C 1.963004 -4.121257 -0.327249
C 1.831718 -4.195864 -0.645677
C 1.680566 -4.265278 -0.810962
C 1.570548 -4.307141 -1.014005
C 1.454951 -4.358444 -1.187404
C 1.366975 -4.412386 -1.248897
C 1.220547 -4.439743 -1.370329
C 1.241778 -4.427831 -1.130356
C 1.368813 -4.379263 -0.670309
C 1.479275 -4.313035 -0.187534
C 1.762661 -4.133581 0.451305
C 2.077832 -4.164731 1.208038
C 2.415861 -4.050806 1.830992
C 2.687632 -3.954954 2.464751
C 2.832234 -3.940799 2.880038
C 2.853549 -3.963772 3.101752
C 2.534933 -4.513354 2.989296
C 2.503471 -4.677555 3.059933
C 2.415844 -4.667302 2.961943
C 2.133544 -4.940573 2.817829
