397
chr3 3D structure from Hi-C (resolution 500000bp)
C -4.065926 -2.508905 -1.459376
C -4.091507 -2.559127 -1.385032
C -3.995538 -2.658320 -1.231159
C -3.935616 -2.680635 -1.123136
C -4.033811 -2.757725 -1.167018
C -3.902563 -2.892156 -0.791896
C -3.573636 -2.957849 -0.323394
C -3.307049 -2.973515 0.100709
C -3.255495 -3.050339 0.362636
C -3.236488 -3.141498 0.541442
C -3.233494 -3.274537 0.751753
C -3.284318 -3.314990 0.880408
C -3.482469 -3.251455 0.757510
C -3.701897 -3.222425 0.643630
C -3.708339 -3.133567 0.726527
C -3.409650 -3.044112 1.042189
C -3.089344 -2.899905 1.474807
C -2.749828 -2.748068 1.935765
C -2.486977 -2.601457 2.407909
C -2.070668 -2.510869 2.939880
C -1.913048 -2.411340 3.425565
C -1.859882 -2.394048 3.625745
C -1.785593 -2.320710 3.733410
C -1.850621 -2.228450 3.798279
C -2.027099 -2.180930 3.763573
C -1.969081 -2.194798 3.834020
C -1.886583 -2.221733 3.891745
C -1.614392 -2.300877 3.846604
C -1.472861 -2.327777 3.829995
C -1.594675 -2.302068 3.674522
C -1.696385 -2.339896 3.371065
C -1.740281 -2.324559 3.053089
C -1.874696 -2.326896 2.567839
C -2.279890 -2.218034 1.948727
C -2.835586 -2.056169 1.362297
C -3.328690 -1.969485 0.831966
C -3.664882 -1.980659 0.540714
C -3.934327 -1.954752 0.287378
C -4.287946 -1.843347 -0.160867
C -4.626604 -1.773038 -0.434622
C -4.796321 -1.775308 -0.499050
C -4.843990 -1.735117 -0.590067
C -4.794625 -1.690503 -0.647108
C -4.645839 -1.645534 -0.547880
C -4.474862 -1.593139 -0.406112
C -4.398830 -1.536124 -0.208051
C -4.371487 -1.412230 -0.054289
C -4.358415 -1.293470 0.052339
C -4.221213 -1.261535 0.335639
C -4.324150 -1.090120 0.332040
C -4.547409 -0.935557 0.025230
C -4.762522 -0.751188 -0.069936
C -4.691214 -0.730914 0.103887
C -4.617296 -0.760695 0.287686
C -4.571180 -0.740321 0.376610
C -4.552288 -0.681708 0.355243
C -4.398760 -0.732927 0.476935
C -4.364810 -0.688424 0.671823
C -4.284419 -0.670829 0.727743
C -4.137781 -0.650501 0.820748
C -3.960345 -0.590301 0.970718
C -3.693864 -0.615256 1.252224
C -3.490474 -0.683964 1.507380
C -3.278576 -0.712591 1.839429
C -3.069697 -0.784803 2.021311
C -3.054337 -0.764950 1.889849
C -3.281111 -0.607025 1.563603
C -3.526404 -0.458484 1.257619
C -3.800862 -0.303763 0.976250
C -4.064809 -0.083887 0.725113
C -4.119296 0.007405 0.571858
C -3.952939 0.055309 0.714312
C -3.774866 0.077905 1.144302
C -3.314004 -0.058102 1.701152
C -2.961986 -0.076361 2.178390
C -2.515453 -0.158435 2.575787
C -2.306746 -0.190766 2.885125
C -2.232408 -0.101865 3.200313
C -2.234804 -0.027109 3.306231
C -2.206580 0.039697 3.386231
C -2.323766 0.169435 3.456979
C -2.142861 0.062960 3.573599
C -2.063153 0.058674 3.714196
C -1.849450 0.032954 3.857267
C -1.626699 -0.009454 3.993604
C -1.442819 -0.019093 4.093139
C -1.158571 -0.100786 4.233511
C -0.863246 -0.155389 4.324275
C -0.672572 -0.203041 4.470353
C -0.496664 -0.250741 4.583824
C -0.216346 -0.319185 4.756417
C -0.000032 -0.422779 4.979087
C 0.226785 -0.580518 5.245475
C 0.396166 -0.623704 5.414800
C 0.523208 -0.756810 5.609244
C 0.625833 -0.617191 5.775533
C 0.727391 -0.488982 5.935942
C 0.676893 -0.402461 5.973981
C 0.502313 -0.129706 5.784629
C 0.236478 0.173280 5.593815
C 0.102835 0.404901 5.476495
C 0.052694 0.627781 5.399701
C -0.057507 0.701568 5.247794
C -0.249091 0.803448 5.035556
C -0.434459 0.921876 4.801888
C -0.606342 1.018864 4.652896
C -0.792673 1.115723 4.448468
C -1.062381 1.261082 4.173480
C -1.330427 1.412509 3.883808
C -1.608880 1.577797 3.607819
C -1.651094 1.647199 3.498537
C -1.618899 1.775605 3.528516
C -1.435242 1.774940 3.604314
C -1.175918 1.786674 3.673313
C -1.114450 1.806813 3.661810
C -1.164162 1.898674 3.604149
C -1.148551 2.020187 3.524284
C -1.344375 2.210064 3.291774
C -1.549645 2.363493 3.060113
C -1.720019 2.440415 2.808102
C -1.956934 2.538233 2.593763
C -2.099138 2.543748 2.432075
C -2.220431 2.561919 2.203050
C -2.450856 2.519218 2.018184
C -2.512509 2.417898 1.943408
C -2.609061 2.255807 1.775796
C -2.910994 2.282120 1.600680
C -3.152105 2.329888 1.334945
C -3.304831 2.347158 1.226150
C -3.237748 2.285648 1.207389
C -3.191944 2.292766 1.246991
C -3.208212 2.387775 1.216247
C -3.162570 2.606236 1.222439
C -3.129735 2.624545 1.145037
C -3.010683 2.623248 1.181698
C -2.739542 2.586470 1.204681
C -2.908109 2.666720 1.095315
C -2.892015 2.783448 0.897580
C -2.914642 2.871780 0.779488
C -2.853166 2.830910 0.781326
C -2.605046 2.882665 0.947296
C -2.303794 2.898720 1.193193
C -2.211819 2.969160 1.275923
C -2.026918 3.073035 1.358434
C -2.081674 3.031976 1.281139
C -2.216399 2.962720 1.099054
C -2.469311 3.042553 0.786766
C -2.623963 3.127447 0.576822
C -3.009986 3.283936 0.185550
C -3.429333 3.253869 -0.305167
C -3.577785 3.277284 -0.592200
C -3.626560 3.349079 -0.676613
C -3.643306 3.245713 -0.939893
C -3.612905 3.104055 -0.986643
C -3.606632 2.920796 -1.145307
C -3.578032 2.708140 -1.317013
C -3.548767 2.789266 -1.344560
C -3.547965 2.753749 -1.474091
C -3.512923 2.611505 -1.730307
C -3.368367 2.651270 -1.675293
C -3.044701 2.679453 -1.532323
C -3.031696 2.617933 -1.713925
C -2.974932 2.841322 -1.749817
C -2.943595 2.836990 -1.884034
C -2.930857 2.866879 -1.971288
C -2.890745 2.935263 -2.028306
C -2.972032 2.987666 -2.075448
C -3.223971 2.895099 -2.476187
C -3.244081 2.980924 -2.536858
C -3.240785 2.740527 -2.706877
C -3.052603 2.775186 -2.609653
C -2.857247 2.766475 -2.481607
C -2.632796 2.905075 -2.178911
C -2.345066 3.002644 -1.943017
C -2.188368 3.323531 -1.736769
C -2.063577 3.527377 -1.618607
C -1.921791 3.806623 -1.446166
C -1.977879 3.975582 -1.596380
C -2.297050 3.712028 -2.308801
C -2.573396 3.483642 -3.042981
C -2.902398 2.847596 -3.939411
C -3.180325 1.633284 -4.554503
C -3.482397 0.502501 -5.141405
C -3.801810 -0.463642 -5.794827
C -3.344174 -0.219258 -5.558298
C -2.746922 0.046342 -4.933686
C -2.238606 0.296181 -4.503023
C -1.649566 1.022537 -3.849007
C -1.036196 2.220609 -3.474786
C -0.415367 3.311803 -3.185471
C 0.287012 4.347840 -2.616516
C 0.263896 4.027575 -2.902723
C 0.356606 4.136660 -2.863729
C 0.487431 4.102686 -2.637808
C 0.671463 4.036792 -2.339349
C 0.796959 4.029559 -2.074776
C 0.965415 4.001076 -1.625784
C 1.119811 3.803812 -1.251419
C 1.291154 3.786647 -0.890759
C 1.385987 3.750504 -0.797059
C 1.480788 3.675745 -0.632788
C 1.473540 3.635485 -0.858629
C 1.406622 3.486605 -1.198203
C 1.356835 3.485351 -1.607542
C 1.273362 3.553425 -2.149485
C 1.272733 3.516898 -2.526387
C 1.250818 3.492107 -2.805784
C 1.271219 3.573855 -3.106002
C 1.436378 3.594158 -2.969559
C 1.735327 3.669319 -2.513622
C 1.873011 3.698532 -2.347078
C 1.909789 3.519811 -2.285582
C 1.948007 3.419784 -1.891657
C 2.105432 3.322513 -1.465525
C 2.090429 3.117527 -1.439911
C 1.838598 2.984531 -1.776304
C 1.525953 2.855326 -2.294197
C 1.543764 2.804263 -2.412594
C 1.590262 2.823076 -2.466182
C 1.566710 2.812753 -2.814912
C 1.554388 2.731006 -3.019507
C 1.652257 2.731752 -2.658191
C 1.889788 2.739048 -2.032569
C 2.172257 2.685334 -1.286793
C 2.235611 2.494361 -0.673405
C 2.320369 2.422143 -0.167902
C 2.457390 2.396553 0.221626
C 2.525620 2.404786 0.259359
C 2.510105 2.374485 0.022135
C 2.546469 2.333345 -0.460809
C 2.575147 2.373936 -0.961858
C 2.615495 2.455278 -1.411368
C 2.665826 2.538493 -1.710536
C 2.579863 2.514577 -1.924393
C 2.527591 2.433721 -1.882213
C 2.630982 2.422818 -1.709449
C 2.641465 2.341196 -1.287528
C 2.688580 2.215241 -0.952266
C 2.765239 2.256486 -0.710069
C 2.870549 2.190262 -0.525691
C 3.109469 2.165180 -0.032465
C 3.261013 2.246336 0.452972
C 3.319541 2.128710 0.869619
C 3.334706 2.093297 1.116528
C 3.318939 2.026775 1.475458
C 3.244752 1.758179 1.885261
C 3.220615 1.566605 2.429034
C 3.185763 1.273885 2.689253
C 3.254632 1.099871 2.954143
C 3.251257 1.031565 2.980131
C 3.287032 0.922223 3.098063
C 3.353038 0.912720 3.241092
C 3.375397 0.878378 3.332158
C 3.355267 0.832965 3.373741
C 3.348115 0.800615 3.376667
C 3.325995 0.697340 3.250825
C 3.339941 0.605253 3.190180
C 3.432816 0.778085 3.049022
C 3.454949 0.712896 2.820496
C 3.547911 0.810501 2.581355
C 3.651650 0.885101 2.291561
C 3.708508 1.028652 1.965421
C 3.710673 1.015386 1.754595
C 3.780014 1.174443 1.597643
C 3.704877 0.932606 1.548132
C 3.679974 0.898559 1.490130
C 3.657197 0.791184 1.410671
C 3.564159 0.745960 1.362864
C 3.585118 0.842749 1.283847
C 3.678458 0.835321 1.219650
C 3.719628 0.651737 1.282069
C 3.822882 0.772097 1.061391
C 3.979581 0.836837 0.853094
C 3.972771 0.735096 0.849426
C 4.021439 0.581617 0.837381
C 3.985461 0.348654 0.799908
C 3.874998 0.368258 0.611565
C 3.779221 0.450616 0.380106
C 3.737864 0.270008 0.423458
C 3.568449 0.053804 0.592533
C 3.613077 -0.047903 0.661167
C 3.676623 -0.154051 0.694326
C 3.658448 -0.138208 0.563196
C 3.646282 -0.266604 0.472105
C 3.561200 -0.362052 0.194403
C 3.446852 -0.295458 -0.308752
C 3.348903 -0.116393 -1.055540
C 3.122087 0.071088 -1.904419
C 2.817654 0.265868 -2.686383
C 2.684198 0.310006 -3.174761
C 2.494234 0.405391 -3.673312
C 2.345554 0.438607 -4.101973
C 2.331222 0.421765 -4.260697
C 2.393478 0.339164 -4.181311
C 2.455422 0.254427 -4.052648
C 2.700754 0.127904 -3.649690
C 2.867020 -0.079909 -3.135206
C 3.050019 -0.281228 -2.621637
C 3.275505 -0.468968 -2.047604
C 3.368259 -0.584010 -1.745404
C 3.612634 -0.664240 -1.662990
C 3.789286 -0.824591 -1.293068
C 3.836844 -0.855328 -1.416040
C 3.782624 -0.746042 -1.791785
C 3.723138 -0.636100 -2.211538
C 3.737322 -0.548590 -2.654321
C 3.524471 -0.555080 -3.000272
C 3.150612 -0.581625 -3.151246
C 3.106228 -0.596664 -3.319113
C 3.047354 -0.661676 -3.302235
C 3.052973 -0.852869 -3.028389
C 3.004826 -0.955401 -2.849797
C 2.859305 -1.041166 -2.793723
C 2.997717 -1.116845 -2.571162
C 3.139745 -1.291131 -2.372026
C 2.923813 -1.311440 -2.586288
C 2.855821 -1.392216 -2.590701
C 2.792310 -1.410315 -2.629242
C 2.735868 -1.524833 -2.660182
C 2.695663 -1.613297 -2.599984
C 2.487007 -1.701927 -2.759804
C 2.192842 -1.660740 -3.132011
C 2.076888 -1.669678 -3.257842
C 1.955932 -1.724268 -3.641549
C 1.837291 -1.671015 -4.097825
C 1.797631 -1.699483 -4.429836
C 1.760042 -1.689329 -4.701484
C 1.786104 -1.746742 -4.826011
C 1.766328 -1.822652 -4.760381
C 1.822084 -2.040736 -4.834041
C 1.625709 -2.089428 -4.835714
C 1.466888 -2.253857 -4.846375
C 1.401951 -2.289146 -4.646272
C 1.475419 -2.441445 -4.383513
C 1.518672 -2.495588 -4.192711
C 1.512083 -2.565912 -4.045988
C 1.650675 -2.518205 -3.577535
C 1.985682 -2.585512 -2.923425
C 2.265756 -2.628223 -2.392854
C 2.452737 -2.639677 -1.949393
C 2.496705 -2.621846 -1.574519
C 2.583190 -2.647525 -1.103128
C 2.848865 -2.712633 -0.833127
C 2.630426 -2.698588 -1.115190
C 2.273173 -2.717699 -1.638529
C 1.876322 -2.769588 -2.091599
C 1.551069 -2.935679 -2.639690
C 1.351432 -3.078315 -3.019315
C 1.063014 -3.205320 -3.559113
C 0.734099 -3.304890 -3.916140
C 0.708081 -3.520878 -3.869326
C 0.991983 -3.614485 -3.520827
C 1.194688 -3.686321 -3.308911
C 1.224805 -3.657522 -3.176728
C 1.326999 -3.649049 -2.968915
C 1.593447 -3.670017 -2.528647
C 1.806263 -3.671550 -2.054052
C 1.899494 -3.663322 -1.782875
C 1.702289 -3.688676 -1.874652
C 1.644833 -3.775093 -1.845087
C 1.741230 -3.864563 -1.661527
C 1.646054 -3.921671 -1.750315
C 1.633923 -3.919351 -1.675784
C 1.726574 -3.938470 -1.427336
C 1.912944 -3.838624 -0.925973
C 2.195732 -3.805041 -0.294589
C 2.430418 -3.633468 0.388786
C 2.620995 -3.454778 0.901831
C 2.820202 -3.346033 1.434928
C 2.873208 -3.276297 1.671549
C 2.917066 -3.233031 1.761582
C 2.805803 -3.272191 1.560898
C 2.669440 -3.303465 1.243438
C 2.503132 -3.458568 0.923509
C 2.318564 -3.701068 0.591842
C 2.136628 -3.832851 0.332102
C 2.035960 -3.963701 0.116154
C 1.830587 -4.052962 -0.185579
C 1.667744 -4.157493 -0.511704
C 1.494560 -4.234943 -0.667600
C 1.328281 -4.281187 -0.983175
C 1.201847 -4.310578 -1.107364
C 1.125180 -4.317248 -1.169073
C 0.866070 -4.298613 -1.308672
C 0.953222 -4.277856 -1.075462
C 1.129950 -4.206349 -0.604655
C 1.294286 -4.077054 -0.138661
C 1.600685 -3.983167 0.532590
C 1.877500 -4.015107 1.217355
C 2.145206 -3.931772 1.841038
C 2.475028 -3.881510 2.495883
C 2.597095 -3.916815 2.872178
C 2.669445 -3.953951 3.080298
C 2.373351 -4.532145 3.037718
C 2.321115 -4.640546 3.118615
C 2.238641 -4.590558 3.069732
C 2.058441 -4.840985 2.933356
