268
chr10 3D structure from Hi-C (resolution 500000bp)
C -1.211459 2.597041 1.554116
C -0.976129 2.529022 1.685485
C -0.852077 2.518564 1.799961
C -0.864102 2.605863 1.733418
C -0.751124 2.605706 1.653296
C -0.594568 2.694700 1.617503
C -0.463032 2.737289 1.644895
C -0.490727 2.797614 1.624977
C -0.604697 2.895407 1.371537
C -0.695897 2.996078 1.113185
C -0.627996 3.009519 1.036638
C -0.535043 3.007553 0.932796
C -0.500284 3.036176 0.823945
C -0.461157 3.047021 0.747391
C -0.391469 3.090808 0.845743
C -0.281568 3.170803 1.082278
C -0.036933 3.093295 1.355410
C 0.156926 3.000257 1.604718
C 0.299900 3.001682 1.844905
C 0.361841 2.926410 1.791234
C 0.245727 2.964909 1.540567
C 0.052119 2.950951 1.092679
C -0.099433 2.866619 0.782292
C -0.376945 2.927510 0.373941
C -0.612255 3.012976 -0.085288
C -0.748372 2.988135 -0.423165
C -0.829436 2.994342 -0.580597
C -0.712612 2.996508 -0.512703
C -0.378092 2.963846 -0.174900
C -0.019789 2.950128 0.117923
C 0.292899 2.937081 0.326273
C 0.537798 2.873547 0.525737
C 0.719023 2.941607 0.640151
C 0.956676 2.965460 0.858248
C 1.199868 2.935798 1.041868
C 1.356036 2.883125 1.066205
C 1.460202 2.836919 1.026239
C 1.600168 2.728791 1.056564
C 1.763206 2.735901 1.147405
C 1.875783 2.698365 1.144998
C 1.883662 2.771354 0.969358
C 1.912694 2.792998 0.691609
C 1.764878 2.872739 0.413250
C 1.777401 2.918068 0.139642
C 1.934949 2.969381 0.071988
C 1.980949 2.915808 -0.069107
C 1.958674 2.849066 -0.173245
C 2.121820 2.716437 -0.069881
C 2.113100 2.599334 0.049880
C 2.148336 2.548257 -0.009389
C 1.936328 2.541193 -0.159641
C 1.598626 2.536955 -0.471450
C 1.569466 2.486619 -0.438177
C 1.665686 2.407520 -0.395514
C 1.634168 2.308915 -0.408122
C 1.601868 2.226685 -0.371263
C 1.565359 2.123501 -0.274793
C 1.637201 2.112364 -0.270335
C 1.643379 2.066806 -0.267737
C 1.389611 2.182281 -0.652825
C 1.197477 2.312104 -0.886170
C 1.142160 2.323581 -1.099389
C 1.301110 2.321545 -1.185234
C 1.502217 2.295079 -1.084415
C 1.758981 2.136786 -0.770304
C 2.050265 2.023223 -0.439988
C 2.286597 1.864384 -0.218474
C 2.551826 1.784882 -0.139330
C 2.769347 1.640941 0.271628
C 2.762472 1.574349 0.532687
C 2.825857 1.504520 0.701846
C 2.837298 1.427432 0.972509
C 2.808131 1.397578 1.157932
C 2.906583 1.288191 1.566770
C 2.939821 1.028692 2.207548
C 2.866449 0.953824 2.496868
C 2.673922 0.854556 2.928413
C 2.185317 0.843574 3.374241
C 1.712373 0.823805 3.680992
C 1.619715 0.504878 4.006376
C 1.676901 0.240127 4.158070
C 1.751819 0.105677 4.032630
C 1.726105 0.016489 3.776528
C 1.840796 0.065586 2.928143
C 2.286595 -0.114457 2.394177
C 2.526581 -0.168992 1.751188
C 2.415023 0.077232 0.975886
C 2.207229 0.384745 0.012568
C 1.819380 0.735727 -0.821562
C 1.585132 0.946572 -1.482888
C 1.418772 1.014443 -1.928024
C 1.099291 1.129717 -2.444541
C 0.387365 1.425782 -2.182723
C 0.211598 1.503702 -2.476340
C -0.040708 1.405568 -2.307466
C -0.049401 1.233637 -2.179408
C -0.077472 1.107936 -2.154391
C -0.046995 1.000286 -1.960737
C 0.194797 0.950061 -1.965237
C 1.141157 0.427812 -2.228717
C 1.499448 0.197597 -2.002717
C 1.904555 0.047340 -1.834309
C 2.187260 -0.170401 -1.581723
C 2.517643 -0.326671 -1.259627
C 2.852995 -0.558689 -0.910288
C 2.926281 -0.657305 -0.657269
C 2.899285 -0.627456 -0.716786
C 3.002085 -0.740611 -0.524974
C 3.075106 -0.853775 -0.450769
C 3.105756 -0.872455 -0.404067
C 3.039604 -0.939278 -0.375156
C 2.915067 -0.977642 -0.295228
C 2.888504 -1.088035 -0.232660
C 2.848712 -1.080821 -0.561875
C 2.673539 -1.043936 -0.787128
C 2.495126 -1.023004 -1.023850
C 2.325109 -1.014846 -1.243442
C 2.258824 -1.087308 -1.482653
C 2.198711 -1.084076 -1.799490
C 2.217734 -1.134253 -2.063922
C 2.072653 -1.200791 -2.080763
C 1.938869 -1.243594 -2.187041
C 1.800461 -1.174707 -2.306256
C 1.662314 -1.160256 -2.419744
C 1.535622 -1.072353 -2.345899
C 1.577214 -1.244891 -2.148367
C 1.602774 -1.326704 -2.007726
C 1.753550 -1.504453 -1.728138
C 1.921509 -1.597446 -1.530868
C 2.071260 -1.739914 -1.154001
C 2.186889 -1.887080 -0.891792
C 2.368650 -2.088229 -0.864952
C 2.200621 -1.927930 -1.209376
C 1.821838 -1.710528 -1.532882
C 1.279787 -1.274735 -1.838248
C 0.729892 -0.915995 -2.114261
C 0.244253 -0.635852 -2.269512
C -0.258998 -0.251423 -2.487208
C -0.881357 0.197846 -2.547142
C -1.381233 0.510109 -2.362110
C -1.732094 0.745208 -2.151312
C -1.920218 0.834853 -2.141842
C -2.087966 1.036662 -2.048390
C -2.347621 1.252345 -2.144719
C -2.416079 1.338077 -2.196479
C -2.413773 1.465841 -2.386142
C -2.417563 1.504166 -2.570911
C -2.256770 1.321046 -2.658165
C -1.894241 0.834297 -2.591964
C -1.251728 0.169746 -2.109085
C -0.645440 -0.369766 -1.730306
C -0.345007 -0.806220 -1.445289
C -0.069481 -1.361683 -1.383890
C 0.147133 -1.824356 -1.123999
C 0.200560 -2.016151 -0.974911
C 0.036543 -1.813696 -0.892936
C -0.209538 -1.841789 -1.370953
C -0.425184 -1.762720 -1.634224
C -0.265477 -1.863951 -1.638742
C -0.093158 -1.904955 -1.277567
C 0.238290 -2.014225 -1.007650
C 0.504574 -2.187821 -0.846278
C 0.814438 -2.516008 -0.700312
C 0.960501 -2.514313 -0.451341
C 1.098117 -2.701368 -0.423112
C 1.018252 -2.714027 -0.475452
C 0.938974 -2.837504 -0.606510
C 0.712019 -2.702996 -0.730083
C 0.517295 -2.711981 -0.836568
C 0.258699 -2.674378 -1.022738
C -0.070108 -2.467315 -1.289720
C -0.411299 -2.323811 -1.668185
C -0.721578 -2.129342 -1.843950
C -1.074117 -1.738282 -2.171317
C -1.297127 -1.605242 -2.526452
C -1.518949 -1.357487 -2.727003
C -1.639046 -1.143886 -2.803440
C -1.633605 -1.262510 -2.792732
C -1.601597 -1.364788 -2.588846
C -1.633277 -1.504733 -2.588467
C -1.670728 -1.647525 -2.403255
C -1.850407 -1.602097 -2.321944
C -1.992286 -1.538835 -2.255662
C -2.036021 -1.564150 -2.105818
C -2.149046 -1.516943 -1.970718
C -2.257744 -1.477354 -1.824541
C -2.168361 -1.403133 -1.550087
C -2.130641 -1.344459 -1.371516
C -2.054724 -1.373585 -1.245256
C -2.058386 -1.390518 -1.163411
C -2.260992 -1.193438 -1.205767
C -2.404468 -0.936253 -1.194739
C -2.498444 -0.721580 -1.107220
C -2.641562 -0.625236 -1.075210
C -2.837469 -0.681221 -0.926715
C -2.867824 -0.756518 -0.706236
C -2.930918 -0.687347 -0.554332
C -2.978544 -0.628104 -0.478558
C -3.071349 -0.572699 -0.404241
C -3.128012 -0.491398 -0.408210
C -3.302019 -0.228695 -0.443938
C -3.422807 0.170875 -0.541419
C -3.599956 0.526027 -0.619926
C -3.597341 0.650905 -0.680483
C -3.591484 0.583815 -0.536883
C -3.474813 0.233300 -0.416878
C -3.157058 -0.051901 -0.145151
C -2.543469 -0.589810 0.258355
C -1.913011 -1.145206 0.536132
C -1.315728 -1.732111 0.797251
C -0.864808 -2.227818 1.060491
C -0.379869 -2.595812 1.162244
C -0.000719 -2.667623 1.246492
C 0.159023 -2.846123 1.164688
C 0.093570 -2.882860 0.972204
C 0.108713 -2.923279 1.026557
C -0.031724 -2.866001 0.983210
C -0.306606 -2.779304 0.803511
C -0.569588 -2.816681 0.716264
C -0.648163 -2.875988 0.698914
C -0.661521 -2.868455 0.917183
C -0.852174 -2.808620 0.930828
C -1.102333 -2.815097 0.817499
C -1.235202 -2.845026 0.860632
C -1.208112 -2.850861 0.960724
C -1.166036 -2.817079 1.009150
C -1.247019 -2.777544 1.025744
C -1.301952 -2.762415 0.953598
C -1.095987 -2.795390 1.086185
C -0.959738 -2.741181 1.187735
C -0.922962 -2.720232 1.260102
C -0.924615 -2.643878 1.341368
C -1.011069 -2.509655 1.425239
C -1.137276 -2.404078 1.503165
C -1.439818 -2.171560 1.493493
C -1.948787 -1.768114 1.361539
C -2.339903 -1.492883 1.226642
C -2.535585 -1.243659 1.214915
C -2.539308 -1.200259 1.275520
C -2.516095 -1.119776 1.412006
C -2.505081 -1.041403 1.470462
C -2.446478 -0.971139 1.449201
C -2.400451 -1.056773 1.566631
C -2.372080 -1.032042 1.588176
C -2.379838 -0.955834 1.540547
C -2.558540 -0.748158 1.576629
C -2.636702 -0.597678 1.452104
C -2.626073 -0.535913 1.540411
C -2.594740 -0.510933 1.663883
C -2.264951 -0.643928 1.772774
C -1.940412 -0.850011 2.088866
C -1.649091 -1.018966 2.361218
C -1.288831 -1.267559 2.480069
C -1.045660 -1.439213 2.680901
C -0.853716 -1.490365 2.805011
C -0.701827 -1.551770 2.946170
C -0.744006 -1.474129 3.077347
C -0.767155 -1.362424 2.998028
C -0.742728 -1.375008 2.978294
C -0.700273 -1.301394 3.118297
C -0.709206 -1.186013 3.218972
C -0.832176 -1.081239 3.137474
C -0.976327 -0.930364 3.148535
C -1.131199 -0.797628 3.106672
C -1.310327 -0.640543 3.249822
C -1.481164 -0.459833 3.249732
C -1.721968 -0.300050 3.189290
C -1.891858 -0.209497 3.171681
