268
chr10 3D structure from Hi-C (resolution 500000bp)
C -1.513052 2.024968 2.364619
C -1.220258 1.961726 2.414873
C -1.156605 2.062477 2.430293
C -1.186261 2.118638 2.439093
C -1.114841 2.201529 2.278333
C -1.055389 2.287630 2.186419
C -0.964188 2.342628 2.228461
C -0.907307 2.414742 2.274221
C -1.103591 2.539605 2.045784
C -1.225215 2.576575 1.801507
C -1.158551 2.681841 1.646979
C -1.073173 2.705431 1.528304
C -1.017062 2.783634 1.461688
C -0.850247 2.798521 1.400666
C -0.773104 2.868263 1.484966
C -0.568856 2.891400 1.792617
C -0.187842 2.855219 2.070350
C 0.031904 2.792891 2.275475
C 0.178857 2.784453 2.440632
C 0.213891 2.738099 2.331598
C -0.042625 2.834666 2.087648
C -0.338905 2.857572 1.655124
C -0.620833 2.866106 1.222666
C -1.054972 2.926845 0.868916
C -1.385616 2.917776 0.485281
C -1.544550 2.854736 0.337264
C -1.651164 2.845429 0.159460
C -1.530072 2.851026 0.140512
C -1.192356 2.856494 0.406665
C -0.796352 2.995595 0.626426
C -0.469265 3.053882 0.732676
C -0.128674 3.044959 0.949327
C 0.142276 3.187190 0.971952
C 0.494953 3.221010 1.189359
C 0.822082 3.216961 1.423584
C 1.030420 3.138309 1.492867
C 1.198125 2.990635 1.489885
C 1.414840 2.842769 1.584960
C 1.583478 2.858907 1.603203
C 1.624457 2.834405 1.543992
C 1.444219 2.956927 1.340184
C 1.410069 3.050847 1.023297
C 1.201872 3.163623 0.657526
C 1.086399 3.282637 0.450347
C 1.205868 3.466202 0.253890
C 1.103103 3.588845 -0.015017
C 1.060116 3.571571 -0.097975
C 1.424796 3.389499 0.087519
C 1.503347 3.227658 0.186986
C 1.528132 3.178053 0.207156
C 1.430341 3.112867 0.047676
C 1.012689 3.038516 -0.082724
C 1.039143 2.859539 -0.015066
C 1.067077 2.793852 -0.032855
C 0.927671 2.741418 -0.104565
C 0.799278 2.684509 -0.059759
C 0.773353 2.593839 0.032320
C 0.632429 2.616077 0.009048
C 0.661760 2.552334 -0.087700
C 0.422673 2.707181 -0.394791
C 0.264229 2.788959 -0.640682
C 0.053719 2.893723 -0.872839
C 0.219930 2.902214 -1.004928
C 0.507707 2.919130 -1.059451
C 0.940985 2.722641 -0.722024
C 1.280031 2.720777 -0.625658
C 1.531464 2.541733 -0.423914
C 1.957383 2.408916 -0.069441
C 2.418333 2.241864 0.179696
C 2.499800 2.150984 0.404842
C 2.588308 2.026720 0.636225
C 2.755306 1.939207 0.768085
C 2.855729 1.766980 1.130250
C 3.125860 1.619784 1.453148
C 3.234836 1.419717 1.716946
C 3.260677 1.268348 2.052521
C 3.090354 1.064484 2.577656
C 2.831117 0.857341 3.091653
C 2.664991 0.566966 3.432128
C 2.730281 0.182398 3.714540
C 2.818903 -0.065051 3.861955
C 2.821340 -0.208077 3.802066
C 2.802042 -0.256286 3.483861
C 2.797196 -0.020025 2.558288
C 2.819277 0.250195 1.533319
C 2.621055 0.545123 0.726833
C 2.300443 0.904065 -0.029303
C 1.850576 1.302661 -0.928831
C 1.219450 1.627074 -1.700120
C 0.801607 1.846155 -2.267828
C 0.609852 1.862794 -2.718712
C 0.432561 1.776809 -2.801127
C -0.360748 1.905311 -2.408462
C -0.590416 1.947171 -2.626478
C -0.773122 1.767419 -2.453492
C -0.713592 1.633308 -2.367615
C -0.672654 1.490849 -2.354322
C -0.579068 1.347982 -2.130156
C -0.335679 1.318205 -2.139196
C 0.687847 1.101561 -2.681994
C 1.041253 0.921524 -2.554547
C 1.454210 0.830059 -2.507491
C 1.871659 0.739009 -2.353726
C 2.214493 0.630999 -2.079106
C 2.607489 0.486913 -1.786219
C 2.782949 0.306281 -1.504104
C 2.821047 0.174916 -1.313883
C 3.009655 0.178582 -1.234463
C 3.112188 0.132943 -1.194592
C 3.146967 0.011797 -1.132741
C 3.121300 -0.057108 -1.086501
C 3.019298 -0.146321 -1.109623
C 2.905834 -0.165741 -1.189585
C 2.891556 -0.133194 -1.397913
C 2.716131 -0.262236 -1.433494
C 2.556926 -0.343872 -1.529056
C 2.393488 -0.385471 -1.646148
C 2.329167 -0.420073 -1.910286
C 2.282952 -0.444954 -2.106446
C 2.430269 -0.517772 -2.273128
C 2.229751 -0.646259 -2.324656
C 2.109690 -0.641426 -2.418399
C 1.969261 -0.665185 -2.567649
C 1.823630 -0.632408 -2.710665
C 1.704869 -0.695346 -2.522792
C 1.840083 -0.815933 -2.230320
C 1.850054 -0.891099 -1.928204
C 2.109519 -1.004532 -1.627142
C 2.338918 -1.106306 -1.304468
C 2.606717 -1.170749 -0.892796
C 2.827343 -1.278190 -0.560244
C 3.097373 -1.379012 -0.487694
C 2.880045 -1.378002 -0.863430
C 2.343940 -1.226732 -1.257722
C 1.667654 -0.952726 -1.518060
C 1.001454 -0.668649 -1.874397
C 0.319706 -0.441417 -2.042009
C -0.352349 -0.141349 -2.262252
C -1.158292 0.153150 -2.394322
C -1.803475 0.509449 -2.167893
C -2.138736 0.645508 -2.039544
C -2.345450 0.768044 -2.054417
C -2.533914 0.865594 -2.077786
C -2.804483 0.986824 -2.136089
C -2.929278 1.046734 -2.089488
C -3.076337 1.144844 -2.150085
C -2.993940 1.158036 -2.422583
C -2.777833 1.025941 -2.540439
C -2.315096 0.575063 -2.537364
C -1.755481 -0.034959 -2.429130
C -1.144187 -0.434723 -2.453303
C -0.719494 -0.787071 -2.467898
C -0.304706 -1.189682 -2.637967
C -0.098642 -1.622028 -2.440724
C 0.021500 -1.804386 -2.271651
C -0.156145 -1.701129 -2.191131
C -0.250726 -1.627071 -2.286053
C -0.316358 -1.611828 -2.155319
C -0.044994 -1.787087 -2.003708
C 0.305918 -1.897821 -1.624830
C 0.684983 -1.992170 -1.454532
C 0.993287 -2.152460 -1.306499
C 1.357034 -2.377177 -1.222192
C 1.540131 -2.400501 -1.029503
C 1.690881 -2.562221 -1.065879
C 1.561358 -2.558171 -1.068478
C 1.427736 -2.686916 -1.140978
C 1.213233 -2.570285 -1.073822
C 0.993577 -2.584564 -1.187706
C 0.695301 -2.593624 -1.270763
C 0.279825 -2.472406 -1.462324
C -0.126344 -2.286190 -1.855523
C -0.512597 -2.082983 -2.048692
C -1.091090 -1.773767 -2.213950
C -1.532987 -1.606304 -2.501177
C -1.864674 -1.375672 -2.646439
C -2.044095 -1.229881 -2.700036
C -2.067944 -1.314367 -2.608330
C -2.061645 -1.520485 -2.310987
C -2.102769 -1.687569 -2.316349
C -1.947249 -1.739404 -2.292546
C -1.981924 -1.740968 -2.239729
C -2.092337 -1.808204 -2.167579
C -2.142816 -1.666484 -1.987214
C -2.220862 -1.604466 -1.868538
C -2.286178 -1.557522 -1.760449
C -2.160362 -1.619747 -1.540912
C -2.095413 -1.669199 -1.341597
C -2.047253 -1.778172 -1.234420
C -2.069850 -1.760384 -1.119008
C -2.282568 -1.751043 -1.163026
C -2.443921 -1.581259 -1.112105
C -2.555892 -1.417421 -1.007176
C -2.683925 -1.336778 -0.915510
C -2.863235 -1.392620 -0.818486
C -2.844996 -1.455741 -0.638241
C -2.878755 -1.336757 -0.508798
C -2.922979 -1.252887 -0.295224
C -2.974365 -1.234991 -0.123958
C -3.052663 -1.125029 -0.061934
C -3.321950 -0.908850 -0.001857
C -3.557957 -0.540507 0.053553
C -3.802603 -0.291903 0.019976
C -3.851183 -0.213312 0.024679
C -3.753029 -0.378618 -0.010105
C -3.556179 -0.707119 0.031014
C -3.060332 -0.979804 0.197345
C -2.260552 -1.353277 0.391235
C -1.473849 -1.846219 0.473255
C -0.686155 -2.280794 0.664695
C -0.100565 -2.738399 0.822414
C 0.426635 -2.968215 0.839603
C 0.923321 -2.934580 0.844631
C 1.061612 -3.045404 0.787254
C 1.006501 -3.021447 0.699229
C 1.082308 -3.014678 0.780715
C 0.853652 -2.993287 0.685610
C 0.575970 -2.939124 0.573503
C 0.349440 -3.023384 0.541035
C 0.184219 -3.154156 0.599214
C 0.105365 -3.233261 0.738067
C -0.125018 -3.264443 0.660420
C -0.455094 -3.267941 0.625109
C -0.522376 -3.275047 0.749646
C -0.453530 -3.217822 0.850537
C -0.418613 -3.199002 0.939345
C -0.498886 -3.163656 0.871181
C -0.410712 -3.035951 0.882817
C -0.160452 -2.995834 1.102475
C 0.073453 -2.922766 1.183933
C 0.196261 -2.861811 1.280927
C 0.188955 -2.889230 1.382096
C 0.108701 -2.733509 1.535815
C -0.040938 -2.662369 1.664968
C -0.518526 -2.471590 1.746242
C -1.146758 -2.225932 1.685498
C -1.672132 -2.073422 1.605950
C -2.003366 -2.004236 1.612409
C -2.126809 -1.898434 1.651050
C -2.154393 -1.855399 1.718190
C -2.192157 -1.761803 1.704557
C -2.121263 -1.772848 1.625100
C -2.018108 -1.847113 1.687605
C -1.989383 -1.784085 1.655928
C -2.059425 -1.661658 1.586170
C -2.236183 -1.523884 1.624085
C -2.365138 -1.384904 1.509765
C -2.324377 -1.325618 1.643874
C -2.213001 -1.403976 1.739175
C -1.883157 -1.439835 1.845572
C -1.482550 -1.559997 2.186910
C -1.039896 -1.658705 2.454663
C -0.576835 -1.765916 2.574604
C -0.335587 -1.872405 2.756644
C -0.152836 -1.923896 2.835180
C -0.029902 -1.937350 2.958938
C -0.075750 -1.973744 3.035408
C -0.191059 -1.925933 2.974091
C -0.274940 -1.855436 3.018079
C -0.252704 -1.841721 3.144419
C -0.223650 -1.745568 3.253259
C -0.382363 -1.641303 3.205969
C -0.611849 -1.416397 3.267435
C -0.753509 -1.268220 3.340145
C -0.896443 -1.160198 3.513947
C -1.062524 -1.092850 3.490534
C -1.353987 -0.983547 3.457358
C -1.561987 -0.918834 3.492204
