161
chr18 3D structure from Hi-C (resolution 500000bp)
C -2.363688 -0.821071 -1.546606
C -2.230068 -0.945880 -1.633967
C -1.981596 -0.643974 -1.918001
C -1.808580 -0.378907 -2.112994
C -1.476048 -0.423644 -2.415967
C -1.241231 -0.423730 -2.675787
C -1.018800 -0.241805 -2.999872
C -0.910512 -0.054979 -3.163263
C -0.864340 0.046438 -3.271629
C -0.953095 -0.051270 -3.215912
C -1.120010 -0.400893 -3.086903
C -1.402721 -0.568777 -2.953448
C -1.567677 -0.672019 -2.784910
C -1.695148 -0.614704 -2.625127
C -1.770561 -0.435532 -2.543837
C -1.727536 -0.070886 -2.614917
C -1.690021 0.174663 -2.631081
C -1.632490 0.535106 -2.700957
C -1.529662 0.991535 -2.773180
C -1.522914 1.309145 -2.795833
C -1.540881 1.512121 -2.801365
C -1.548965 1.711336 -2.765549
C -1.642994 1.762613 -2.591098
C -1.789585 1.685638 -2.397393
C -1.871636 1.638829 -2.180981
C -2.123154 1.308983 -2.006672
C -2.470596 0.766753 -1.799967
C -2.960124 0.252049 -1.564980
C -3.568835 -0.469929 -1.035472
C -4.165933 -1.153426 -0.351096
C -4.696193 -1.531785 0.417954
C -5.179410 -1.626471 1.230991
C -5.357178 -1.313332 2.152793
C -5.256541 -0.402258 2.984525
C -4.912580 0.719278 3.551153
C -4.563499 1.965278 3.633928
C -4.478993 2.944744 3.473782
C -4.525257 3.567080 3.120484
C -4.457175 3.881173 2.421261
C -4.024970 3.604015 1.638576
C -3.702883 3.208113 0.828318
C -3.455603 2.409586 0.241053
C -3.070054 1.710280 -0.201116
C -2.366968 1.342818 -0.671205
C -1.466972 1.063580 -1.135698
C -0.741887 0.769844 -1.341126
C -0.629192 0.649328 -1.401065
C -0.437700 0.255782 -1.545803
C -0.230373 0.150978 -1.696546
C -0.014653 0.105002 -1.894265
C 0.029186 -0.306843 -1.894783
C -0.006142 -0.754538 -1.773567
C -0.094544 -1.145470 -1.602083
C -0.085409 -1.422493 -1.529809
C -0.198569 -1.602447 -1.349955
C -0.242373 -1.948112 -1.182400
C -0.386388 -2.430654 -0.909619
C -0.274567 -2.694959 -0.832367
C -0.148464 -2.742027 -0.874568
C 0.093573 -2.659459 -1.034252
C 0.433802 -2.324891 -1.286128
C 0.680080 -2.127248 -1.377718
C 0.844362 -1.988384 -1.396441
C 1.106542 -1.941946 -1.456151
C 1.235968 -1.782998 -1.453667
C 1.333643 -1.691452 -1.463626
C 1.383897 -1.675112 -1.372502
C 1.389821 -1.687684 -1.293931
C 1.489067 -1.521666 -1.356295
C 1.563230 -1.204911 -1.506474
C 1.460613 -0.841448 -1.504966
C 1.293220 -0.735127 -1.380269
C 1.118928 -0.845541 -1.089042
C 0.939030 -1.053283 -0.780474
C 0.657403 -1.246420 -0.484383
C 0.467624 -1.712381 -0.113107
C 0.339162 -2.148695 0.273965
C 0.370374 -2.511515 0.480110
C 0.499468 -2.740892 0.554404
C 0.667143 -2.729907 0.514803
C 0.801382 -2.512896 0.407820
C 1.096880 -2.370491 0.309460
C 1.351158 -2.124283 0.189965
C 1.583570 -1.920305 0.083712
C 1.879629 -1.793575 -0.034530
C 2.056069 -1.517157 -0.164199
C 2.114656 -1.130470 -0.318275
C 2.236070 -0.891086 -0.464428
C 2.200220 -0.644647 -0.541579
C 2.090106 -0.172181 -0.718225
C 2.030535 0.302698 -0.935580
C 1.857674 0.787269 -1.109966
C 1.638554 1.214334 -1.174636
C 1.582937 1.456987 -1.225621
C 1.485692 1.819582 -1.283407
C 1.480273 2.097045 -1.361019
C 1.412911 2.231201 -1.274994
C 1.396202 2.449109 -1.172559
C 1.334182 2.498983 -1.033758
C 1.411999 2.380222 -0.940462
C 1.299592 2.476843 -0.661725
C 1.499914 2.156562 -0.534487
C 1.685139 1.704131 -0.279727
C 1.939449 1.219207 -0.075985
C 2.109043 0.776809 0.067610
C 2.261953 0.631115 0.139365
C 2.444054 0.526251 0.278313
C 2.718543 0.284804 0.204781
C 2.698043 0.266820 0.367645
C 2.662309 0.343241 0.441857
C 2.541181 0.684979 0.372288
C 2.412595 0.916517 0.378745
C 2.316116 1.048593 0.426022
C 2.134785 1.285594 0.371392
C 1.967525 1.557962 0.361404
C 1.755652 1.782560 0.349562
C 1.598865 1.947154 0.339487
C 1.621230 1.884908 0.575394
C 1.653513 1.738292 0.789095
C 1.717880 1.498808 0.974496
C 1.696298 1.309087 1.153576
C 1.748603 1.160426 1.329249
C 1.837830 1.228636 1.408412
C 1.814402 1.321454 1.478847
C 1.754098 1.205047 1.451550
C 1.705216 1.056623 1.487404
C 1.793933 0.934399 1.574126
C 1.949634 0.673267 1.737827
C 2.028598 0.228982 1.861923
C 2.083659 -0.324682 2.010913
C 2.201785 -0.785087 2.213112
C 2.237366 -1.065441 2.406815
C 2.200636 -1.294593 2.490474
C 1.989275 -1.404952 2.565606
C 1.852478 -1.358536 2.602215
C 1.702565 -1.322175 2.739829
C 1.590801 -1.050964 2.794413
C 1.396365 -0.827549 2.753384
C 1.209860 -0.760977 2.784157
C 0.983250 -0.740296 2.882683
C 0.777286 -0.814234 2.957226
C 0.554520 -0.987425 2.969725
C 0.348161 -0.988984 2.919130
C 0.145447 -1.146794 2.969598
C 0.044689 -1.326738 2.970404
C -0.015727 -1.105973 2.845964
C -0.060763 -0.706328 2.615487
C -0.106708 -0.337913 2.455142
C -0.201858 -0.174841 2.338513
C -0.252605 -0.015500 2.246635
C -0.320425 0.252258 2.057920
C -0.440442 0.439835 1.970269
C -0.650412 0.286482 1.962737
C -0.842181 -0.062068 2.131764
C -1.084374 -0.323119 2.353825
C -1.164404 0.024074 2.331042
C -1.237277 0.338816 2.378099
C -1.324833 0.534647 2.476061
C -1.408063 0.549074 2.590590
C -1.429924 0.802124 2.658755
C -1.399607 1.355304 2.626437
