161
chr18 3D structure from Hi-C (resolution 500000bp)
C -2.192400 -1.031619 -1.328088
C -1.997588 -1.043344 -1.575424
C -1.921957 -0.609630 -1.787572
C -1.858186 -0.329826 -1.951753
C -1.559664 -0.351570 -2.287730
C -1.395458 -0.251786 -2.668042
C -1.351444 0.130800 -2.976535
C -1.369924 0.394361 -3.073711
C -1.428180 0.463537 -3.046540
C -1.429629 0.276546 -3.041747
C -1.507614 -0.046851 -2.936115
C -1.666642 -0.287565 -2.769446
C -1.835065 -0.486257 -2.558247
C -1.948340 -0.549634 -2.356389
C -2.085950 -0.428605 -2.271915
C -2.230616 -0.113460 -2.203328
C -2.428525 0.083754 -2.072550
C -2.512125 0.372070 -2.021325
C -2.595458 0.855057 -2.098832
C -2.582851 1.186904 -2.138579
C -2.575940 1.454096 -2.117167
C -2.561081 1.694925 -2.024672
C -2.507181 1.797803 -1.997621
C -2.443871 1.778188 -1.894895
C -2.396559 1.700023 -1.780600
C -2.455232 1.263315 -1.609407
C -2.603447 0.608865 -1.592324
C -2.877243 -0.167899 -1.502968
C -3.067221 -1.351963 -1.174442
C -3.228157 -2.540561 -0.639402
C -3.393538 -3.491945 0.009394
C -3.652869 -4.109988 0.800062
C -3.809799 -4.210722 1.774486
C -3.922345 -3.631850 2.925359
C -3.985621 -2.745330 3.834374
C -4.253959 -1.591865 4.291343
C -4.687019 -0.731701 4.448942
C -5.116918 -0.163412 4.287799
C -5.349293 0.282278 3.604692
C -4.993300 0.418875 2.747522
C -4.607310 0.400424 1.786075
C -4.123399 -0.054609 0.994632
C -3.477655 -0.280759 0.298756
C -2.620389 -0.007072 -0.464134
C -1.733584 0.372696 -1.064689
C -0.961393 0.554745 -1.272228
C -0.797728 0.517776 -1.350885
C -0.623003 0.268736 -1.480456
C -0.459554 0.265094 -1.604425
C -0.237377 0.351929 -1.814323
C -0.142451 0.027232 -1.832220
C -0.002732 -0.433364 -1.826488
C 0.100007 -0.814966 -1.815416
C 0.310123 -1.026975 -1.914652
C 0.462208 -1.282117 -1.909612
C 0.641510 -1.547571 -1.988013
C 0.683254 -2.109672 -1.820680
C 0.735686 -2.463874 -1.654766
C 0.852059 -2.454292 -1.663366
C 0.948058 -2.289933 -1.717573
C 0.978206 -1.877820 -1.800477
C 1.009040 -1.579481 -1.768685
C 1.073254 -1.388342 -1.704610
C 1.285861 -1.187943 -1.764500
C 1.500711 -0.919237 -1.869007
C 1.583971 -0.777691 -1.874916
C 1.680515 -0.711913 -1.867261
C 1.729447 -0.692136 -1.815679
C 1.770056 -0.442990 -1.887634
C 1.726211 -0.099201 -1.930495
C 1.518476 0.124153 -1.802582
C 1.353158 0.129612 -1.617655
C 1.238834 -0.038510 -1.337193
C 1.135722 -0.336275 -1.064844
C 0.972115 -0.663514 -0.787666
C 1.013955 -1.266578 -0.522427
C 1.031871 -1.837928 -0.270796
C 1.187600 -2.210333 -0.162593
C 1.384609 -2.383954 -0.103201
C 1.495603 -2.401934 -0.134839
C 1.604311 -2.184410 -0.193931
C 1.850608 -1.948341 -0.309929
C 1.998348 -1.643242 -0.385395
C 2.206205 -1.357417 -0.442068
C 2.414375 -1.048201 -0.541941
C 2.492260 -0.730158 -0.662198
C 2.452370 -0.265625 -0.753699
C 2.461706 0.014638 -0.824187
C 2.274972 0.257220 -0.798955
C 1.966824 0.778027 -0.834748
C 1.634878 1.271872 -0.927672
C 1.254782 1.715036 -0.914142
C 0.832723 2.059613 -0.846723
C 0.622336 2.227279 -0.794303
C 0.319000 2.529435 -0.689216
C 0.175521 2.801499 -0.629618
C 0.116244 2.860133 -0.552394
C 0.060702 3.044687 -0.385538
C 0.089195 3.026211 -0.291503
C 0.277935 2.961331 -0.269680
C 0.600214 3.017817 -0.280718
C 0.953954 2.825553 -0.304295
C 1.383369 2.411532 -0.278612
C 1.804317 2.059520 -0.244195
C 2.162957 1.643583 -0.236582
C 2.310695 1.523808 -0.204316
C 2.466788 1.439410 -0.079577
C 2.376826 1.318025 0.085286
C 2.396885 1.286375 0.275376
C 2.346159 1.388500 0.399804
C 2.060994 1.607277 0.514635
C 1.797309 1.710212 0.623270
C 1.573734 1.756966 0.699624
C 1.295891 1.914703 0.750958
C 1.048139 2.055955 0.821129
C 0.798438 2.151074 0.828678
C 0.540601 2.199465 0.853398
C 0.702082 2.028930 0.981276
C 0.937354 1.922205 1.104011
C 1.226470 1.684148 1.183510
C 1.372126 1.415552 1.235586
C 1.518207 1.236108 1.301169
C 1.546152 1.262659 1.415767
C 1.607948 1.372240 1.528172
C 1.530757 1.402459 1.578154
C 1.552485 1.273915 1.531242
C 1.701320 1.165087 1.579406
C 1.937934 0.899671 1.601158
C 2.222269 0.534671 1.629023
C 2.538980 0.023008 1.624530
C 2.766860 -0.490478 1.636712
C 2.905393 -0.785140 1.732413
C 2.921581 -0.942322 1.933262
C 2.764700 -0.999885 2.104176
C 2.618334 -0.911535 2.291561
C 2.444880 -0.894174 2.476784
C 2.204223 -0.699701 2.554217
C 1.968142 -0.508400 2.599811
C 1.800792 -0.598586 2.595913
C 1.584467 -0.756581 2.579958
C 1.433482 -1.010048 2.565848
C 1.307447 -1.208800 2.580661
C 1.161964 -1.252109 2.613946
C 1.043598 -1.526007 2.662579
C 0.952857 -1.755125 2.679310
C 0.749091 -1.515476 2.633789
C 0.510698 -1.076327 2.533144
C 0.309273 -0.650185 2.479028
C 0.143286 -0.462270 2.415932
C -0.000493 -0.290251 2.314633
C -0.159901 0.029670 2.188480
C -0.299174 0.232899 2.119525
C -0.428904 0.073451 2.137719
C -0.490238 -0.336980 2.212868
C -0.644377 -0.645617 2.408268
C -0.876129 -0.441017 2.389107
C -1.116762 -0.220961 2.398350
C -1.333608 0.018341 2.484364
C -1.449797 0.026960 2.587648
C -1.571377 0.223813 2.641857
C -1.732146 0.765257 2.697973
