167
chr17 3D structure from Hi-C (resolution 500000bp)
C -0.750916 2.971988 1.503868
C -0.987033 2.816323 1.522119
C -1.004282 2.792345 1.442415
C -0.980515 2.822169 1.227477
C -1.291068 2.602346 1.244694
C -1.518136 2.633513 1.264782
C -1.652176 2.613014 1.049506
C -1.706307 2.729049 0.790297
C -1.584494 2.737908 0.530311
C -1.577498 2.658945 0.329031
C -1.693213 2.500994 0.335951
C -1.699387 2.470992 0.250043
C -1.780581 2.309742 0.127701
C -1.812464 2.173964 -0.063957
C -1.723109 2.012006 -0.221788
C -1.714075 1.931660 -0.371191
C -1.653453 1.975702 -0.589043
C -1.530754 2.000568 -0.887822
C -1.198629 2.021074 -1.247733
C -0.719558 2.138185 -1.665670
C -0.356928 2.170273 -1.952011
C -0.166665 2.092231 -2.188624
C 0.024146 2.033996 -2.401682
C 0.209044 1.903967 -2.511288
C 0.359243 1.822502 -2.659274
C 0.390313 1.607414 -2.746998
C 0.283209 1.460920 -2.781573
C 0.201554 1.310271 -2.873210
C 0.035718 1.378088 -2.912998
C -0.294746 1.452210 -2.863862
C -0.693727 1.437444 -2.800435
C -1.050292 1.379743 -2.613020
C -1.461883 1.366836 -2.420043
C -1.941968 1.335295 -2.123756
C -2.402734 1.356509 -1.902717
C -2.601163 1.168318 -1.896203
C -2.608680 0.946872 -1.946415
C -2.493898 0.660222 -2.125326
C -2.292360 0.411346 -2.351181
C -1.985184 0.308790 -2.555472
C -1.250177 0.366014 -2.887926
C -0.509763 0.508686 -3.038150
C 0.221052 0.765882 -2.922223
C 0.955461 1.104130 -2.664029
C 1.603006 1.562784 -2.208985
C 2.153955 2.054229 -1.683834
C 2.562306 2.496445 -1.161595
C 2.588418 2.777907 -0.644179
C 2.541213 3.012954 -0.263638
C 2.361966 3.238617 -0.054542
C 2.059964 3.381894 -0.117741
C 1.524402 2.970648 -0.382952
C 0.829974 2.474473 -0.778061
C 0.118434 1.936509 -1.083371
C -0.604875 1.371451 -1.167464
C -1.259905 0.718565 -1.202967
C -1.971424 -0.001856 -1.152038
C -2.597461 -0.758689 -1.016893
C -2.983161 -1.012155 -0.850965
C -3.105078 -1.272642 -0.670850
C -3.068870 -1.439304 -0.557413
C -3.007269 -1.636981 -0.599272
C -2.890794 -1.739421 -0.710826
C -2.529049 -1.757482 -0.958815
C -2.260413 -1.668804 -1.103675
C -2.026470 -1.624156 -1.232485
C -1.883472 -1.488769 -1.287088
C -1.833721 -1.539997 -1.347105
C -1.727276 -1.247200 -0.852041
C -0.979207 -0.852904 -0.332796
C -0.331874 -0.464354 0.237188
C 0.347431 -0.033198 0.700541
C 0.953910 0.571482 1.244081
C 1.493152 1.192140 1.787294
C 1.388924 1.678161 2.334688
C 1.351223 1.540120 2.047037
C 0.565085 1.253409 1.811117
C -0.321242 0.952922 1.683455
C -1.250871 0.703521 1.660079
C -2.101018 0.356570 1.604929
C -2.777296 -0.070093 1.547814
C -2.763280 -0.290762 1.513564
C -2.752707 -0.285985 1.648791
C -2.672456 -0.292056 1.728898
C -2.548551 -0.387694 1.894630
C -2.291734 -0.630960 1.995761
C -2.052516 -0.853000 2.178112
C -1.928751 -1.027298 2.281308
C -1.454510 -0.502016 2.248332
C -1.008306 0.066114 2.276747
C -0.843339 -0.202099 2.518659
C -0.786228 -0.354836 2.432319
C -0.755204 -0.482292 2.294298
C -0.654985 -0.652217 2.105431
C -0.652081 -0.833345 1.871277
C -0.973150 -1.744473 1.685641
C -1.277291 -2.637195 1.455809
C -1.353912 -2.658405 1.055460
C -1.176862 -2.602656 0.817547
C -0.967565 -2.526270 0.444674
C -0.620941 -2.314621 -0.121081
C -0.053357 -2.002479 -0.611933
C 0.411784 -1.698489 -1.096703
C 0.901864 -1.301410 -1.633032
C 1.355311 -1.040142 -2.143479
C 1.694418 -0.890944 -2.599737
C 1.863173 -0.787754 -2.720252
C 1.791264 -0.870218 -2.667719
C 1.669901 -1.049912 -2.627886
C 1.544724 -1.234816 -2.634373
C 1.373106 -1.493513 -2.382274
C 1.193204 -1.680164 -2.052254
C 0.961299 -1.931872 -1.753759
C 0.758217 -2.196127 -1.498194
C 0.616986 -2.390878 -1.302607
C 0.483120 -2.536005 -0.917158
C 0.388209 -2.684764 -0.436129
C 0.341675 -2.949613 -0.200119
C 0.347387 -3.138400 -0.194388
C 0.541413 -3.189229 -0.112979
C 0.752219 -3.172723 -0.186628
C 0.961170 -3.165759 -0.214567
C 1.226036 -3.117558 -0.403305
C 1.533288 -3.025798 -0.610391
C 1.609165 -2.825854 -0.466828
C 1.698072 -2.688413 -0.140956
C 1.787295 -2.528685 0.231284
C 1.894060 -2.388459 0.443860
C 2.040552 -2.150559 0.462299
C 2.177751 -1.905991 0.713987
C 2.100601 -1.771364 0.813106
C 2.231503 -1.737962 0.765743
C 2.419820 -1.651679 0.735142
C 2.422286 -1.626593 0.596824
C 2.544167 -1.532988 0.496439
C 2.562488 -1.510676 0.604820
C 2.563155 -1.490178 0.403688
C 2.805106 -1.282697 0.293661
C 2.951424 -0.955608 0.013218
C 3.097706 -0.605132 -0.237630
C 3.243752 -0.284609 -0.461419
C 3.185990 -0.136127 -0.473091
C 3.243039 -0.018418 -0.527815
C 3.140528 -0.003618 -0.366969
C 2.915196 -0.057945 -0.293636
C 2.631627 -0.152249 -0.029989
C 2.367252 -0.323257 0.404229
C 2.036682 -0.556830 0.890133
C 1.786288 -0.737431 1.310687
C 1.455523 -0.836611 1.801206
C 1.183753 -0.843401 2.080515
C 0.939528 -0.856014 2.545145
C 0.942233 -0.733253 2.795246
C 0.719083 -0.658438 2.789014
C 0.601745 -0.539812 2.746851
C 0.588191 -0.287863 2.719873
C 0.598880 -0.117011 2.732589
C 0.525783 -0.042364 2.809892
C 0.494457 0.124281 2.836079
C 0.302942 0.110710 2.938682
C 0.254674 0.324155 3.055001
C 0.216573 0.514844 3.145894
C 0.180191 0.715306 3.227775
C 0.158213 1.025075 3.236416
C 0.164287 1.196406 3.265711
C 0.181887 1.313825 3.279798
C 0.252039 1.576895 3.275398
