167
chr17 3D structure from Hi-C (resolution 500000bp)
C -1.509608 2.365122 2.197422
C -1.705629 2.176504 2.104674
C -1.717322 2.211501 1.879762
C -1.682210 2.290657 1.609743
C -1.873819 2.187293 1.295659
C -2.044900 2.250279 1.217925
C -2.154897 2.108827 1.104061
C -2.204895 2.208396 0.891059
C -2.097826 2.285554 0.576744
C -2.082043 2.259041 0.407505
C -2.178604 2.139975 0.383995
C -2.284721 2.024125 0.347559
C -2.284574 1.841790 0.293370
C -2.251888 1.785453 0.093971
C -2.216625 1.562660 -0.062914
C -2.129330 1.423108 -0.165629
C -2.061685 1.425058 -0.339205
C -1.898878 1.412639 -0.603516
C -1.575945 1.593893 -0.963370
C -1.208782 1.865412 -1.419918
C -0.815699 2.016075 -1.720261
C -0.503876 2.092268 -1.960490
C -0.288918 2.219990 -2.159144
C -0.101447 2.183285 -2.308664
C 0.117340 2.159080 -2.440123
C 0.246026 1.987274 -2.559457
C 0.231845 1.766558 -2.666904
C 0.160853 1.680129 -2.779892
C 0.004780 1.702220 -2.888587
C -0.352316 1.620917 -2.883528
C -0.690470 1.543100 -2.797704
C -1.114039 1.450378 -2.607634
C -1.532440 1.284000 -2.404131
C -1.998052 1.195101 -2.157463
C -2.464317 1.003763 -1.998379
C -2.658491 0.718620 -2.001906
C -2.562718 0.524059 -2.111582
C -2.275391 0.286012 -2.357341
C -2.004013 0.177047 -2.663646
C -1.673264 0.193185 -2.879571
C -1.043267 0.525612 -2.988909
C -0.319498 0.879919 -2.983372
C 0.322900 1.322565 -2.756987
C 0.955525 1.733235 -2.182802
C 1.393013 2.149384 -1.421143
C 1.799757 2.506543 -0.589230
C 2.091192 2.880937 0.165616
C 1.970772 3.006636 0.617991
C 1.724558 3.193567 0.964296
C 1.457365 3.368315 1.169356
C 1.120351 3.493861 0.922572
C 0.664722 3.121801 0.433552
C 0.216625 2.607002 -0.251956
C -0.317558 2.058585 -0.728645
C -0.726634 1.219904 -0.919904
C -1.092381 0.448591 -1.065571
C -1.594301 -0.339533 -1.199650
C -2.138591 -1.135354 -1.130118
C -2.523995 -1.443712 -1.021962
C -2.764548 -1.682079 -0.815139
C -2.759803 -1.886279 -0.766947
C -2.682995 -1.910237 -0.875565
C -2.520697 -1.985049 -1.037463
C -2.141698 -1.964858 -1.193516
C -1.783096 -1.822788 -1.393018
C -1.490946 -1.814659 -1.513970
C -1.311353 -1.693606 -1.632281
C -1.277751 -1.586230 -1.779646
C -1.210806 -1.622999 -1.993149
C -0.686371 -0.877738 -1.753385
C -0.308147 -0.191221 -1.387045
C -0.014461 0.453426 -0.939451
C 0.223782 1.240716 -0.355482
C 0.415925 1.948579 0.298656
C 0.283166 2.181538 0.950346
C 0.192841 2.346038 1.469581
C -0.473865 1.701007 1.667830
C -1.164760 1.025268 1.745982
C -1.845536 0.457817 1.765010
C -2.430904 -0.098236 1.570873
C -2.854133 -0.664552 1.448494
C -2.823568 -0.829707 1.388867
C -2.854749 -0.832719 1.505738
C -2.791210 -0.911055 1.426409
C -2.613119 -0.966487 1.522208
C -2.350400 -1.145379 1.656900
C -2.091952 -1.377366 1.923850
C -1.923691 -1.600284 2.023064
C -1.191158 -1.243991 2.113747
C -0.451518 -0.879973 2.242163
C -0.160402 -1.039719 2.562348
C -0.131594 -1.214964 2.512594
C -0.050910 -1.339022 2.366135
C 0.062798 -1.422651 2.131349
C 0.202725 -1.555941 1.979144
C -0.309718 -2.163736 1.651807
C -0.757891 -2.748104 1.410764
C -0.804847 -2.764134 1.114570
C -0.619974 -2.729252 0.917745
C -0.404765 -2.580083 0.572701
C -0.027837 -2.195004 0.114345
C 0.395808 -1.723444 -0.440674
C 0.825289 -1.217417 -0.842513
C 1.273200 -0.619064 -1.312676
C 1.706294 -0.068984 -1.800995
C 2.102520 0.394357 -2.144100
C 2.311883 0.598036 -2.265834
C 2.284696 0.430052 -2.281219
C 2.247520 0.297381 -2.241752
C 2.303227 0.055722 -2.267295
C 2.090362 -0.376904 -2.232213
C 1.882675 -0.771025 -2.082830
C 1.652325 -1.195592 -2.025402
C 1.436570 -1.579354 -1.869023
C 1.324069 -1.815586 -1.631669
C 1.133965 -2.098006 -1.312918
C 0.887226 -2.418562 -0.974799
C 0.812862 -2.714009 -0.853496
C 0.808830 -2.912345 -0.871050
C 0.878402 -2.996476 -0.821473
C 1.055705 -2.956540 -0.761127
C 1.251773 -2.934361 -0.782908
C 1.511783 -2.846018 -0.902451
C 1.798159 -2.658087 -1.106270
C 1.865696 -2.490116 -0.844955
C 1.944800 -2.423455 -0.469510
C 2.106339 -2.306363 0.015045
C 2.211037 -2.233401 0.118193
C 2.268474 -2.011390 0.166220
C 2.404346 -1.798106 0.229332
C 2.365229 -1.788723 0.445633
C 2.550576 -1.709866 0.438487
C 2.650303 -1.617904 0.394206
C 2.627918 -1.556954 0.253915
C 2.675843 -1.416398 0.240675
C 2.709892 -1.363433 0.376064
C 2.678862 -1.277221 0.459117
C 2.837622 -0.977138 0.420228
C 2.980334 -0.589237 0.275402
C 3.120409 -0.174293 0.094446
C 3.231915 0.183983 0.024077
C 3.222114 0.368279 0.040624
C 3.212896 0.469203 0.117747
C 3.110242 0.429946 0.234829
C 2.845732 0.362153 0.293748
C 2.522083 0.120081 0.447041
C 2.282054 -0.127188 0.846431
C 2.002410 -0.477963 1.217073
C 1.624805 -0.720713 1.577967
C 1.263783 -0.856908 1.901114
C 0.948880 -0.960076 2.153764
C 0.800214 -1.062006 2.510117
C 0.769270 -0.981656 2.779341
C 0.544109 -0.932910 2.818152
C 0.454436 -0.749845 2.802926
C 0.530882 -0.552702 2.750168
C 0.643860 -0.376210 2.720607
C 0.628979 -0.254681 2.810239
C 0.510866 -0.098147 2.855786
C 0.325249 -0.037824 2.947303
C 0.243699 0.138274 3.057275
C 0.058471 0.306197 3.140080
C 0.015716 0.487047 3.278430
C -0.055097 0.706290 3.336817
C -0.094836 0.857251 3.349431
C -0.079254 0.974904 3.409568
C -0.030817 1.199224 3.408517
