167
chr17 3D structure from Hi-C (resolution 500000bp)
C 2.323787 2.905995 1.974777
C 2.344884 2.669551 1.877937
C 2.199062 2.598272 1.735305
C 1.987373 2.657955 1.628850
C 2.045869 2.299514 1.397561
C 2.215969 2.052473 1.523219
C 2.151399 1.932915 1.341698
C 2.038709 1.920548 1.298609
C 1.757906 2.031079 1.177201
C 1.592176 2.075108 1.101548
C 1.654331 1.942500 1.108201
C 1.694063 1.813354 1.201940
C 1.582736 1.835742 1.162840
C 1.423626 1.824178 1.141958
C 1.187025 1.816400 1.065813
C 1.105127 1.730413 1.080362
C 0.926009 1.676948 1.125300
C 0.622345 1.704447 1.058674
C 0.062097 1.889156 0.932932
C -0.587041 2.096248 0.885171
C -1.192482 2.267746 0.806148
C -1.521525 2.350905 0.838142
C -1.763298 2.386762 0.853828
C -1.975165 2.437102 0.860699
C -2.219295 2.467455 0.950221
C -2.283180 2.435851 1.026084
C -2.320885 2.357937 1.012945
C -2.272800 2.281977 1.069402
C -2.218480 2.261743 1.139905
C -1.972652 2.153185 1.208820
C -1.648578 2.059946 1.373747
C -1.197190 1.842303 1.455515
C -0.802735 1.681479 1.533779
C -0.273680 1.500264 1.742686
C 0.146623 1.337069 2.052880
C 0.343821 1.174248 2.210443
C 0.281929 1.122509 2.275962
C 0.177716 1.005927 2.315233
C -0.111594 1.078908 2.367618
C -0.387938 1.129072 2.272464
C -1.016300 1.247939 2.167809
C -1.646367 1.368570 1.921378
C -2.239855 1.432878 1.807871
C -2.897232 0.880809 1.715381
C -3.393053 0.141818 1.452407
C -3.700611 -0.729614 1.280859
C -3.992468 -1.569280 1.427551
C -3.972885 -2.338207 1.678747
C -3.919647 -2.886030 2.087897
C -3.812262 -3.310931 2.465366
C -3.674635 -2.854797 2.650713
C -3.270413 -2.201953 2.703761
C -2.844805 -1.469522 2.673217
C -2.324744 -0.808326 2.466122
C -1.580166 -0.336546 2.140293
C -0.846664 -0.075075 1.695860
C -0.096583 0.009324 1.261656
C 0.804751 -0.167103 1.145239
C 1.376589 -0.382420 1.278001
C 1.767905 -0.613381 1.440196
C 1.855085 -0.758690 1.539260
C 1.741326 -0.901616 1.575621
C 1.482107 -0.982979 1.591537
C 0.996961 -0.915248 1.477856
C 0.522965 -0.860002 1.357990
C 0.024701 -0.833717 1.268201
C -0.374894 -0.782472 1.141437
C -0.478190 -0.841007 1.060568
C -0.495191 -0.893881 1.185756
C -0.487546 -0.996465 1.813356
C -0.306758 -1.273727 2.459905
C -0.203183 -1.716566 3.026462
C -0.039881 -2.259504 3.369292
C 0.084226 -2.903755 3.651193
C 0.338670 -3.195293 3.718249
C 0.457536 -3.212820 3.494413
C 0.752798 -3.265679 2.779218
C 1.066228 -3.228225 2.135262
C 1.191185 -3.066975 1.557054
C 1.102100 -2.903551 1.189294
C 1.284402 -2.293885 0.797560
C 1.373967 -2.025687 0.650397
C 1.487717 -1.939963 0.580764
C 1.472279 -1.867679 0.527988
C 1.457553 -1.677605 0.418986
C 1.739201 -1.514241 0.280328
C 2.118272 -1.212096 0.089022
C 2.264800 -1.424920 -0.043456
C 1.683044 -2.048283 -0.218908
C 1.077883 -2.704457 -0.391504
C 0.947125 -3.111765 -0.617350
C 0.902391 -3.368742 -0.731375
C 0.838042 -3.516209 -0.832878
C 0.725053 -3.624397 -0.907358
C 0.541714 -3.559987 -0.956651
C 0.935166 -2.961616 -1.016754
C 1.324318 -2.349196 -0.991627
C 1.334846 -1.868525 -0.933933
C 1.174257 -1.621481 -0.924878
C 0.759940 -1.320634 -0.900015
C 0.226639 -0.997281 -0.906494
C -0.378853 -0.660236 -0.914384
C -1.078149 -0.378903 -0.879481
C -1.734633 -0.194053 -0.965916
C -2.379611 -0.042513 -1.069320
C -2.911957 0.138570 -1.174415
C -3.177643 0.259382 -1.263026
C -3.105747 0.245178 -1.301987
C -2.957804 0.218829 -1.329744
C -2.769049 0.186425 -1.394553
C -2.444321 0.188641 -1.370638
C -2.029135 0.081444 -1.349048
C -1.625122 -0.078165 -1.355371
C -1.166369 -0.317856 -1.388111
C -0.888700 -0.510126 -1.465700
C -0.523100 -0.746342 -1.509497
C -0.082089 -1.034298 -1.605194
C 0.089044 -1.256153 -1.790686
C 0.076326 -1.356501 -1.902032
C -0.021530 -1.415814 -2.018330
C -0.207003 -1.443274 -2.125453
C -0.353830 -1.417303 -2.244472
C -0.569116 -1.314659 -2.347733
C -0.804357 -1.117751 -2.415324
C -0.731292 -0.951330 -2.364878
C -0.515264 -0.801539 -2.365004
C -0.233849 -0.761011 -2.464696
C -0.176421 -0.532125 -2.442568
C -0.237605 -0.330841 -2.461503
C -0.217395 -0.170625 -2.525349
C -0.221451 -0.071514 -2.545079
C -0.263653 0.052172 -2.580150
C -0.347071 0.083749 -2.663984
C -0.436417 0.268886 -2.646385
C -0.570393 0.337735 -2.693229
C -0.514449 0.442640 -2.688862
C -0.640414 0.604086 -2.626310
C -0.806711 0.867217 -2.611481
C -1.192826 1.049940 -2.611205
C -1.580468 1.289681 -2.619408
C -1.950884 1.472873 -2.639241
C -1.895512 1.574617 -2.592257
C -1.879742 1.678029 -2.535239
C -1.635289 1.667916 -2.492413
C -1.426927 1.582303 -2.392058
C -1.014697 1.506108 -2.306291
C -0.503878 1.369882 -2.134285
C 0.169181 1.067667 -1.997097
C 0.719673 0.790464 -1.895540
C 1.300761 0.512037 -1.771472
C 1.671561 0.320981 -1.770578
C 2.190503 0.125504 -1.767932
C 2.477786 0.124916 -1.783071
C 2.741083 0.086810 -1.831611
C 2.791090 0.196209 -1.830921
C 2.657915 0.480506 -1.945263
C 2.537075 0.684094 -1.974059
C 2.572016 0.847745 -1.929579
C 2.526938 1.006718 -1.869420
C 2.664083 1.026459 -1.800984
C 2.758475 1.081021 -1.704854
C 2.964104 1.072432 -1.559165
C 3.186896 1.090022 -1.356987
C 3.315161 1.487272 -1.356761
C 3.406302 1.535655 -1.292489
C 3.534508 1.600744 -1.244269
C 3.580735 1.701975 -1.194030
