167
chr17 3D structure from Hi-C (resolution 500000bp)
C 1.346612 -0.841906 3.395542
C 1.144620 -0.910123 3.261664
C 1.022603 -0.757471 3.130283
C 1.012389 -0.501151 2.996019
C 0.779570 -0.608167 2.684941
C 0.653564 -0.741917 2.771894
C 0.438103 -0.663346 2.656857
C 0.345625 -0.524876 2.536887
C 0.392028 -0.249724 2.381338
C 0.441126 -0.110466 2.253302
C 0.366172 -0.220352 2.180967
C 0.253439 -0.281934 2.237589
C 0.202037 -0.219884 2.168346
C 0.181874 -0.081916 2.060318
C 0.141149 0.082129 1.971607
C 0.024714 0.169964 1.952447
C -0.074086 0.302110 1.836099
C -0.141843 0.507189 1.700101
C -0.066145 0.986832 1.435403
C 0.092486 1.568974 1.171618
C 0.253450 2.031811 0.962090
C 0.319468 2.337646 0.820330
C 0.332718 2.553516 0.715455
C 0.360630 2.740582 0.727839
C 0.398206 2.965943 0.658114
C 0.388599 3.046382 0.633902
C 0.295745 3.063755 0.593005
C 0.144725 3.090242 0.575521
C -0.002741 3.110271 0.625686
C -0.091329 2.874343 0.764331
C -0.236265 2.652980 0.939593
C -0.390929 2.282381 1.148907
C -0.566850 1.952747 1.329071
C -0.763600 1.497630 1.615788
C -0.926493 1.186777 1.970841
C -1.064024 1.027620 2.120497
C -1.156013 1.036880 2.089993
C -1.233472 1.077314 2.046777
C -1.271296 1.357085 2.015820
C -1.205185 1.555154 1.865776
C -0.974373 2.068212 1.681694
C -0.656692 2.490353 1.310842
C -0.129035 2.837557 1.053449
C 0.759465 2.951224 1.004978
C 1.711589 2.764928 0.844081
C 2.649805 2.332926 0.596171
C 3.483506 1.979688 0.281440
C 4.156473 1.432055 -0.155339
C 4.733719 1.097907 -0.385813
C 5.148790 0.832158 -0.561371
C 4.822313 1.060690 -0.753500
C 3.924836 1.231583 -0.817606
C 3.006382 1.469227 -0.729356
C 2.086793 1.591632 -0.432649
C 1.127652 1.490654 0.057297
C 0.162369 1.130314 0.411387
C -0.883093 0.751439 0.716125
C -1.601986 0.068864 0.929679
C -1.845567 -0.368220 1.116328
C -2.088874 -0.655407 1.195067
C -2.274687 -0.729052 1.178634
C -2.356050 -0.712235 1.117455
C -2.425637 -0.491279 0.994983
C -2.348089 -0.230032 0.830722
C -2.268696 0.135394 0.627789
C -2.201250 0.509436 0.412752
C -2.133289 0.780228 0.264365
C -2.085199 0.833401 0.259748
C -2.215426 0.895551 0.323065
C -1.298006 0.969881 0.749402
C -0.392811 0.863243 1.167706
C 0.560714 0.594007 1.543165
C 1.535748 0.160616 1.838445
C 2.510220 -0.313552 2.154385
C 2.643949 -0.805236 2.419991
C 2.855174 -1.060866 2.405779
C 1.991621 -1.484904 2.085227
C 1.074326 -1.835970 1.811832
C -0.018064 -1.882957 1.497420
C -1.258152 -1.560147 1.252705
C -2.046046 -1.454029 1.061958
C -2.054059 -1.312030 0.885952
C -2.012036 -1.356313 0.816094
C -1.969420 -1.400678 0.788743
C -1.852107 -1.326438 0.722595
C -1.620587 -1.513093 0.726169
C -1.195458 -1.927870 0.742455
C -1.272037 -2.155588 0.667184
C -0.447565 -2.201605 0.228386
C 0.358803 -2.257956 -0.231738
C 0.363374 -2.503608 -0.616228
C 0.221121 -2.643361 -0.773948
C 0.138516 -2.678769 -0.893063
C -0.038511 -2.589220 -1.072519
C -0.130162 -2.383688 -1.208131
C -1.026267 -2.231487 -1.028361
C -1.867127 -2.066775 -0.783717
C -1.842222 -1.692748 -0.584808
C -1.737949 -1.437973 -0.604501
C -1.629733 -0.989417 -0.670426
C -1.389824 -0.462769 -0.774897
C -1.102901 0.123745 -0.949780
C -0.859551 0.725080 -1.158549
C -0.634205 1.318795 -1.412614
C -0.373316 1.882299 -1.698043
C -0.125681 2.308330 -1.939357
C -0.001397 2.503279 -2.064039
C -0.015392 2.404699 -2.076728
C -0.121858 2.269089 -2.053291
C -0.219731 2.148247 -2.042074
C -0.364438 1.886217 -1.921086
C -0.649116 1.540691 -1.783328
C -0.887595 1.176993 -1.645914
C -1.093715 0.792693 -1.571806
C -1.220701 0.525329 -1.561951
C -1.327737 0.168332 -1.543869
C -1.453121 -0.301636 -1.526232
C -1.513384 -0.578032 -1.627878
C -1.504590 -0.614251 -1.744262
C -1.523898 -0.540107 -1.877530
C -1.484401 -0.497523 -2.034475
C -1.443089 -0.425219 -2.167673
C -1.349132 -0.240536 -2.276380
C -1.218968 0.007099 -2.357909
C -1.136775 0.016216 -2.280152
C -1.010626 -0.201576 -2.231280
C -0.888199 -0.429175 -2.256896
C -0.721706 -0.433115 -2.238842
C -0.564628 -0.337647 -2.260239
C -0.431751 -0.347227 -2.286210
C -0.336986 -0.387187 -2.250759
C -0.232140 -0.381110 -2.304504
C -0.186612 -0.369335 -2.352673
C -0.098555 -0.298763 -2.294991
C 0.011327 -0.234353 -2.339013
C 0.092276 -0.333649 -2.350468
C 0.201408 -0.240140 -2.404940
C 0.363232 -0.110775 -2.562375
C 0.574737 0.240938 -2.660516
C 0.801925 0.662268 -2.706514
C 1.019634 0.901739 -2.857504
C 1.073061 0.972432 -2.768920
C 1.146055 1.041037 -2.685994
C 1.128834 0.886034 -2.482121
C 1.081139 0.785102 -2.226626
C 0.946461 0.530892 -1.968053
C 0.779402 0.121413 -1.715300
C 0.523852 -0.370491 -1.353689
C 0.386186 -0.879532 -1.138698
C 0.296153 -1.335995 -0.875281
C 0.277896 -1.660360 -0.708864
C 0.300362 -2.071199 -0.607009
C 0.377411 -2.337492 -0.579793
C 0.492401 -2.554484 -0.576814
C 0.637341 -2.532357 -0.508372
C 0.839219 -2.426181 -0.571027
C 0.993188 -2.311374 -0.588024
C 1.070372 -2.354635 -0.535911
C 1.056756 -2.389691 -0.399261
C 1.094127 -2.522596 -0.257109
C 1.111985 -2.567970 -0.058313
C 1.114830 -2.700950 0.101794
C 1.089396 -2.792109 0.397997
C 1.338277 -2.998776 0.537907
C 1.383867 -3.051429 0.629761
C 1.493864 -3.085903 0.731855
C 1.549532 -3.102335 0.855757
