363
chr5 3D structure from Hi-C (resolution 500000bp)
C -4.180094 0.623525 0.024963
C -4.059504 0.259163 0.175094
C -4.012831 -0.031756 0.259160
C -3.896860 -0.318372 0.348226
C -3.806656 -0.745683 0.369654
C -3.718770 -1.180129 0.375914
C -3.604601 -1.516106 0.484359
C -3.566823 -1.653606 0.572555
C -3.566429 -1.571764 0.661952
C -3.559660 -1.434605 0.695579
C -3.602477 -1.187321 0.676554
C -3.600758 -1.174784 0.779205
C -3.496361 -1.047059 0.896782
C -3.340072 -1.027509 1.055699
C -3.344081 -1.134426 0.949325
C -3.383132 -1.179410 0.770738
C -3.331688 -1.262100 0.840889
C -3.350652 -1.264536 0.891997
C -3.273131 -1.054524 0.909403
C -3.282343 -1.084723 0.933482
C -3.336481 -1.248732 0.785693
C -3.259940 -1.436477 0.752610
C -3.095986 -1.755034 0.774538
C -2.985956 -1.874216 0.793550
C -2.824190 -2.138524 0.841277
C -2.846362 -2.087061 0.914527
C -2.869684 -2.008372 0.962255
C -2.824391 -1.944390 1.134675
C -2.752082 -1.853110 1.324245
C -2.791285 -1.758365 1.499141
C -2.794843 -1.719157 1.548487
C -2.754900 -1.576344 1.588169
C -2.689738 -1.975613 1.532885
C -2.587071 -2.257550 1.513941
C -2.465394 -2.311681 1.523452
C -2.370277 -2.352725 1.572996
C -2.220056 -2.491805 1.512472
C -2.084553 -2.724023 1.427213
C -1.999591 -2.987086 1.387986
C -1.865427 -3.125256 1.322827
C -1.755758 -3.266849 1.210140
C -1.611588 -3.413602 1.162094
C -1.472886 -3.469322 1.197932
C -1.315676 -3.424459 1.332774
C -1.208130 -3.456486 1.460812
C -1.135144 -3.421917 1.582883
C -1.104940 -3.196515 1.853402
C -1.086562 -2.952400 2.121309
C -1.067773 -2.767242 2.301575
C -1.072825 -2.775968 2.400386
C -1.080697 -2.684514 2.513814
C -1.051750 -2.584444 2.646523
C -1.011208 -2.499586 2.746244
C -0.976016 -2.386128 2.814279
C -0.896762 -2.436281 2.921299
C -0.998899 -2.456326 2.953681
C -1.064656 -2.219161 2.982724
C -1.168090 -2.119424 3.002162
C -1.352740 -1.936086 2.996479
C -1.557109 -1.748329 2.959800
C -1.738817 -1.532682 2.862724
C -1.968802 -1.077891 2.636541
C -2.141685 -0.744125 2.571226
C -2.331401 -0.547201 2.497744
C -2.620672 -0.147570 2.311181
C -2.861249 0.260821 2.123710
C -2.975153 0.522269 2.011236
C -3.049076 0.640670 1.934987
C -3.055964 0.582315 1.994323
C -3.042757 0.698019 1.942308
C -3.012881 0.868958 1.960980
C -2.935007 0.983191 1.985225
C -2.719720 0.812318 2.098930
C -2.566547 0.703613 2.236607
C -2.488636 0.677006 2.402597
C -2.457867 0.717047 2.519120
C -2.294072 0.536639 2.668372
C -2.145143 0.337986 2.714252
C -2.038024 0.150669 2.947792
C -1.939207 0.054703 3.111023
C -1.905177 0.045050 3.159968
C -1.725156 -0.078601 3.312161
C -1.579469 -0.155592 3.374017
C -1.727879 0.130877 3.247982
C -1.671554 0.154598 3.383080
C -1.425594 -0.054430 3.388948
C -1.214072 -0.256335 3.354030
C -0.908684 -0.701508 3.341685
C -0.655678 -1.105752 3.201445
C -0.301620 -1.671563 3.027732
C 0.322470 -2.509230 2.921695
C 0.728938 -3.129406 2.545391
C 1.037061 -3.649082 2.135356
C 1.213936 -4.049718 1.694231
C 1.090567 -4.316402 1.122850
C 0.838402 -4.520370 0.530817
C 0.070279 -3.613798 0.122266
C -0.005451 -3.324089 0.418256
C -0.206596 -2.675543 0.706826
C -0.260251 -2.128149 1.117439
C -0.225414 -1.585194 1.630398
C -0.035714 -1.017690 2.281249
C 0.224688 -0.326578 2.847634
C 0.968663 -0.656871 3.428705
C 0.823884 -0.225825 3.375052
C 0.654270 0.086756 3.286073
C 0.435579 0.389645 3.139967
C 0.075866 0.923412 2.917875
C -0.097716 1.511882 2.707230
C -0.236582 1.849603 2.589740
C -0.444470 2.161172 2.398818
C -0.583933 2.351069 2.238047
C -0.468343 2.211886 2.322125
C -0.388097 2.152112 2.384729
C -0.297723 2.022921 2.524770
C -0.245265 1.805816 2.603166
C -0.270106 1.720516 2.758540
C -0.221517 1.726424 2.825819
C -0.138405 1.694463 2.872477
C -0.123532 1.765958 2.717839
C -0.130365 1.838281 2.673694
C -0.021220 1.839486 2.517421
C 0.033720 1.816662 2.552612
C 0.231592 1.680323 2.606220
C 0.401760 1.541363 2.786370
C 0.568861 1.482639 2.925382
C 0.719439 1.560428 3.038759
C 0.781977 1.746430 2.982633
C 0.791540 1.922041 2.922348
C 0.579016 2.159085 2.746773
C 0.315195 2.386004 2.459385
C -0.071401 2.625544 2.117863
C -0.201405 2.823649 1.862206
C -0.490502 2.948023 1.674442
C -0.693659 3.015119 1.541246
C -1.069529 3.094407 1.323692
C -1.455954 3.088758 0.992742
C -1.288811 2.021992 0.734958
C -0.968987 0.885910 0.495192
C -0.868958 -0.200536 0.254097
C -0.751981 -0.181871 0.187213
C -0.739000 -0.177217 0.079135
C -0.508477 -0.314945 0.098656
C -0.106619 -0.352919 0.259270
C -0.187016 0.798350 0.355159
C -0.363882 1.991394 0.481709
C -0.608187 3.210299 0.487924
C -0.832355 3.296174 0.366929
C -0.951575 3.350610 0.332963
C -1.089141 3.506931 0.243801
C -1.100685 3.595064 0.176154
C -1.155208 3.605709 0.174900
C -1.078845 3.625964 0.072728
C -0.930132 3.659377 0.086819
C -0.710944 3.673161 0.057782
C -0.451018 3.692289 0.089307
C -0.187480 3.607067 0.181173
C 0.014940 3.622662 0.174050
C 0.225236 3.661191 0.194667
C 0.379841 3.609746 0.280908
C 0.498599 3.493838 0.391838
C 0.818883 3.300552 0.678637
C 1.056241 3.026603 0.911221
C 1.265180 2.879944 1.059949
C 1.594589 2.607601 1.406805
C 1.861307 2.293762 1.679527
C 2.111193 1.974222 1.945359
C 2.295174 1.609338 2.134141
C 2.338465 1.223070 2.154768
C 2.472702 0.869738 2.260834
C 2.620131 0.590825 2.429808
C 2.638245 0.612785 2.324883
C 2.725023 0.472673 2.387758
C 2.749415 0.393958 2.484925
C 2.828460 0.674037 2.425409
C 2.772340 1.110531 2.248610
C 2.676423 1.634941 2.000818
C 2.712011 1.973379 1.776473
C 2.767724 1.915955 1.772577
C 2.754711 2.051470 1.581007
C 2.768098 2.026828 1.425548
C 2.867008 1.627520 1.454626
C 3.020847 1.129719 1.643397
C 3.137449 0.648410 1.758228
C 3.132016 0.409108 1.804717
C 3.073800 0.317983 1.746806
C 2.890380 0.369343 1.644635
C 2.807311 0.686810 1.427485
C 2.614233 1.163568 1.131997
C 2.517299 1.665664 0.806343
C 2.363211 2.024897 0.554212
C 2.349847 2.217411 0.384462
C 2.326107 1.984335 0.430541
C 2.423784 1.578826 0.592740
C 2.469017 0.901878 0.780397
C 2.558418 0.234953 1.049465
C 2.646772 -0.382847 1.280866
C 2.836321 -0.808791 1.437323
C 2.768449 -0.987450 1.433637
C 2.844564 -1.115469 1.390886
C 2.942405 -1.133250 1.264404
C 2.936733 -0.903477 1.117411
C 2.903001 -0.612283 0.932216
C 2.849846 -0.366718 0.741421
C 2.878701 -0.363210 0.636115
C 3.028871 -0.628872 0.702092
C 3.055174 -0.579102 0.549704
C 3.103076 -0.701694 0.489513
C 3.191766 -0.952523 0.486511
C 3.321153 -1.277112 0.558546
C 3.407588 -1.489714 0.562145
C 3.340589 -1.233687 0.449179
C 3.292341 -0.940709 0.297525
C 3.326968 -0.512149 0.198652
C 3.266416 0.094130 0.017764
C 3.189148 0.708277 -0.176870
C 3.142479 1.067408 -0.320754
C 3.147102 1.200978 -0.334783
C 3.215134 1.139389 -0.345329
C 3.090199 1.210992 -0.450255
C 2.932164 1.265352 -0.542003
C 2.764893 1.180238 -0.587012
C 2.610602 1.149237 -0.610126
C 2.623258 1.200517 -0.778883
C 2.606799 1.192364 -0.890440
C 2.658670 1.063222 -1.011656
C 2.780793 0.727513 -0.941459
C 2.929105 0.524762 -0.968191
C 3.052857 0.456072 -1.007173
C 3.063057 0.308372 -0.995040
C 2.945943 0.260821 -0.959424
C 3.007532 0.190127 -0.946500
C 2.880639 -0.134190 -0.844522
C 2.818631 -0.228163 -0.858430
C 2.765068 -0.440859 -0.797422
C 2.786348 -0.429698 -0.897069
C 2.888365 -0.644043 -0.936704
C 2.977429 -1.110870 -0.901092
C 2.862655 -1.232017 -0.957165
C 2.869706 -1.100378 -1.053263
C 2.954395 -1.185517 -1.156874
C 2.971522 -1.237211 -1.257846
C 2.869192 -1.390678 -1.237473
C 2.948224 -1.357904 -1.333151
C 2.965330 -1.040348 -1.528120
C 2.980103 -0.929231 -1.745918
C 2.942209 -0.617491 -1.962319
C 2.889353 -0.332778 -2.133550
C 2.849862 -0.359390 -2.224006
C 2.831087 -0.431641 -2.162126
C 2.710699 -0.218363 -2.232379
C 2.603963 -0.170228 -2.259637
C 2.536243 -0.054944 -2.168457
C 2.524701 -0.258272 -2.124779
C 2.443288 -0.532658 -1.990287
C 2.344058 -0.600500 -1.909157
C 2.362795 -0.855337 -1.924719
C 2.351875 -1.379546 -1.807812
C 2.316839 -1.728537 -1.709933
C 2.269357 -1.499000 -1.800743
C 2.112215 -1.099168 -1.796191
C 1.951570 -0.532586 -1.887822
C 1.766276 0.142446 -1.999026
C 1.532853 0.861887 -2.129605
C 1.288890 1.594969 -2.246135
C 1.014247 2.420514 -2.357332
C 0.712057 2.654155 -2.321908
C 0.512176 2.693822 -2.359541
C 0.349352 2.728578 -2.405149
C 0.177582 2.486935 -2.333725
C -0.009092 2.150998 -2.283816
C -0.083338 1.995265 -2.293773
C -0.175925 1.914454 -2.344503
C -0.327815 1.876726 -2.374416
C -0.424056 1.944551 -2.300127
C -0.554410 2.057330 -2.231541
C -0.646371 2.368931 -2.306270
C -0.600775 2.640691 -2.398329
C -0.895028 2.251988 -2.496479
C -1.108936 1.598830 -2.494240
C -0.949690 1.344024 -2.567995
C -0.796986 1.178753 -2.706951
C -0.540154 0.923728 -2.864687
C -0.295237 0.681186 -2.986082
C -0.092340 0.490905 -2.968887
C 0.421210 0.649637 -2.948572
C 0.826742 0.689312 -2.880300
C 1.006693 0.281349 -2.861627
C 1.123952 -0.081190 -2.923003
C 1.074305 -0.254773 -2.808801
C 1.048738 -0.671790 -2.806942
C 1.058344 -0.968383 -2.843728
C 1.001743 -1.214145 -2.857816
C 0.921346 -1.203893 -2.890242
C 0.866239 -1.073626 -2.991950
C 0.728606 -0.926106 -3.000935
C 0.690300 -0.774681 -3.152979
C 0.569250 -0.353547 -3.190513
C 0.335600 -0.019415 -3.246548
C 0.150818 0.422495 -3.304755
C 0.096079 0.751874 -3.466286
C 0.006422 0.720843 -3.364871
C -0.249553 0.316425 -3.223908
C -0.318516 -0.088406 -3.121274
C -0.283760 -0.474660 -3.017944
C -0.150352 -0.635904 -2.933946
C -0.093431 -0.846494 -2.978494
C -0.133510 -1.165611 -2.966934
C -0.144549 -1.247048 -3.054543
C -0.012039 -1.066234 -3.204889
C 0.068756 -0.940860 -3.287532
C 0.090701 -0.744053 -3.410158
C 0.056605 -0.654495 -3.470580
C -0.025307 -0.611927 -3.483728
C -0.038194 -0.397766 -3.497516
C -0.068757 -0.124772 -3.554035
C -0.097144 0.036411 -3.580998
C -0.190159 0.159889 -3.556013
C -0.219600 -0.013963 -3.450914
C -0.173749 -0.537599 -3.331771
C -0.047093 -0.914418 -3.189022
C 0.069590 -1.395858 -3.048017
C 0.094520 -1.882104 -2.865514
C 0.263494 -2.163518 -2.758828
C 0.361889 -2.502045 -2.676266
C 0.374121 -2.855077 -2.593470
C 0.411093 -2.924925 -2.566121
C 0.358183 -2.845612 -2.543586
C 0.226437 -2.763698 -2.524500
C 0.131698 -2.748151 -2.531378
C -0.027156 -2.768980 -2.475633
C -0.231635 -2.836982 -2.539884
C -0.384628 -2.629907 -2.630984
C -0.599460 -2.209325 -2.750839
C -0.776507 -1.965821 -2.868243
C -0.853988 -1.682285 -2.926389
C -0.954511 -1.263472 -2.952516
C -1.014848 -0.820957 -3.005347
C -1.115605 -0.453915 -3.035990
C -1.299129 -0.238287 -3.082221
C -1.448634 -0.064450 -3.129314
C -1.540317 0.241943 -3.028107
C -1.635556 0.546942 -3.024136
C -1.755266 0.719960 -3.054955
C -1.851778 0.875470 -3.035709
C -1.909676 1.002944 -2.966712
C -1.889972 1.090021 -2.943182
C -1.945098 1.049445 -2.908865
C -2.028123 1.003931 -2.913630
C -2.234398 1.064093 -2.869744
C -2.345810 1.133767 -2.811229
C -2.529608 1.205778 -2.743936
C -2.775013 1.323254 -2.645267
C -2.859349 1.406841 -2.575514
C -2.976176 1.258837 -2.526858
C -3.111070 0.970553 -2.520323
C -3.083358 0.843596 -2.492807
C -3.137525 0.667831 -2.446988
C -3.162655 0.420628 -2.478957
C -3.145726 0.195924 -2.551620
C -3.215531 0.093923 -2.548014
C -3.261088 0.229940 -2.522171
C -3.236082 0.467322 -2.494992
