363
chr5 3D structure from Hi-C (resolution 500000bp)
C -3.818168 1.014553 -0.579250
C -3.740600 0.631212 -0.470385
C -3.720218 0.270909 -0.447704
C -3.652667 0.006494 -0.386512
C -3.622321 -0.434286 -0.362175
C -3.552501 -0.846075 -0.290479
C -3.488759 -1.248590 -0.248092
C -3.466504 -1.449608 -0.226250
C -3.473271 -1.401711 -0.129672
C -3.443493 -1.185602 -0.023541
C -3.454702 -0.981265 0.024165
C -3.489621 -0.860508 0.083737
C -3.473299 -0.695439 0.183195
C -3.402696 -0.658518 0.387120
C -3.437890 -0.643936 0.274494
C -3.478817 -0.564684 0.173580
C -3.497536 -0.676460 0.196023
C -3.536264 -0.695202 0.182305
C -3.428414 -0.564880 0.295355
C -3.444867 -0.564996 0.342355
C -3.517682 -0.622187 0.303013
C -3.419791 -0.890871 0.236508
C -3.328923 -1.244287 0.243781
C -3.258940 -1.363990 0.312625
C -3.163125 -1.570265 0.339703
C -3.188374 -1.481500 0.291131
C -3.161421 -1.451804 0.342264
C -3.066272 -1.510767 0.364582
C -3.065116 -1.424888 0.631356
C -3.064142 -1.389904 0.773173
C -3.024555 -1.347174 0.776592
C -2.992941 -1.264762 0.875566
C -2.959599 -1.723193 0.798983
C -2.882444 -1.998882 0.691901
C -2.793241 -2.077098 0.667810
C -2.676716 -2.104973 0.650396
C -2.548576 -2.244132 0.487826
C -2.428971 -2.502154 0.396321
C -2.313713 -2.730319 0.372547
C -2.185501 -2.863517 0.380963
C -2.033797 -3.036169 0.357019
C -1.942423 -3.156556 0.425763
C -1.797171 -3.273745 0.488626
C -1.672096 -3.285415 0.704935
C -1.550915 -3.330500 0.858019
C -1.577100 -3.326464 0.906713
C -1.547331 -3.196227 1.155258
C -1.609049 -3.007817 1.354855
C -1.589638 -2.867284 1.457515
C -1.632344 -2.870469 1.544817
C -1.642847 -2.817205 1.625382
C -1.692784 -2.707065 1.773992
C -1.644850 -2.645931 1.890524
C -1.636302 -2.545063 1.962798
C -1.651311 -2.541487 2.089642
C -1.673542 -2.486497 2.262318
C -1.665416 -2.313363 2.301798
C -1.786066 -2.151558 2.346870
C -1.869124 -2.021928 2.331586
C -1.961429 -1.842864 2.350577
C -2.123786 -1.512896 2.285806
C -2.198014 -1.056789 2.108050
C -2.383809 -0.698754 1.960761
C -2.582323 -0.416780 1.929094
C -2.721050 0.076133 1.809977
C -2.924348 0.539120 1.660879
C -3.020291 0.862333 1.534334
C -3.030162 0.972439 1.514325
C -2.976550 0.851982 1.596930
C -2.882311 0.881243 1.654871
C -2.831472 1.017040 1.649214
C -2.783330 1.057289 1.646737
C -2.625071 0.930452 1.718481
C -2.546927 0.729893 1.836979
C -2.528845 0.585193 1.961950
C -2.602261 0.655719 2.062055
C -2.539784 0.453434 2.139915
C -2.466716 0.252155 2.218007
C -2.405327 0.002780 2.468483
C -2.396295 -0.091392 2.648179
C -2.351149 -0.058632 2.744167
C -2.236416 -0.183634 2.848407
C -2.147237 -0.287365 2.876458
C -2.188572 0.029521 2.804083
C -2.090730 -0.029851 2.927008
C -1.927712 -0.247732 2.916573
C -1.731910 -0.493908 2.944204
C -1.458954 -0.956980 2.907466
C -1.207287 -1.280448 2.820798
C -0.812980 -1.801417 2.725366
C -0.327135 -2.642426 2.583415
C 0.014464 -3.180234 2.220943
C 0.324739 -3.649695 1.828511
C 0.543340 -4.052473 1.359468
C 0.079205 -3.184061 0.822137
C -0.369070 -2.290139 0.300842
C -0.916286 -1.251602 -0.131888
C -0.979742 -1.002574 0.161858
C -1.154275 -0.445055 0.457539
C -1.247299 -0.039924 0.837786
C -1.273996 0.366291 1.344348
C -0.710437 -0.265639 1.995816
C -0.261498 -0.737498 2.484663
C 0.149709 -1.259456 3.119491
C -0.009471 -0.819129 3.043791
C -0.046945 -0.534924 3.063550
C -0.178371 -0.099831 2.983167
C -0.377276 0.446974 2.857184
C -0.549633 0.985350 2.781709
C -0.553985 1.286989 2.784394
C -0.622955 1.620420 2.582062
C -0.657765 1.765724 2.553175
C -0.668666 1.703142 2.547674
C -0.578472 1.569574 2.597769
C -0.453784 1.398436 2.695847
C -0.315445 1.208742 2.714040
C -0.266764 1.020422 2.842898
C -0.198460 0.920044 2.939418
C -0.133890 0.961918 2.930109
C -0.044912 1.027009 2.893614
C -0.023798 1.058708 2.939663
C 0.043924 1.124564 2.818408
C 0.111251 1.032791 2.844515
C 0.178532 0.907481 2.859391
C 0.296427 0.670730 3.028522
C 0.441754 0.339460 3.135489
C 0.535282 0.384132 3.177727
C 0.579544 0.579138 3.082214
C 0.534564 0.793634 2.967384
C 0.337893 1.170450 2.765677
C 0.188472 1.542447 2.589111
C 0.050872 1.993468 2.354198
C -0.070949 2.389466 2.157131
C -0.228450 2.568046 1.998288
C -0.401888 2.664673 1.849327
C -0.659544 2.778268 1.725426
C -0.984316 2.882327 1.418656
C -0.992675 1.893828 0.957559
C -0.948994 0.831010 0.521497
C -0.930455 -0.142286 0.176573
C -1.007544 -0.157020 0.080624
C -1.000918 -0.104534 0.014615
C -0.765305 -0.282703 -0.001944
C -0.406688 -0.442136 0.131313
C -0.402158 0.574670 0.387069
C -0.522094 1.666102 0.580621
C -0.612253 2.824215 0.747620
C -0.611671 2.975020 0.658443
C -0.607286 3.079161 0.584669
C -0.750645 3.270206 0.523111
C -0.743189 3.422609 0.467905
C -0.702637 3.521439 0.449044
C -0.545491 3.588993 0.457841
C -0.400910 3.595965 0.445725
C -0.239736 3.557051 0.434227
C -0.049326 3.528454 0.476838
C 0.158774 3.448855 0.487255
C 0.327203 3.406609 0.541316
C 0.481256 3.380526 0.602144
C 0.577673 3.314598 0.674660
C 0.684855 3.201229 0.790059
C 0.857350 3.064926 1.000047
C 1.029887 2.792245 1.191907
C 1.199424 2.605237 1.394579
C 1.348096 2.248909 1.758053
C 1.519351 1.817412 2.048969
C 1.679708 1.395091 2.288111
C 1.758664 0.909384 2.398002
C 1.832667 0.517270 2.458298
C 1.895700 0.243487 2.614998
C 2.015756 0.085140 2.738942
C 2.109977 0.285745 2.553928
C 2.129004 0.099247 2.562826
C 2.186773 -0.083650 2.569102
C 2.242761 0.304178 2.612246
C 2.257918 0.674764 2.469570
C 2.239474 1.095880 2.285186
C 2.253939 1.280849 2.241710
C 2.271725 1.147899 2.303717
C 2.319459 1.485117 2.131511
C 2.329325 1.596642 2.028938
C 2.315430 1.069107 2.027752
C 2.388515 0.635885 2.202195
C 2.489884 0.240202 2.266177
C 2.500595 0.025804 2.213695
C 2.489749 -0.100086 2.156004
C 2.416418 -0.037984 2.013644
C 2.413897 0.353959 1.837497
C 2.425959 0.985681 1.556271
C 2.386737 1.455074 1.246775
C 2.241687 1.764796 0.975273
C 2.311006 1.895718 0.852664
C 2.370464 1.940630 0.790167
C 2.537856 1.711502 0.895378
C 2.725666 1.401804 0.998024
C 2.875348 0.889916 1.190660
C 2.910969 0.319361 1.340052
C 3.103003 -0.119742 1.490798
C 3.032573 -0.165228 1.414732
C 3.094763 -0.402694 1.404418
C 3.063010 -0.612024 1.347923
C 2.871842 -0.731260 1.245168
C 2.768418 -0.472553 1.029131
C 2.768446 -0.159676 0.855748
C 2.753238 -0.122337 0.790921
C 2.780208 -0.542796 0.807309
C 2.709891 -0.605892 0.762496
C 2.680310 -0.776023 0.783763
C 2.757873 -1.007966 0.827962
C 2.816581 -1.435774 0.958190
C 2.925990 -1.680313 0.997898
C 2.902727 -1.521889 0.896169
C 2.962501 -1.170109 0.830693
C 3.080675 -0.851757 0.728683
C 3.177710 -0.280874 0.512687
C 3.156900 0.295078 0.290456
C 3.175579 0.632383 0.130988
C 3.112911 0.570219 0.100946
C 3.144675 0.487608 0.088031
C 3.014907 0.642631 0.004723
C 2.828736 0.785418 -0.070619
C 2.686842 0.761034 -0.114124
C 2.572918 0.709560 -0.152830
C 2.618726 0.733587 -0.247859
C 2.514430 0.642314 -0.303265
C 2.400664 0.300411 -0.324656
C 2.386616 -0.234808 -0.304831
C 2.544552 -0.519970 -0.332298
C 2.569718 -0.615509 -0.357511
C 2.578066 -0.779285 -0.322531
C 2.406839 -0.783666 -0.314925
C 2.489628 -0.774334 -0.348479
C 2.567612 -0.781931 -0.381776
C 2.557255 -0.716895 -0.409205
C 2.502712 -0.829508 -0.402271
C 2.541003 -0.697236 -0.508507
C 2.590914 -0.894140 -0.525567
C 2.637456 -1.365586 -0.521685
C 2.641208 -1.365867 -0.566530
C 2.657831 -1.228463 -0.672842
C 2.797840 -1.249573 -0.767603
C 2.819730 -1.283476 -0.924544
C 2.766254 -1.479939 -0.906618
C 2.870557 -1.393254 -1.021022
C 2.988229 -0.983833 -1.169787
C 3.050105 -0.711125 -1.374065
C 3.057100 -0.335234 -1.492773
C 3.055123 -0.033921 -1.644319
C 3.000698 -0.036131 -1.659857
C 2.977386 -0.109310 -1.669267
C 2.886755 0.103847 -1.683370
C 2.789815 0.121927 -1.734940
C 2.702621 0.158505 -1.661904
C 2.725471 -0.040465 -1.657889
C 2.585552 -0.362034 -1.534328
C 2.519715 -0.417712 -1.500008
C 2.546604 -0.628480 -1.535774
C 2.517890 -1.139823 -1.497608
C 2.436392 -1.519172 -1.399349
C 2.419712 -1.313382 -1.445557
C 2.199228 -0.953462 -1.426900
C 2.079432 -0.342415 -1.484115
C 1.906987 0.309474 -1.538033
C 1.667215 0.998767 -1.577371
C 1.445756 1.720779 -1.681900
C 1.213010 2.580930 -1.742180
C 0.897736 2.794009 -1.743286
C 0.713509 2.814279 -1.798598
C 0.527301 2.782518 -1.922580
C 0.452977 2.501004 -1.902769
C 0.567453 2.177292 -2.013916
C 0.572836 2.032369 -2.049847
C 0.544426 1.920295 -2.181638
C 0.494175 1.904240 -2.225145
C 0.470878 1.986533 -2.192915
C 0.410508 2.136755 -2.100219
C 0.227243 2.456967 -2.169585
C 0.128197 2.723672 -2.127184
C 0.169303 2.101603 -2.102437
C 0.260770 1.287741 -2.016245
C 0.414618 0.986937 -2.109467
C 0.581204 0.742795 -2.226532
C 0.875281 0.475931 -2.375024
C 1.191772 0.308378 -2.426833
C 1.296178 0.086983 -2.420551
C 1.388518 0.420893 -2.481505
C 1.487882 0.658854 -2.502243
C 1.586285 0.251969 -2.447511
C 1.653858 -0.083113 -2.493118
C 1.571646 -0.231592 -2.380920
C 1.522914 -0.701163 -2.443452
C 1.474708 -1.013151 -2.487759
C 1.432963 -1.139060 -2.568691
C 1.384722 -1.184333 -2.628227
C 1.341932 -0.981054 -2.743861
C 1.235651 -0.756395 -2.803934
C 1.176996 -0.544785 -2.938607
C 1.082029 -0.100618 -2.939565
C 0.965465 0.255390 -3.028945
C 0.865661 0.674397 -3.024009
C 0.790043 0.937253 -3.134421
C 0.702474 0.890984 -3.050726
C 0.679264 0.463632 -2.968722
C 0.695185 -0.028360 -2.929015
C 0.729303 -0.445069 -2.893253
C 0.757486 -0.615429 -2.793845
C 0.779202 -0.829254 -2.854864
C 0.732015 -1.046731 -2.837647
C 0.658011 -1.139446 -2.914922
C 0.552648 -0.896837 -3.035497
C 0.527889 -0.712858 -3.071947
C 0.494629 -0.481222 -3.143294
C 0.433909 -0.343591 -3.191865
C 0.312466 -0.344410 -3.206384
C 0.289107 -0.039234 -3.200614
C 0.245016 0.280574 -3.233541
C 0.156618 0.385763 -3.219481
C 0.090663 0.498100 -3.169856
C 0.026555 0.289530 -3.134209
C -0.161783 -0.100093 -3.182117
C -0.200645 -0.426347 -3.057773
C -0.349499 -0.914827 -3.019401
C -0.394933 -1.374062 -2.949732
C -0.384603 -1.601655 -2.896044
C -0.344686 -1.907072 -2.918345
C -0.371150 -2.203513 -2.847870
C -0.191684 -2.378727 -2.759078
C -0.107817 -2.329196 -2.768991
C 0.010899 -2.319151 -2.762640
C 0.068711 -2.360602 -2.748575
C -0.002637 -2.372046 -2.725688
C -0.135481 -2.513196 -2.735168
C -0.198908 -2.269362 -2.844683
C -0.262340 -1.845578 -2.899857
C -0.369341 -1.520647 -3.020128
C -0.463166 -1.197364 -3.013825
C -0.526683 -0.718935 -3.029720
C -0.480379 -0.400864 -3.025740
C -0.534079 -0.041271 -3.075301
C -0.675089 0.257625 -3.116202
C -0.798886 0.399539 -3.150318
C -0.871610 0.605556 -3.048328
C -0.940256 0.857955 -3.031299
C -1.055553 0.955098 -3.033687
C -1.145722 1.179047 -2.967724
C -1.201320 1.262711 -2.957470
C -1.206387 1.156368 -2.917127
C -1.282363 1.057729 -2.882508
C -1.408023 0.910156 -2.939351
C -1.596344 0.950119 -2.966935
C -1.688355 1.014910 -2.952043
C -1.814998 1.080335 -2.985310
C -2.094719 1.148980 -2.945148
C -2.176661 1.249976 -2.891120
C -2.270266 1.199324 -2.894947
C -2.404580 1.059588 -2.872493
C -2.399740 0.938220 -2.861670
C -2.476698 0.718592 -2.866414
C -2.495568 0.580987 -2.870342
C -2.465262 0.682878 -2.821146
C -2.530998 0.661700 -2.825071
C -2.588860 0.804308 -2.794543
C -2.542127 1.083084 -2.739039
