342
chr6 3D structure from Hi-C (resolution 500000bp)
C 0.034517 2.264765 -3.115145
C 0.044576 2.126343 -3.149174
C 0.081814 2.150458 -3.132048
C 0.156668 2.157609 -3.115441
C 0.194037 1.960626 -3.167503
C 0.241626 1.830994 -3.140191
C 0.263503 1.852375 -3.037507
C 0.285276 1.799769 -2.999030
C 0.300346 1.803742 -2.921078
C 0.349543 1.707448 -2.920611
C 0.306535 1.682227 -2.853715
C 0.328133 1.694253 -2.766300
C 0.374885 1.628456 -2.756580
C 0.421536 1.413881 -2.742098
C 0.496809 1.009812 -2.773519
C 0.580936 0.664345 -2.830708
C 0.585131 0.341272 -2.826714
C 0.658170 -0.001069 -2.869099
C 0.705252 -0.159339 -2.839565
C 0.715045 -0.067785 -2.743946
C 0.732478 0.331814 -2.685699
C 0.703696 0.837357 -2.585875
C 0.743365 1.145631 -2.555091
C 0.778691 1.523010 -2.430474
C 0.816263 1.887283 -2.349443
C 0.871165 2.089892 -2.336007
C 0.974513 2.141203 -2.390702
C 0.995180 2.125824 -2.328007
C 1.146841 2.024073 -2.360289
C 1.193160 2.084794 -2.225387
C 1.252835 1.959954 -2.246295
C 1.238793 1.645592 -2.303420
C 1.283056 1.354401 -2.346496
C 1.254553 1.115666 -2.299923
C 1.316689 0.562642 -2.387960
C 1.292245 0.086271 -2.420276
C 1.266559 -0.335622 -2.503547
C 1.303150 -0.458849 -2.493395
C 1.401278 -0.333341 -2.485256
C 1.491078 -0.258032 -2.462563
C 1.601853 -0.254186 -2.502937
C 1.711424 0.001270 -2.531230
C 1.771045 0.135292 -2.547113
C 1.818051 0.161139 -2.581346
C 1.823983 0.013699 -2.639227
C 1.840393 -0.107268 -2.586548
C 1.766529 0.015117 -2.461432
C 1.676557 0.291565 -2.303084
C 1.637966 0.439627 -2.198755
C 1.555431 0.999068 -2.067162
C 1.663083 1.621761 -2.039218
C 1.738999 2.115279 -1.976917
C 1.801759 2.510417 -1.928523
C 1.911712 2.619049 -1.982621
C 1.433496 2.274602 -2.596876
C 0.794073 1.945296 -3.127739
C 0.920838 2.031183 -2.228610
C 0.901894 2.088127 -1.185117
C 0.461854 1.286377 -1.645448
C 0.740627 1.229274 -0.773587
C 0.089853 0.529730 -1.256849
C 0.009459 0.246906 -1.175680
C 0.400479 1.156918 0.008986
C 0.171610 1.426555 -0.372633
C 0.094900 1.490884 -1.140590
C 0.400030 2.499550 -0.515680
C 0.014069 2.695854 -1.228508
C 0.543233 3.614111 -0.604165
C 1.105371 4.463022 0.011618
C 1.314035 4.172634 -0.458473
C 1.418115 3.879449 -0.807305
C 1.429776 3.801025 -0.767334
C 1.471154 3.708883 -0.679922
C 1.525560 3.599559 -0.619376
C 1.654846 3.393877 -0.602209
C 1.807979 3.180498 -0.604324
C 1.958432 2.925398 -0.649552
C 2.146474 2.626978 -0.695764
C 2.280217 2.361022 -0.836556
C 2.363499 2.204340 -0.891266
C 2.444922 2.166527 -0.929690
C 2.431799 2.235672 -0.864538
C 2.423271 2.378291 -0.758317
C 2.379613 2.560225 -0.709841
C 2.371776 2.688664 -0.651174
C 2.362777 2.741015 -0.531577
C 2.496082 2.556812 -0.525466
C 2.590261 2.286028 -0.547217
C 2.655584 2.004427 -0.642068
C 2.661720 1.625633 -0.743500
C 2.705582 1.154591 -0.846895
C 2.723707 0.783498 -0.877884
C 2.741330 0.446048 -0.928727
C 2.685235 0.101862 -1.015056
C 2.686060 -0.216070 -1.074233
C 2.729684 -0.516870 -1.074400
C 2.735529 -0.733145 -1.100060
C 2.737840 -0.922430 -1.085301
C 2.791681 -1.101752 -1.131503
C 2.810052 -1.228303 -1.187070
C 2.783114 -1.138168 -1.140488
C 2.700799 -0.880948 -1.068950
C 2.650738 -0.693934 -1.082392
C 2.593559 -0.484069 -1.030651
C 2.573513 -0.349074 -1.000383
C 2.468704 -0.378969 -1.038238
C 2.402967 -0.446650 -1.030184
C 2.390781 -0.619956 -1.044985
C 2.362485 -0.938630 -1.112994
C 2.287875 -1.149941 -1.071444
C 2.284847 -1.139521 -0.974897
C 2.294454 -0.978445 -0.838502
C 2.503264 -0.981159 -0.667904
C 2.475161 -1.214638 -0.720703
C 2.076051 -1.546234 -1.210816
C 1.609322 -1.908711 -1.670554
C 1.176821 -2.405364 -2.128515
C 1.096090 -3.131309 -2.342955
C 0.982002 -3.755023 -2.437849
C 0.647571 -4.129992 -2.539550
C 0.516725 -4.098423 -2.390751
C 0.782681 -3.872877 -1.788997
C 1.123518 -3.644622 -1.187833
C 1.497103 -3.150917 -0.624338
C 1.609709 -2.606231 -0.327081
C 1.564796 -2.408873 -0.246959
C 1.538192 -2.224415 -0.138154
C 1.601812 -2.201405 -0.054002
C 1.664346 -2.302304 0.005253
C 1.705597 -2.313933 0.059026
C 1.735559 -2.533776 0.104255
C 1.712714 -2.817779 0.127330
C 1.801942 -2.852760 0.217238
C 2.001271 -2.747218 0.328829
C 1.947747 -2.711835 0.396359
C 1.929157 -2.533504 0.458932
C 1.926624 -2.186944 0.529041
C 1.894808 -1.870918 0.560296
C 1.846450 -1.545979 0.589094
C 1.775409 -1.416173 0.578591
C 1.582509 -1.420967 0.551298
C 1.717874 -1.262068 0.644752
C 1.683735 -0.936678 0.714605
C 1.676058 -0.854744 0.755244
C 1.723693 -0.775763 0.841037
C 1.796460 -0.917254 0.920766
C 1.873882 -0.875947 1.027080
C 1.965361 -0.653979 1.156937
C 1.842025 -0.511515 1.118991
C 1.851410 -0.897326 1.174479
C 1.824079 -1.296205 1.224695
C 1.764387 -1.604786 1.258919
C 1.690199 -1.678818 1.318881
C 1.596659 -1.907189 1.323846
C 1.574583 -2.093606 1.346804
C 1.673933 -2.081478 1.503592
C 1.660371 -1.964892 1.490618
C 1.665128 -1.759034 1.511563
C 1.678517 -1.826384 1.573289
C 1.681634 -1.917642 1.589254
C 1.716482 -1.686201 1.726172
C 1.713866 -1.547711 1.807246
C 1.639884 -1.659283 1.788622
C 1.650353 -1.415413 1.877720
C 1.646691 -1.330327 1.914185
C 1.615608 -1.054367 1.953965
C 1.569218 -0.819001 1.954687
C 1.545616 -0.728194 1.937669
C 1.454846 -0.674081 1.890801
C 1.386130 -0.767084 1.912207
C 1.343946 -0.981199 1.957111
C 1.301722 -0.818684 1.962888
C 1.294573 -0.503032 1.954689
C 1.296389 -0.183560 2.005807
C 1.286912 0.151846 2.031714
C 1.287971 0.425167 2.020470
C 1.279988 0.834699 1.987890
C 1.206307 1.101879 1.889452
C 1.138421 0.965930 1.950137
C 1.022831 0.651467 2.017142
C 0.878150 0.312985 2.034334
C 0.751918 -0.163983 2.078567
C 0.658677 -0.624525 2.209467
C 0.559492 -0.993361 2.350326
C 0.452846 -1.367266 2.471856
C 0.360211 -1.663447 2.476539
C 0.245115 -1.893061 2.423812
C 0.168315 -2.050135 2.451826
C 0.092543 -2.071363 2.351441
C 0.013766 -2.082082 2.287612
C -0.016931 -1.975214 2.131053
C -0.050252 -1.843676 2.031362
C -0.088154 -1.844712 1.913030
C -0.131117 -1.880008 1.737329
C -0.182701 -1.807200 1.508285
C -0.214356 -1.688203 1.387893
C -0.248140 -1.657008 1.305997
C -0.338691 -1.831035 1.303171
C -0.307871 -1.689825 1.375593
C -0.338935 -1.723765 1.350946
C -0.401129 -1.700021 1.397294
C -0.482450 -1.839729 1.488400
C -0.562037 -2.070860 1.596082
C -0.641576 -2.236202 1.568983
C -0.695366 -2.342133 1.521213
C -0.807945 -2.651408 1.361706
C -0.800329 -2.355308 1.373015
C -0.697860 -1.958588 1.401568
C -0.567727 -1.390181 1.446725
C -0.459094 -0.747113 1.439863
C -0.321917 -0.090028 1.427471
C -0.204613 0.544726 1.379400
C -0.053494 1.159916 1.384526
C 0.012818 1.531483 1.344634
C 0.015688 1.806314 1.309010
C 0.024641 1.883446 1.226909
C 0.031825 1.837182 1.183256
C 0.016410 1.777629 1.163149
C -0.006334 1.786509 1.199636
C -0.070012 1.762508 1.205174
C -0.131135 1.658386 1.287473
C -0.170135 1.352414 1.414350
C -0.275242 0.984567 1.611688
C -0.346631 0.814694 1.790654
C -0.397220 0.720695 1.938011
C -0.510711 0.328448 2.158856
C -0.618675 -0.018153 2.408493
C -0.742464 -0.359843 2.610480
C -0.819845 -0.457312 2.691672
C -0.812157 -0.248244 2.581603
C -0.885607 -0.291027 2.588196
C -0.992134 -0.552046 2.610189
C -1.022486 -0.445788 2.536053
C -1.105254 -0.431659 2.483129
C -1.067064 -0.194056 2.378918
C -1.093024 -0.048126 2.362915
C -1.220768 -0.223778 2.463723
C -1.330238 -0.491461 2.465505
C -1.463340 -0.522658 2.503016
C -1.558988 -0.635155 2.492126
C -1.613541 -0.773426 2.439762
C -1.750587 -1.033907 2.433063
C -1.874255 -1.299542 2.331417
C -1.985117 -1.499545 2.164986
C -2.029092 -1.460532 1.992204
C -2.037267 -1.557775 1.797469
C -2.060041 -1.704478 1.610039
C -2.049425 -1.632293 1.464940
C -2.004410 -1.483812 1.271955
C -1.936235 -1.395431 1.130158
C -1.918712 -1.414646 1.100396
C -1.892196 -1.378925 1.012738
C -2.019552 -1.563255 0.954236
C -2.085406 -1.883829 0.287502
C -2.165224 -1.895972 0.324720
C -2.228040 -2.112481 0.290100
C -2.194481 -1.836631 0.424025
C -2.165340 -1.442552 0.550522
C -2.162430 -1.184894 0.564656
C -2.035931 -0.718007 0.631823
C -1.978766 -0.121982 1.396226
C -1.950609 0.068163 1.402262
C -1.924196 0.375359 1.509319
C -2.106862 0.158914 1.496021
C -2.076963 -0.083255 1.180143
C -2.038107 0.070831 1.236130
C -1.985092 0.245220 1.316105
C -1.895660 0.560381 1.248731
C -1.839495 0.722542 1.258687
C -1.788997 0.824963 1.193280
C -1.621423 1.151833 1.083511
C -1.577153 1.638985 1.176049
C -1.570368 1.774634 1.097334
C -1.534256 1.775084 0.887483
C -1.589649 1.734340 0.881758
C -1.621856 1.781805 0.894133
C -1.763361 1.761146 1.008991
C -1.950001 1.589240 1.168188
C -2.163947 1.312508 1.325696
C -2.349868 0.956513 1.481445
C -2.574354 0.666177 1.628521
C -2.684224 0.319969 1.635145
C -2.739865 0.233870 1.593905
C -2.727166 0.230173 1.529444
C -2.643980 0.282568 1.356912
C -2.523150 0.444046 1.196664
C -2.432834 0.572394 1.014782
C -2.395260 0.671630 0.931108
C -2.340403 0.767670 0.842071
C -2.360404 0.450762 0.717429
C -2.447521 0.141985 0.658152
C -2.456639 -0.122075 0.565463
C -2.535862 -0.541421 0.485048
C -2.578951 -0.742402 0.399345
C -2.562483 -0.568395 0.317913
C -2.527591 -0.245769 0.283953
C -2.410910 0.247960 0.234620
C -2.313807 0.656904 0.070438
C -2.290689 1.048435 0.051003
C -2.213853 1.389763 0.008812
C -2.205333 1.446135 -0.044265
C -2.230757 1.292989 -0.032147
C -2.369353 0.877615 -0.022931
C -2.557112 0.480308 0.006264
C -2.661905 0.099655 0.062459
C -2.724489 -0.126240 0.029963
C -2.801449 -0.124413 0.028784
C -2.806214 0.080135 0.041272
C -2.843157 0.188196 -0.030708
C -2.849676 0.400758 -0.067782
C -2.732808 0.772233 -0.133503
C -2.635096 1.210624 -0.190287
C -2.586437 1.467015 -0.243202
C -2.495173 1.668039 -0.274706
C -2.463931 1.867739 -0.325081
C -2.379793 1.975626 -0.394544
C -2.332284 2.052079 -0.505695
C -2.429676 1.828015 -0.605391
C -2.568904 1.604187 -0.649354
C -2.709163 1.323197 -0.633799
C -2.885095 0.850243 -0.673842
C -3.040151 0.294553 -0.661201
C -3.179424 -0.079877 -0.643041
C -3.250557 -0.353907 -0.623516
C -3.280277 -0.461015 -0.595351
C -3.270319 -0.723842 -0.625842
C -3.314714 -1.010143 -0.630900
C -3.315725 -1.151956 -0.627973
C -3.312526 -1.094423 -0.616307
C -3.176678 -0.856929 -0.694851
C -3.102754 -0.616594 -0.771796
C -3.009072 -0.380534 -0.846678
C -2.981324 -0.120834 -0.943172
C -2.957731 0.006402 -1.070309
C -3.008220 0.005767 -1.183268
C -2.977223 -0.121215 -1.313409
C -3.074108 -0.313776 -1.418630
C -3.246988 -0.575779 -1.570448
C -3.481635 -0.659074 -1.769438
C -3.547972 -0.833736 -1.815306
C -3.598655 -0.816696 -1.893412
C -3.598416 -0.574255 -1.994880
