342
chr6 3D structure from Hi-C (resolution 500000bp)
C -1.034770 -1.835413 3.548989
C -0.976648 -1.860466 3.473097
C -0.995121 -1.805136 3.486873
C -1.042088 -1.710509 3.497626
C -1.035891 -1.888708 3.262616
C -1.095468 -1.972447 3.136839
C -1.159065 -1.916097 3.120464
C -1.252919 -1.864769 3.083699
C -1.274690 -1.868428 3.021043
C -1.263413 -1.994163 2.895691
C -1.222779 -1.999938 2.831432
C -1.211386 -1.881288 2.824041
C -1.160051 -1.869221 2.714504
C -1.108060 -1.960883 2.450418
C -1.042629 -2.239556 2.077765
C -1.039578 -2.455734 1.714278
C -1.031564 -2.581692 1.384985
C -1.034237 -2.837233 1.019283
C -1.040287 -2.891276 0.877565
C -1.136498 -2.748199 0.930860
C -1.307484 -2.560742 1.236452
C -1.416777 -2.336504 1.573773
C -1.549666 -2.132479 1.862498
C -1.652242 -1.863786 2.165958
C -1.774250 -1.563470 2.522807
C -1.890079 -1.508832 2.666812
C -1.909508 -1.476703 2.776497
C -1.870148 -1.370469 2.776000
C -1.892773 -1.223425 2.809301
C -1.900001 -1.085242 2.803817
C -1.960335 -1.112207 2.686915
C -1.927566 -1.344253 2.353543
C -1.923229 -1.418207 2.104690
C -1.847723 -1.558431 1.792912
C -1.763333 -1.891025 1.286325
C -1.659359 -2.266670 0.782984
C -1.669464 -2.562137 0.395282
C -1.631487 -2.614139 0.272451
C -1.742998 -2.565540 0.369605
C -1.799785 -2.621224 0.406449
C -1.908656 -2.692634 0.415583
C -2.120442 -2.656593 0.581882
C -2.288504 -2.528837 0.730423
C -2.283500 -2.544246 0.770156
C -2.254981 -2.709530 0.613921
C -2.176757 -2.748995 0.463528
C -2.147587 -2.502447 0.531567
C -2.185689 -2.210678 0.715720
C -2.149094 -1.961311 0.912835
C -2.134972 -1.600003 1.358822
C -2.477050 -1.252106 1.867446
C -2.738200 -0.973203 2.215952
C -2.934279 -0.789621 2.576342
C -3.065805 -0.858988 2.696840
C -2.615457 -1.664008 2.679856
C -1.996834 -2.441184 2.630641
C -1.483237 -3.258729 2.539815
C -0.562553 -4.070715 2.113774
C 0.250002 -4.831902 1.789866
C 0.484633 -3.734931 1.637951
C 0.598629 -2.630517 1.407408
C 0.084857 -0.826866 1.254098
C -0.596541 0.575829 1.594473
C -1.060148 2.026133 1.848391
C -1.717263 3.101064 2.381799
C -2.397682 4.174254 2.956597
C -2.537519 3.396855 3.219449
C -2.629585 2.575813 3.607189
C -2.537513 1.857291 3.988621
C -2.511195 1.530585 3.813807
C -2.626339 1.101934 3.589464
C -2.659622 1.122435 3.475526
C -2.700125 1.126743 3.335769
C -2.692731 1.114485 3.166119
C -2.710295 1.082252 2.928403
C -2.838291 0.920822 2.690929
C -2.899699 0.774353 2.498736
C -2.929784 0.557724 2.239048
C -3.038882 0.378084 1.967551
C -3.039172 0.298038 1.855034
C -3.146673 0.210080 1.837723
C -3.147745 0.248712 1.916395
C -3.199489 0.398887 2.012049
C -3.212782 0.554429 2.116425
C -3.226338 0.708326 2.222307
C -3.223738 0.786673 2.229225
C -3.301000 0.689244 2.002032
C -3.327784 0.563460 1.726302
C -3.342429 0.359233 1.437047
C -3.227178 0.064083 1.093492
C -3.165819 -0.270490 0.691023
C -3.101082 -0.534837 0.357749
C -3.000870 -0.800729 0.086031
C -2.854113 -1.121790 -0.229875
C -2.666222 -1.400151 -0.522446
C -2.567271 -1.610547 -0.825502
C -2.514000 -1.760155 -1.012404
C -2.504046 -1.874853 -1.171576
C -2.487402 -2.020430 -1.342825
C -2.511461 -2.039216 -1.462197
C -2.605935 -1.863952 -1.341789
C -2.678783 -1.581085 -1.098858
C -2.738366 -1.377956 -0.898201
C -2.765641 -1.130261 -0.700431
C -2.738335 -0.996927 -0.591097
C -2.707660 -0.902603 -0.600494
C -2.710227 -0.850356 -0.658628
C -2.618257 -0.943348 -0.823426
C -2.581689 -1.067372 -1.100634
C -2.504300 -1.107074 -1.270633
C -2.495975 -1.060777 -1.301040
C -2.535871 -0.870431 -1.225649
C -2.717086 -0.823327 -1.315687
C -2.738082 -0.905802 -1.509580
C -3.093834 0.049597 -1.435165
C -2.578356 -0.688135 -1.440543
C -2.083875 -1.476608 -1.561030
C -1.837690 -2.044237 -2.097136
C -1.604580 -2.447501 -2.562407
C -1.167434 -2.736674 -2.790335
C -0.821971 -2.780907 -2.759278
C -0.247233 -3.712594 -2.919825
C -0.521920 -3.044110 -3.016615
C -0.869713 -2.260504 -2.974499
C -1.034127 -1.735552 -2.652002
C -1.041114 -1.530995 -2.519911
C -1.094196 -1.291294 -2.421547
C -1.136756 -1.196042 -2.444105
C -1.197654 -1.188391 -2.617963
C -1.213551 -1.101234 -2.746929
C -1.223782 -1.087848 -2.938221
C -1.055708 -1.210000 -3.243652
C -0.973303 -1.226298 -3.392989
C -1.137985 -1.054381 -3.434919
C -1.125417 -0.980369 -3.403631
C -1.018468 -0.897186 -3.269770
C -1.078411 -0.677927 -2.922936
C -1.114456 -0.506225 -2.692805
C -1.199326 -0.342738 -2.364618
C -1.259431 -0.229694 -2.169720
C -1.018680 -0.321367 -2.090764
C -1.094979 -0.177672 -2.074251
C -1.274824 0.175996 -1.796496
C -1.325478 0.290758 -1.763139
C -1.350984 0.415337 -1.684327
C -1.442720 0.501843 -1.882940
C -1.542287 0.658294 -1.917643
C -1.695881 0.866884 -1.769640
C -1.689874 0.978943 -1.548848
C -1.588069 0.778213 -1.913952
C -1.533891 0.636895 -2.288977
C -1.423954 0.534207 -2.623387
C -1.314277 0.540144 -2.743365
C -1.218316 0.543274 -2.921584
C -1.151687 0.595224 -3.070240
C -1.253708 0.721369 -3.163645
C -1.231007 0.800485 -3.030061
C -1.162415 0.871395 -2.870385
C -1.096989 0.817855 -2.926154
C -1.033528 0.736493 -2.978927
C -1.038845 0.774283 -2.872458
C -1.089483 0.829552 -2.766839
C -0.956257 0.774291 -2.846895
C -1.018942 0.934528 -2.685533
C -1.083442 1.064069 -2.655861
C -1.166419 1.279363 -2.403604
C -1.214587 1.474024 -2.232781
C -1.195253 1.542763 -2.098526
C -1.097532 1.551728 -2.035758
C -0.919913 1.338582 -2.158504
C -0.761097 1.195649 -2.361522
C -0.762130 1.263133 -2.150872
C -0.818695 1.387061 -1.860841
C -0.873453 1.561509 -1.551895
C -0.956388 1.773608 -1.276155
C -1.040815 1.863821 -1.014858
C -1.199244 2.145693 -0.566081
C -1.253582 2.306496 -0.262892
C -1.101425 2.285455 -0.423563
C -0.888118 2.222941 -0.745220
C -0.651585 2.082450 -1.018625
C -0.393171 1.922595 -1.430287
C -0.117117 1.783988 -1.925729
C 0.121856 1.656723 -2.353244
C 0.336625 1.515478 -2.712776
C 0.502848 1.407081 -2.923002
C 0.640986 1.303778 -3.057007
C 0.705373 1.301962 -3.146888
C 0.750684 1.268761 -3.088852
C 0.750900 1.347071 -3.002566
C 0.674581 1.484139 -2.762420
C 0.644104 1.537793 -2.589670
C 0.658061 1.581321 -2.526860
C 0.718905 1.453415 -2.503924
C 0.770677 1.198632 -2.366233
C 0.787418 1.060807 -2.225414
C 0.831794 0.868098 -2.167031
C 0.980899 0.587442 -2.302600
C 0.965816 0.671036 -2.219575
C 1.029774 0.476479 -2.236229
C 1.104891 0.449384 -2.240349
C 1.204432 0.486434 -2.404482
C 1.371194 0.476538 -2.617010
C 1.508099 0.409078 -2.741022
C 1.601455 0.387480 -2.812592
C 1.767644 0.158626 -2.998295
C 1.640038 0.351828 -2.760962
C 1.408598 0.609971 -2.382102
C 1.138501 0.918745 -1.839361
C 0.858165 1.197023 -1.277334
C 0.578185 1.495983 -0.631555
C 0.268004 1.777622 -0.032540
C -0.034879 2.044120 0.547039
C -0.183745 2.161342 0.936559
C -0.254038 2.233721 1.209663
C -0.268671 2.213052 1.298471
C -0.278237 2.151528 1.270207
C -0.282980 2.162588 1.185715
C -0.255585 2.174488 1.152963
C -0.193492 2.127927 1.096141
C -0.080145 2.146239 0.946615
C 0.115347 1.999895 0.599559
C 0.349922 2.005342 0.157836
C 0.487516 2.073210 -0.073525
C 0.595492 2.119703 -0.213000
C 0.865975 2.103537 -0.644607
C 1.107023 2.179747 -1.021931
C 1.304493 2.250466 -1.345626
C 1.378689 2.355416 -1.444102
C 1.299333 2.349270 -1.144299
C 1.394470 2.317448 -1.117896
C 1.613788 2.210084 -1.341992
C 1.620857 2.273644 -1.182057
C 1.678888 2.221713 -1.140113
C 1.607115 2.160746 -0.892723
C 1.597027 2.177977 -0.721158
C 1.797843 2.210537 -0.917266
C 1.966471 2.157875 -1.094295
C 2.043217 2.115558 -1.148308
C 2.160968 2.028925 -1.226919
C 2.237634 1.903518 -1.301951
C 2.427666 1.719397 -1.499579
C 2.580304 1.458916 -1.682042
C 2.718332 1.236161 -1.791755
C 2.759204 1.011177 -1.739955
C 2.825302 0.867636 -1.702702
C 2.848407 0.592168 -1.762560
C 2.848406 0.484872 -1.671344
C 2.760686 0.469558 -1.490716
C 2.697911 0.505098 -1.323529
C 2.682474 0.348541 -1.321639
C 2.643905 0.375774 -1.218596
C 2.782816 0.167616 -1.321560
C 2.803058 -0.628156 -1.348242
C 2.807772 -0.773366 -1.378013
C 2.891532 -0.960055 -1.543392
C 2.823519 -0.786263 -1.387068
C 2.592168 -0.491616 -0.984389
C 2.468543 -0.311427 -0.751436
C 2.168858 0.138051 -0.375729
C 2.110264 1.003249 -0.189914
C 2.019697 1.184232 0.012736
C 1.945838 1.345440 0.247495
C 2.060576 0.939395 0.049937
C 2.205319 0.667005 -0.135621
C 2.173450 0.568262 -0.066018
C 2.120236 0.520477 0.097057
C 1.944218 0.796750 0.454148
C 1.902379 1.018732 0.632433
C 1.846666 1.075533 0.749282
C 1.660457 1.408770 1.110878
C 1.482838 1.690410 1.512370
C 1.416282 1.767388 1.682425
C 1.406020 1.698221 1.744021
C 1.453725 1.655759 1.729634
C 1.497741 1.647184 1.782397
C 1.682516 1.730114 1.706185
C 1.967455 1.794255 1.522219
C 2.253749 1.826942 1.203142
C 2.589345 1.841700 0.819911
C 2.887722 1.817980 0.454227
C 3.139999 1.702115 0.178231
C 3.204891 1.631399 0.071429
C 3.152027 1.610690 0.127058
C 3.023963 1.518607 0.240796
C 2.857410 1.392454 0.471241
C 2.709330 1.294256 0.638160
C 2.651455 1.278865 0.806419
C 2.561839 1.264513 0.898019
C 2.700861 1.099091 0.711104
C 2.820723 0.913024 0.555218
C 2.886714 0.727550 0.419218
C 3.063593 0.541241 0.183855
C 3.131277 0.394476 0.128676
C 2.981887 0.407227 0.368083
C 2.806087 0.503882 0.716307
C 2.503629 0.600063 1.159544
C 2.291505 0.596921 1.534510
C 2.154762 0.704883 1.847241
C 1.960538 0.705644 2.057284
C 1.978302 0.641113 2.078832
C 2.050496 0.461578 1.898601
C 2.306918 0.190595 1.499611
C 2.618915 0.034969 1.133034
C 2.823792 -0.099299 0.789768
C 2.996023 -0.170810 0.605016
C 3.092875 -0.104555 0.657665
C 3.004737 -0.013271 0.860325
C 3.100786 0.033522 0.984270
C 3.039531 0.067353 1.205990
C 2.781211 0.160543 1.560457
C 2.574897 0.303599 1.960433
C 2.410457 0.338871 2.245696
C 2.245481 0.381846 2.427450
C 2.121313 0.445251 2.614017
C 1.940006 0.419697 2.736530
C 1.816886 0.429375 2.847805
C 1.962941 0.287268 2.734537
C 2.129059 0.144119 2.533713
C 2.283383 -0.019630 2.300805
C 2.575015 -0.304392 1.841784
C 2.883538 -0.608380 1.362192
C 3.147599 -0.731912 1.023326
C 3.349931 -0.877014 0.769478
C 3.395127 -0.947406 0.680183
C 3.455551 -1.089162 0.483946
C 3.604468 -1.221630 0.256938
C 3.655842 -1.262342 0.204174
C 3.614214 -1.232881 0.258477
C 3.439576 -1.239164 0.468290
C 3.277549 -1.220046 0.686173
C 3.167673 -1.205024 0.879730
C 3.045142 -1.169706 1.151277
C 2.926996 -1.233110 1.313613
C 2.928935 -1.400452 1.500051
C 2.892918 -1.566977 1.425901
C 3.024015 -1.692481 1.465913
C 3.230518 -1.903457 1.449252
C 3.415571 -2.156616 1.557253
C 3.542821 -2.295715 1.489923
C 3.622459 -2.360500 1.573422
C 3.564646 -2.285727 1.736540
