214
chr14 3D structure from Hi-C (resolution 500000bp)
C -1.701191 0.819080 -4.516122
C -1.535335 1.154134 -4.480592
C -1.286044 1.399880 -4.462660
C -0.979293 1.565366 -4.447074
C -0.454614 1.921114 -4.407584
C 0.141535 2.147023 -4.358533
C 0.701663 2.178799 -4.334438
C 0.939203 1.865779 -4.411589
C 0.986498 1.446227 -4.486425
C 0.265456 1.040596 -3.993871
C -0.593041 0.710239 -3.492740
C -1.541288 0.475884 -3.090722
C -2.523048 0.284476 -2.805872
C -3.437868 0.087215 -2.591892
C -3.964562 -0.001584 -2.392459
C -4.283239 -0.137210 -2.252083
C -3.849547 -0.361691 -2.715476
C -3.298962 -0.679212 -3.222727
C -2.664362 -1.062387 -3.670920
C -1.944386 -1.410499 -4.016660
C -1.159120 -1.670342 -4.253458
C -0.373964 -1.779682 -4.378307
C 0.391216 -1.710791 -4.450692
C 1.046509 -1.487344 -4.494256
C 1.500223 -1.170402 -4.538828
C 1.703752 -0.783277 -4.580589
C 1.623510 -0.353616 -4.608865
C 1.062958 0.174953 -4.521691
C 0.316299 0.605602 -4.415823
C -0.551308 0.828569 -4.291789
C -1.482807 0.662836 -4.043318
C -2.351691 0.353997 -3.677174
C -3.134241 -0.016235 -3.202636
C -3.805913 -0.359761 -2.702615
C -4.011775 -0.314844 -2.452925
C -4.084314 -0.142905 -2.263053
C -3.967063 0.196400 -1.951268
C -3.624460 0.682578 -1.592842
C -3.301280 1.201279 -1.256626
C -3.020188 1.574286 -0.883042
C -2.499441 1.920719 -0.621431
C -2.197059 1.722711 -0.246405
C -2.034263 1.366443 0.240351
C -2.117350 1.006962 0.564563
C -2.341397 0.865642 0.719184
C -2.540090 0.817017 0.832855
C -2.468664 1.024533 0.722862
C -2.429478 1.228488 0.603490
C -2.332442 1.604635 0.390730
C -2.015820 2.061978 0.104532
C -1.638698 2.511191 -0.263964
C -1.230254 2.847941 -0.602178
C -0.749377 3.162824 -0.997793
C -0.480942 3.289421 -1.152630
C -0.508410 3.417902 -1.174458
C -0.503685 3.441599 -1.059520
C -0.643971 3.474195 -0.897214
C -0.785151 3.442399 -0.590556
C -1.045376 3.231237 -0.153069
C -1.395574 2.995951 0.338939
C -1.495910 2.826059 0.596427
C -1.640135 2.688524 0.825491
C -1.623794 2.557986 1.017400
C -1.671199 2.457447 1.208867
C -1.673096 2.345858 1.337496
C -1.597060 2.371471 1.310959
C -1.564273 2.242794 1.327695
C -1.695781 2.117128 1.490197
C -1.742900 2.062232 1.640505
C -1.714333 2.131697 1.695787
C -1.523862 2.083625 1.621957
C -1.276799 2.118369 1.447431
C -1.004348 2.365876 1.261198
C -0.657172 2.715702 1.107494
C -0.335206 2.982041 0.925874
C -0.015655 2.961321 0.821659
C 0.248056 2.877815 0.686544
C 0.443021 3.024198 0.628904
C 0.544886 3.045858 0.668553
C 0.685805 2.951918 0.642535
C 0.884771 2.917537 0.552189
C 0.925408 2.972361 0.595953
C 1.176089 3.200107 0.269549
C 1.296522 3.342874 0.026397
C 1.396349 3.302504 -0.124480
C 1.572600 3.312253 -0.225226
C 1.600080 3.318636 -0.142948
C 1.484857 3.258745 0.116815
C 1.558744 3.135865 0.146430
C 1.547057 3.028080 0.507038
C 1.685172 2.947447 0.813156
C 1.681311 2.799374 1.055933
C 1.664740 2.655648 1.246342
C 1.800797 2.567332 1.373233
C 2.008481 2.497942 1.294197
C 1.986421 2.449539 1.400904
C 1.620927 2.225711 1.639515
C 1.054255 1.814168 1.938633
C 0.650554 1.603206 2.211142
C 0.326996 1.382150 2.368298
C -0.080388 1.080117 2.535336
C -0.369415 0.918367 2.802621
C -0.533696 0.759266 2.954018
C -0.344854 0.625055 2.768043
C -0.116641 0.721246 2.846505
C 0.093410 0.718002 2.829757
C 0.062472 0.610321 3.008809
C 0.076429 0.499837 3.015931
C 0.120327 0.311909 2.959235
C 0.287771 0.221373 2.813335
C 0.471297 0.323497 2.841586
C 0.644061 0.384103 2.738491
C 0.789352 0.464795 2.738224
C 1.089763 0.559601 2.731276
C 1.329685 0.562465 2.835080
C 1.368674 0.512852 2.774721
C 1.426887 0.520449 2.783302
C 1.522913 0.288297 2.939288
C 1.586797 0.128259 2.992662
C 1.578540 -0.119292 2.948103
C 1.464964 -0.302560 2.877863
C 1.595916 -0.259807 2.779385
C 1.892072 -0.095859 2.749901
C 1.986208 -0.133153 2.766455
C 1.660700 -0.382469 2.780554
C 1.277164 -0.613153 2.787116
C 1.057183 -0.773125 2.790152
C 0.833926 -0.904898 2.828480
C 0.482210 -1.162976 2.932114
C 0.125029 -1.512782 3.076605
C -0.588078 -1.640576 3.119197
C -0.987002 -1.522885 2.987592
C -1.165751 -1.553785 2.880605
C -1.650623 -1.607580 2.721094
C -1.798132 -1.602669 2.583476
C -2.095381 -1.641190 2.403406
C -2.460069 -1.694906 2.262024
C -2.284930 -1.892109 2.121839
C -2.102596 -2.018168 2.067686
C -2.086189 -2.106625 1.967646
C -1.811757 -2.196386 2.008731
C -1.688531 -2.298891 1.961033
C -1.557837 -2.408960 1.913919
C -1.656569 -2.440904 1.791880
C -1.761904 -2.544706 1.701255
C -1.732908 -2.568521 1.566209
C -1.776818 -2.684478 1.436575
C -1.799119 -2.784608 1.368022
C -1.780662 -2.947844 1.337377
C -1.642898 -2.923056 1.303958
C -1.248329 -2.963401 1.383473
C -0.959459 -2.883052 1.444919
C -0.699845 -2.722443 1.489682
C -0.167870 -2.434116 1.544344
C 0.535607 -2.042303 1.473242
C 1.180838 -1.484875 1.349089
C 1.730284 -1.056417 1.210657
C 2.195655 -0.640722 1.035388
C 2.528315 -0.347914 0.927787
C 2.839997 -0.198677 0.808095
C 2.968333 -0.025573 0.649740
C 2.993435 0.174052 0.305353
C 3.000836 0.208297 0.012514
C 2.982039 0.260875 -0.130594
C 2.980134 0.323215 -0.367628
C 3.167155 0.482839 -0.570679
C 3.260728 0.572567 -0.792725
C 3.362103 0.624804 -0.904665
C 3.369166 0.502574 -0.763450
C 3.365264 0.372436 -0.712394
C 3.436798 0.224941 -0.808846
C 3.477988 0.034881 -0.835899
C 3.470989 -0.164702 -0.806007
C 3.449128 -0.384009 -0.628145
C 3.355801 -0.673534 -0.428304
C 3.182738 -1.027401 -0.155947
C 3.023724 -1.314680 0.132521
C 2.804797 -1.602779 0.378064
C 2.561337 -1.866145 0.664080
C 2.230756 -2.246063 0.903856
C 2.024599 -2.622531 0.955929
C 1.783550 -2.827984 0.982157
C 1.550167 -2.920562 0.883051
C 1.197135 -3.062927 0.168989
C 0.953763 -3.196212 -0.475777
C 1.016554 -3.254966 -0.853195
C 1.092377 -3.148390 -1.025015
C 1.009234 -3.027155 -1.107234
C 1.017577 -2.937675 -1.222856
C 1.094887 -2.876049 -1.292860
C 1.271810 -2.704558 -0.746368
C 1.474997 -2.552260 -0.267485
C 1.531527 -2.430117 -0.161943
C 1.673023 -2.293830 -0.297178
C 1.857976 -2.064361 -0.492196
C 2.038129 -2.084479 -0.641469
C 2.043710 -2.045443 -0.741471
C 1.962097 -2.118864 -0.809494
C 1.880087 -2.098672 -0.876723
C 1.748735 -2.199482 -0.925279
C 1.526088 -2.438478 -0.935321
C 1.201554 -2.795684 -0.867988
C 0.732116 -2.955134 -0.790203
C 0.508324 -3.136464 -0.809563
C 0.302309 -3.248760 -0.823427
C -0.006594 -3.506789 -0.815826
C -0.428462 -3.680869 -0.837797
C -0.759491 -3.769624 -0.945503
C -1.186247 -3.689737 -1.162152
C -1.441231 -3.594062 -1.554668
C -1.677696 -3.518438 -1.910557
C -1.849608 -3.531959 -2.123334
C -2.078975 -3.466459 -2.347256
C -2.279840 -3.343985 -2.546963
