214
chr14 3D structure from Hi-C (resolution 500000bp)
C -2.341437 4.576523 -0.832942
C -2.275274 4.621708 -0.535313
C -2.249953 4.621133 -0.237440
C -2.305956 4.549900 0.038637
C -2.442032 4.394314 0.557046
C -2.576362 4.163248 1.115032
C -2.723694 3.847006 1.616458
C -2.962916 3.407330 2.001914
C -3.310551 2.829151 2.235067
C -3.704040 2.004051 2.161124
C -4.025380 1.205299 1.905504
C -4.293995 0.548544 1.457461
C -4.527497 0.108188 0.881406
C -4.612603 0.118809 0.202676
C -4.588688 0.325173 -0.419878
C -4.518168 0.651261 -0.915872
C -4.494052 1.063640 -1.063535
C -4.472114 1.225339 -0.806766
C -4.410679 1.201682 -0.366077
C -4.315944 0.943346 0.133061
C -4.307460 0.233057 0.653665
C -4.331122 -0.648998 1.056444
C -4.319748 -1.589954 1.296848
C -4.187984 -2.367438 1.302598
C -4.068219 -2.815377 0.914501
C -4.023688 -3.051889 0.399724
C -4.057547 -3.084110 -0.112225
C -4.186819 -2.727901 -0.372657
C -4.321093 -2.190415 -0.464633
C -4.440033 -1.479163 -0.392535
C -4.518440 -0.617363 -0.202491
C -4.544448 0.295033 0.029893
C -4.539524 1.116846 0.236235
C -4.556711 1.626692 0.217868
C -4.468055 1.722498 -0.102950
C -4.394278 1.587640 -0.557880
C -4.114914 1.305499 -1.162263
C -3.645962 0.796038 -1.627599
C -3.142070 0.121844 -1.958640
C -2.649114 -0.657292 -2.150343
C -2.026646 -1.016497 -2.086212
C -1.529523 -1.410980 -1.906321
C -0.963354 -1.755675 -1.584828
C -0.765445 -2.099922 -1.236162
C -0.822437 -2.361995 -1.141448
C -0.903491 -2.568598 -1.114347
C -0.966221 -2.355505 -1.262553
C -1.086131 -2.215656 -1.521217
C -1.151866 -1.806611 -1.851721
C -1.275058 -1.347851 -2.307917
C -1.346038 -0.764775 -2.710804
C -1.377007 -0.151379 -2.963949
C -1.439959 0.538595 -3.218250
C -1.385714 0.842616 -3.330758
C -1.355160 0.987053 -3.425532
C -1.363350 0.885924 -3.488419
C -1.323849 0.810912 -3.538428
C -1.234275 0.559453 -3.538430
C -1.046887 0.070858 -3.422753
C -0.846196 -0.516348 -3.296638
C -0.711742 -0.837338 -3.152624
C -0.633777 -1.244569 -3.031179
C -0.415258 -1.390401 -2.947100
C -0.282642 -1.525805 -2.922718
C -0.089589 -1.630892 -2.869491
C -0.003533 -1.546814 -2.950129
C 0.032303 -1.542559 -2.798474
C 0.043593 -1.735717 -2.677810
C 0.151447 -1.826018 -2.709543
C 0.248538 -1.814872 -2.720490
C 0.324413 -1.700442 -2.571835
C 0.309258 -1.390935 -2.523153
C 0.223808 -0.895228 -2.544781
C 0.203643 -0.323042 -2.803372
C 0.239628 0.168784 -2.962667
C 0.313113 0.446028 -2.814004
C 0.326063 0.661753 -2.708806
C 0.440246 0.848420 -2.815478
C 0.541287 0.894602 -2.801334
C 0.690782 0.779332 -2.809788
C 0.832606 0.680357 -2.873333
C 0.903604 0.764428 -2.922834
C 0.852310 1.164478 -3.084696
C 0.770661 1.481410 -3.185155
C 0.712229 1.585534 -3.138120
C 0.722664 1.704751 -3.194501
C 0.823119 1.667506 -3.148517
C 0.972394 1.493578 -3.056577
C 1.101500 1.288995 -2.978736
C 1.341246 1.029583 -2.892840
C 1.626882 0.830476 -2.965697
C 1.820224 0.668935 -2.859658
C 2.023909 0.457635 -2.739094
C 2.174443 0.557108 -2.745239
C 2.214321 0.647163 -2.732729
C 2.297260 0.709877 -2.700266
C 2.180741 0.254967 -2.534008
C 2.013346 -0.408363 -2.036197
C 1.947777 -0.952455 -1.834869
C 1.891013 -1.296400 -1.610941
C 1.764635 -1.824970 -1.269200
C 1.746555 -2.147805 -1.050380
C 1.665646 -2.592927 -0.917201
C 1.720934 -2.367728 -0.786807
C 1.924894 -2.215474 -0.931638
C 2.065604 -2.065954 -0.889701
C 2.140402 -2.167411 -0.786758
C 2.180252 -2.167194 -0.704874
C 2.228092 -2.127711 -0.513589
C 2.336147 -1.898830 -0.501669
C 2.462617 -1.871719 -0.578788
C 2.549446 -1.732800 -0.605637
C 2.680733 -1.496760 -0.681493
C 2.822449 -1.264118 -0.657415
C 2.998579 -1.200578 -0.609702
C 2.970737 -1.125096 -0.557522
C 2.957681 -1.068507 -0.473954
C 3.073479 -1.187869 -0.267648
C 3.187605 -1.173366 -0.128536
C 3.124173 -1.282961 0.027581
C 3.086770 -1.319983 0.098713
C 3.174744 -1.063041 -0.016711
C 3.356697 -0.795946 -0.229424
C 3.449034 -0.756181 -0.174971
C 3.354705 -0.807082 0.062586
C 3.139797 -1.005215 0.402671
C 2.894702 -1.187683 0.646180
C 2.682463 -1.391398 0.825134
C 2.381913 -1.834862 1.116391
C 2.033613 -2.426327 1.467153
C 1.547901 -2.940085 1.626780
C 1.126400 -3.149910 1.524283
C 0.896238 -3.191578 1.570516
C 0.549414 -3.358747 1.654423
C 0.378778 -3.409394 1.675439
C 0.159609 -3.438776 1.767612
C 0.041731 -3.318471 1.972135
C 0.114063 -3.047941 2.156423
C 0.187158 -2.847594 2.263233
C 0.053619 -2.855230 2.278178
C 0.148492 -2.721890 2.308713
C 0.093702 -2.606817 2.338905
C 0.027213 -2.499725 2.409107
C -0.136002 -2.515034 2.458171
C -0.260508 -2.583515 2.590338
C -0.226955 -2.470917 2.714296
C -0.165480 -2.317920 2.906939
C -0.128179 -2.208051 3.076994
C -0.013636 -2.144198 3.269424
C 0.232650 -1.972190 3.276711
C 0.599305 -1.758383 3.242205
C 0.896333 -1.575719 3.096793
C 1.032470 -1.469827 2.903004
C 1.273894 -1.189774 2.534815
C 1.685430 -0.772355 2.167933
C 2.048290 -0.238706 1.688621
C 2.248759 0.252321 1.217864
C 2.377299 0.657613 0.778419
C 2.455974 0.943984 0.496409
C 2.626172 1.215588 0.355907
C 2.648883 1.446050 0.196945
C 2.554007 1.836313 0.059649
C 2.435608 2.013144 0.028975
C 2.409786 2.087770 0.118830
C 2.365596 2.269771 0.143870
C 2.345163 2.564617 0.064315
C 2.187303 2.837687 -0.164241
C 2.126750 3.000334 -0.258116
C 2.105378 2.885444 -0.326226
C 1.969137 2.935235 -0.389751
C 1.773848 3.098451 -0.478858
C 1.599767 3.228306 -0.476484
C 1.559287 3.238517 -0.359368
C 1.658040 3.111850 -0.054568
C 1.795325 2.944176 0.270448
C 1.893454 2.621019 0.629398
C 2.032777 2.276177 1.016773
C 2.204315 1.946451 1.410639
C 2.324513 1.542535 1.757794
C 2.324374 1.132251 2.176363
C 2.259145 0.961595 2.544139
C 2.119073 0.745466 2.726484
C 1.932908 0.673112 2.860578
C 1.322572 1.054825 3.003235
C 0.768036 1.419651 3.134642
C 0.583385 1.681193 3.225831
C 0.570581 1.909691 3.045915
C 0.395265 1.846501 2.853628
C 0.285444 1.903091 2.732650
C 0.232174 1.978215 2.613349
C 0.630923 1.622594 2.369562
C 1.011677 1.402467 2.117890
C 1.045056 1.417803 1.833960
C 0.887764 1.538485 1.573227
C 0.885529 1.910821 1.313427
C 0.857172 2.184704 1.237262
C 0.830639 2.277346 1.270432
C 0.780293 2.206683 1.471807
C 0.703193 2.116092 1.636851
C 0.643031 2.028898 1.810271
C 0.593643 1.830212 2.194645
C 0.453230 1.433105 2.661794
C 0.245435 1.023406 3.007013
C 0.070897 0.790922 3.210321
C -0.102937 0.652746 3.300634
C -0.283597 0.546540 3.490848
C -0.552955 0.342256 3.768424
C -0.770974 0.284958 3.919057
C -1.190723 0.315769 3.915616
C -1.637400 0.353791 3.858634
C -2.103751 0.304569 3.805719
C -2.370394 0.383939 3.840357
C -2.714449 0.241228 3.838783
C -3.034245 0.096622 3.744573
