204
chr15 3D structure from Hi-C (resolution 500000bp)
C 5.447327 1.648585 3.361453
C 5.570797 1.819600 2.966051
C 5.574587 2.076050 2.682172
C 5.457940 2.367986 2.558805
C 5.320614 2.710228 2.362182
C 4.812860 3.073159 2.469696
C 4.243588 3.451259 2.680966
C 3.760081 3.750965 2.992714
C 3.346875 3.839585 3.466689
C 3.002109 3.634672 4.058161
C 2.744331 3.193272 4.634249
C 2.501968 2.656279 5.152695
C 2.436877 2.207500 5.408044
C 2.225158 1.821361 5.652073
C 1.744151 1.435458 5.953886
C 1.054878 1.110866 6.197589
C 0.234146 0.984375 6.294303
C -0.587593 1.095812 6.275856
C -1.253076 1.399218 6.145826
C -1.792086 1.773913 5.904346
C -2.274200 2.191915 5.534631
C -2.676292 2.702417 5.018797
C -2.907742 3.343320 4.370121
C -2.892671 4.049456 3.642100
C -2.726347 4.680273 2.967657
C -2.535456 5.139167 2.478825
C -2.310163 5.410456 2.255219
C -1.942050 5.518981 2.278787
C -1.421529 5.562607 2.428916
C -0.793191 5.600642 2.570411
C -0.277442 5.603389 2.703907
C 0.025080 5.555113 2.355067
C 0.308543 5.620145 2.049039
C 0.715444 5.736972 1.655352
C 1.196136 5.872857 1.164939
C 1.607514 5.980859 0.607564
C 1.524165 5.869472 -0.267084
C 1.408245 5.431668 -1.046275
C 1.786391 5.084759 -1.288026
C 2.355331 4.781288 -1.416901
C 2.764765 4.544618 -1.618683
C 2.667427 4.241696 -2.161970
C 2.639194 3.548993 -2.554408
C 2.667090 3.246576 -2.658958
C 2.611206 3.139703 -2.627569
C 2.132376 2.964149 -2.727165
C 1.441896 2.578386 -3.082359
C 0.773951 2.130544 -3.359507
C 0.422094 1.832334 -3.359787
C -0.027030 1.969294 -3.483170
C -0.216250 1.859116 -3.416432
C -0.194429 1.827305 -3.450294
C -0.286492 1.852295 -3.374947
C -0.570134 2.267402 -3.271437
C -0.812510 2.610657 -3.278016
C -1.261851 3.148353 -2.973122
C -1.818003 3.580691 -2.522509
C -2.454605 3.912576 -1.925969
C -3.231785 4.112134 -1.181873
C -3.874291 4.154581 -0.302715
C -4.315569 3.819907 0.635815
C -4.736500 3.555794 1.656925
C -3.560584 2.981654 1.540411
C -2.861201 2.363854 1.407428
C -2.009451 1.799836 1.102391
C -0.974199 1.237700 0.640477
C 0.053167 0.832476 -0.061390
C 0.954831 0.516145 -0.941298
C 1.770939 0.304460 -1.926689
C 1.237982 0.205713 -2.164437
C 1.297414 0.156064 -2.314864
C 1.307357 0.187062 -2.523665
C 1.126676 0.354766 -2.698220
C 1.058936 0.350617 -2.681342
C 1.073737 0.314338 -2.545644
C 1.127162 0.224833 -2.393869
C 1.226037 0.019987 -2.087815
C 1.441301 -0.204053 -1.883077
C 1.744116 -0.528714 -1.523441
C 2.111671 -0.865635 -1.162945
C 2.338182 -1.112291 -0.871399
C 2.518026 -1.321634 -0.654787
C 2.675968 -1.586642 -0.455642
C 2.840383 -1.790111 -0.290613
C 2.854008 -1.866075 -0.218315
C 2.714422 -1.861883 -0.261149
C 2.718867 -1.915186 -0.362925
C 2.480404 -1.792204 -0.579305
C 2.145434 -1.577181 -0.886404
C 1.812896 -1.286195 -1.342187
C 1.403728 -0.947585 -1.794377
C 0.988782 -0.641658 -2.219321
C 0.681191 -0.410320 -2.503452
C 0.277317 -0.205639 -2.697262
C 0.251941 -0.261625 -2.819111
C 0.352750 -0.407822 -2.890526
C 0.415162 -0.531762 -2.811477
C 0.587885 -0.790028 -2.636820
C 0.846598 -1.111873 -2.368984
C 1.027645 -1.342799 -2.220705
C 1.166129 -1.586243 -2.096817
C 1.176328 -1.690114 -1.996774
C 1.052460 -1.724840 -1.898858
C 0.937473 -1.768295 -1.862287
C 0.740779 -1.677324 -1.984464
C 0.438660 -1.553507 -2.223903
C 0.209520 -1.443963 -2.422066
C -0.005400 -1.308332 -2.524222
C -0.188889 -1.241504 -2.614247
C -0.217402 -1.338104 -2.673351
C -0.140718 -1.563098 -2.583170
C -0.042998 -1.816171 -2.395810
C 0.032071 -1.984883 -2.143315
C 0.176453 -2.256833 -1.890980
C 0.355080 -2.497045 -1.682306
C 0.521809 -2.712873 -1.454816
C 0.584185 -2.808915 -1.241281
C 0.552331 -2.845151 -1.090380
C 0.520644 -2.844955 -0.943691
C 0.466030 -2.856714 -0.893556
C 0.385979 -2.749690 -0.827789
C 0.233651 -2.612215 -0.806210
C 0.115484 -2.473686 -0.754005
C 0.262469 -2.493843 -0.585735
C 0.478939 -2.574034 -0.335588
C 0.742289 -2.646876 -0.073708
C 1.085239 -2.743848 0.250330
C 1.329329 -2.869370 0.572480
C 1.582305 -2.989963 0.918302
C 1.839141 -3.089265 1.336181
C 1.814315 -3.027839 1.528152
C 1.713330 -2.938205 1.572604
C 1.582222 -2.869233 1.565418
C 1.447978 -2.759190 1.592494
C 1.249815 -2.699957 1.541400
C 1.030027 -2.602994 1.395346
C 0.778574 -2.425807 1.256507
C 0.668010 -2.518560 1.203348
C 0.544871 -2.317885 1.218934
C 0.352042 -2.099248 1.225798
C 0.186387 -1.996253 1.181950
C 0.190699 -1.913394 1.169359
C 0.180704 -1.862010 1.211697
C 0.098082 -1.856333 1.174070
C -0.007731 -1.699051 1.215065
C 0.003533 -1.853184 1.319129
C 0.092982 -2.093954 1.444445
C 0.162324 -2.304956 1.591289
C 0.116034 -2.441674 1.715560
C 0.032367 -2.493245 1.786655
C 0.027334 -2.678327 1.745789
C 0.054711 -2.824584 1.667247
C -0.075558 -2.875465 1.649075
C -0.202727 -2.910958 1.577833
C -0.371070 -2.871037 1.494975
C -0.523605 -2.748467 1.362690
C -0.656260 -2.743311 1.306306
C -0.772945 -2.581193 1.282276
C -0.964293 -2.352827 1.246302
C -1.042985 -2.145451 1.077458
C -1.258982 -1.808055 0.925981
C -1.484659 -1.700708 0.929939
C -1.633987 -1.718435 0.993182
C -1.694434 -1.681777 0.903490
C -1.794307 -1.661692 0.822644
C -2.069208 -1.692789 0.989785
C -2.154143 -1.864100 0.973399
C -2.183709 -2.129307 0.948159
C -2.086514 -1.987775 0.686061
C -2.097932 -1.692726 0.343721
C -2.201789 -1.398852 0.090190
C -2.295076 -1.126992 -0.167119
C -2.119565 -0.865056 -0.624248
C -2.120819 -0.602404 -0.806428
C -2.086774 -0.452822 -0.874549
C -2.070713 -0.684991 -0.847570
C -1.985870 -1.074413 -0.705209
C -1.848898 -1.567998 -0.465761
C -1.662888 -2.093053 -0.290949
C -1.659950 -2.361893 -0.173069
C -1.742742 -2.444341 -0.132925
C -1.861343 -2.419818 -0.173019
C -1.999815 -2.308827 -0.260539
C -2.192253 -2.040337 -0.376829
C -2.404878 -1.648404 -0.657645
C -2.600912 -1.313202 -0.854419
C -2.698319 -1.098206 -1.109514
C -2.808036 -0.999276 -1.308047
C -2.825341 -0.974045 -1.538454
C -2.873615 -0.826192 -1.734528
C -2.910936 -0.689291 -1.924088
C -2.975721 -0.560584 -2.028062
C -3.034338 -0.373171 -2.140808
C -3.072747 -0.350800 -2.083716
C -2.985914 -0.448144 -2.045410
C -2.947904 -0.579318 -1.947684
C -2.867759 -0.776757 -1.847886
C -2.830472 -0.837787 -1.714602
C -2.670968 -1.081160 -1.621860
C -2.578145 -1.454001 -1.409160
C -2.616264 -1.634650 -1.166531
C -2.614709 -1.681996 -1.100144
C -2.622754 -1.581352 -1.043259
C -2.716507 -1.424421 -0.947151
