204
chr15 3D structure from Hi-C (resolution 500000bp)
C -3.841586 1.835945 -4.897613
C -3.483606 2.124644 -4.999452
C -3.103097 2.240292 -5.150980
C -2.717427 2.207026 -5.322040
C -2.047041 2.243410 -5.609994
C -1.494456 2.102355 -5.868751
C -1.224933 1.751722 -6.058090
C -1.394196 1.075839 -6.035189
C -1.810105 0.395148 -5.856505
C -2.459943 -0.096179 -5.481724
C -3.297162 -0.390787 -4.912345
C -4.238968 -0.612137 -4.194775
C -5.119021 -0.889831 -3.394237
C -5.774401 -1.231881 -2.638225
C -6.017397 -1.478675 -2.160598
C -6.041153 -1.824285 -1.906320
C -5.850662 -2.329915 -1.891674
C -5.475369 -2.928457 -2.116251
C -4.935802 -3.458062 -2.545182
C -4.255510 -3.815060 -3.129033
C -3.449500 -4.002934 -3.772751
C -2.528230 -3.988967 -4.401050
C -1.608884 -3.768277 -4.963950
C -0.857989 -3.435286 -5.437648
C -0.465507 -3.098783 -5.785209
C -0.399769 -2.718196 -5.989620
C -0.611165 -2.182238 -6.068171
C -1.216445 -1.253375 -5.791745
C -2.049452 -0.346927 -5.354966
C -3.032745 0.438444 -4.748536
C -3.990400 1.171458 -3.959439
C -4.651535 1.977223 -3.030359
C -5.258412 2.498499 -2.108980
C -5.761457 2.701187 -1.224248
C -6.043727 2.434735 -0.657869
C -6.017030 2.661732 -0.351586
C -5.551372 2.969269 0.035138
C -4.850331 3.153793 0.278276
C -4.215014 3.421411 0.029414
C -3.641778 3.871307 -0.497837
C -3.073723 4.481043 -1.005543
C -2.190710 5.118773 -1.138743
C -1.098201 4.872422 -1.165734
C -0.638723 4.825366 -1.233903
C -0.470036 4.739766 -1.191358
C -0.310547 4.601528 -0.801370
C 0.085860 4.426342 -0.148153
C 0.597436 4.149491 0.386363
C 0.757106 3.902704 0.606318
C 0.435257 4.035995 0.911761
C 0.385180 3.906710 1.037276
C 0.435645 3.916981 1.051150
C 0.540821 3.878915 0.992251
C 0.820365 4.040395 0.406198
C 0.959983 4.179445 0.092662
C 0.966074 4.370342 -0.681644
C 1.008386 4.429665 -1.587013
C 1.169288 4.321080 -2.534359
C 1.502453 4.081017 -3.477146
C 1.853227 3.658574 -4.383124
C 1.994250 2.990076 -4.838863
C 2.221308 2.388920 -5.460869
C 2.717253 2.034303 -5.252763
C 2.829803 1.616046 -4.541055
C 2.777811 1.312354 -3.753319
C 2.667728 1.077349 -3.020507
C 2.508760 1.070370 -2.229637
C 2.381942 1.266803 -1.360525
C 2.175661 1.588197 -0.432554
C 1.928239 1.694986 0.140280
C 2.009199 1.781339 0.277639
C 2.101811 1.976834 0.372794
C 2.040512 2.264425 0.554218
C 2.092241 2.283518 0.636366
C 2.087425 2.194854 0.671423
C 2.106190 2.055799 0.614854
C 2.143529 1.710101 0.487345
C 2.285439 1.393633 0.322264
C 2.478297 0.928703 0.094188
C 2.711626 0.334416 -0.182057
C 2.777870 -0.050494 -0.391941
C 2.870137 -0.393758 -0.557445
C 3.045576 -0.758443 -0.659548
C 3.162876 -1.046004 -0.716158
C 3.214496 -1.182567 -0.698202
C 3.137922 -1.191806 -0.562122
C 3.203934 -1.073719 -0.496650
C 3.094898 -0.866054 -0.280126
C 2.859023 -0.458475 0.025503
C 2.568761 0.108112 0.360176
C 2.313177 0.712414 0.672847
C 2.033248 1.279612 0.976504
C 1.806281 1.669110 1.214010
C 1.515671 1.926063 1.482658
C 1.526371 1.989288 1.577859
C 1.702569 1.883197 1.613176
C 1.854623 1.705860 1.622845
C 1.999939 1.394326 1.530483
C 2.242273 0.947388 1.412061
C 2.427285 0.697470 1.362262
C 2.574239 0.493549 1.337228
C 2.623641 0.331861 1.337743
C 2.524007 0.290095 1.400237
C 2.366601 0.274038 1.434196
C 2.200374 0.399977 1.617144
C 1.953237 0.689316 1.873403
C 1.817966 0.882853 2.059787
C 1.635552 1.011253 2.196765
C 1.535101 1.129768 2.347289
C 1.601308 1.072516 2.390725
C 1.799634 0.790679 2.386473
C 1.931732 0.457874 2.312007
C 1.978489 0.169551 2.246952
C 2.111803 -0.231227 2.185992
C 2.284597 -0.538464 2.089458
C 2.368239 -0.838686 1.935348
C 2.333438 -1.037383 1.872588
C 2.232522 -1.122013 1.847021
C 2.206925 -1.229986 1.834003
C 2.128362 -1.254777 1.810368
C 1.984475 -1.202415 1.749008
C 1.781158 -1.126723 1.728410
C 1.662982 -1.094787 1.719477
C 1.692838 -1.245510 1.586496
C 1.825558 -1.493227 1.315481
C 1.887870 -1.716218 1.043463
C 2.029081 -2.142435 0.692446
C 2.133423 -2.456123 0.392717
C 2.262581 -2.788900 0.120832
C 2.253258 -3.182564 -0.199437
C 2.163708 -3.297756 -0.349008
C 1.976556 -3.308645 -0.380355
C 1.858015 -3.283484 -0.292802
C 1.775609 -3.179602 -0.218736
C 1.544811 -3.052193 -0.145204
C 1.330100 -2.912616 -0.011988
C 1.150929 -2.622391 0.135319
C 0.983559 -2.591928 0.141139
C 0.798752 -2.452224 0.194781
C 0.531376 -2.223779 0.141085
C 0.345651 -2.078401 0.148428
C 0.408968 -2.098779 0.227794
C 0.317501 -2.074811 0.264582
C 0.242339 -2.084311 0.339639
C 0.256928 -2.035782 0.458005
C 0.297578 -2.229504 0.466742
C 0.445916 -2.536076 0.459854
C 0.514201 -2.818168 0.446876
C 0.472994 -2.988869 0.436002
C 0.561188 -3.127143 0.518652
C 0.694775 -3.236874 0.667806
C 0.722839 -3.314930 0.741450
C 0.662765 -3.332140 0.850350
C 0.572600 -3.323377 0.986313
C 0.478345 -3.232546 1.123091
C 0.340099 -3.067600 1.233711
C 0.177140 -2.955230 1.282268
C 0.063626 -2.870497 1.323931
C -0.112652 -2.717643 1.392429
C -0.175664 -2.473468 1.505381
C -0.383073 -2.217547 1.664773
C -0.606386 -2.164642 1.793739
C -0.726948 -2.179889 1.867671
C -0.702000 -2.107518 1.975349
C -0.750334 -1.976921 2.086497
C -1.008184 -2.102598 2.161523
C -1.002230 -2.214016 2.254144
C -0.809591 -2.267804 2.364049
C -0.604512 -1.959760 2.484680
C -0.494281 -1.536411 2.676737
C -0.538126 -1.165851 2.839829
C -0.593152 -0.834333 2.971024
C -0.338846 -0.290036 3.076368
C -0.352413 0.096447 3.080539
C -0.399066 0.278918 3.037564
C -0.391012 0.137374 3.025146
C -0.322226 -0.242601 2.959810
C -0.186310 -0.774371 2.857199
C 0.009510 -1.217465 2.773575
C -0.004354 -1.473953 2.773939
C -0.103400 -1.580746 2.849347
C -0.201576 -1.514302 2.883551
C -0.294134 -1.415266 2.935897
C -0.475003 -1.073700 3.012936
C -0.745674 -0.567339 3.104943
C -0.979412 -0.169512 3.103214
C -1.112353 0.116536 3.099687
C -1.156376 0.357401 3.121979
C -1.236668 0.488228 3.092127
C -1.402404 0.702522 3.040838
C -1.494144 0.873852 2.958365
C -1.540266 1.002364 2.948570
C -1.641864 1.174529 2.965371
C -1.664861 1.184332 2.945498
C -1.638856 1.061476 2.814347
C -1.645330 0.889440 2.708474
C -1.630427 0.660437 2.652812
C -1.643102 0.465435 2.617915
C -1.614393 0.166459 2.418180
C -1.563902 -0.148045 2.183567
C -1.652794 -0.439989 2.100070
C -1.717531 -0.560431 2.067609
C -1.770771 -0.564804 2.082760
C -1.806878 -0.453687 1.991255
