167
chr17 3D structure from Hi-C (resolution 500000bp)
C -1.986219 2.382663 1.487135
C -2.033055 2.097252 1.511395
C -2.016118 2.006543 1.385261
C -2.001271 2.062969 1.190392
C -2.110228 1.739185 1.129152
C -2.302811 1.589283 1.220404
C -2.364275 1.425218 1.081758
C -2.389014 1.477032 0.924864
C -2.260897 1.515403 0.647584
C -2.189279 1.497668 0.495924
C -2.179505 1.294304 0.549407
C -2.215009 1.246501 0.516227
C -2.168899 1.224453 0.429286
C -2.119222 1.171152 0.271558
C -2.034482 1.022838 0.075541
C -2.031046 0.988438 -0.029999
C -1.987947 1.022036 -0.217697
C -1.856510 1.161941 -0.470990
C -1.476477 1.369791 -0.809361
C -1.056723 1.610256 -1.271116
C -0.697920 1.766038 -1.593715
C -0.469234 1.774365 -1.833234
C -0.346640 1.803994 -2.014945
C -0.151360 1.804036 -2.135522
C -0.001062 1.787637 -2.312007
C -0.050891 1.664134 -2.359384
C -0.050401 1.523307 -2.407029
C -0.113194 1.504153 -2.459241
C -0.267929 1.594473 -2.518128
C -0.455124 1.506546 -2.494777
C -0.784867 1.304245 -2.480860
C -1.093861 1.065314 -2.334381
C -1.407407 0.916220 -2.202377
C -1.865133 0.780904 -1.977826
C -2.285780 0.649019 -1.809205
C -2.494637 0.600379 -1.661051
C -2.572921 0.643291 -1.639471
C -2.471520 0.617063 -1.795653
C -2.300331 0.642842 -2.032559
C -2.004015 0.667197 -2.250413
C -1.445107 0.942370 -2.481226
C -0.818020 1.170130 -2.639665
C -0.196771 1.390059 -2.665201
C 0.345470 1.764549 -2.132136
C 0.708504 2.227285 -1.304703
C 0.899109 2.652432 -0.473911
C 0.958461 3.049993 0.263143
C 0.775748 3.253225 0.880863
C 0.571073 3.516523 1.350161
C 0.352647 3.713196 1.623757
C 0.206924 3.743440 1.197688
C 0.018852 3.294425 0.576941
C -0.172025 2.793342 -0.056233
C -0.405213 2.150453 -0.568219
C -0.689308 1.454843 -0.773262
C -1.013588 0.690571 -0.891069
C -1.308982 -0.295472 -1.056455
C -1.767206 -1.181337 -0.939852
C -2.210899 -1.461261 -0.648916
C -2.523909 -1.637442 -0.453271
C -2.541418 -1.707235 -0.307918
C -2.479301 -1.801041 -0.379563
C -2.342281 -1.854890 -0.521782
C -2.124170 -1.678877 -0.639823
C -1.820596 -1.456203 -0.817460
C -1.512297 -1.388711 -1.094922
C -1.235719 -1.399571 -1.254336
C -1.157197 -1.465665 -1.388533
C -1.111000 -1.600742 -1.553816
C -0.685202 -0.820588 -1.369785
C -0.318169 -0.084975 -1.049997
C 0.131269 0.524359 -0.721859
C 0.685165 1.132015 -0.271654
C 1.229260 1.730893 0.209137
C 1.023184 1.937209 0.745554
C 0.977555 2.126854 1.143966
C 0.502002 1.306107 1.278191
C -0.091367 0.534213 1.391745
C -0.691149 -0.372336 1.328020
C -1.210336 -1.154921 0.798725
C -1.870508 -1.838702 0.675813
C -1.762798 -2.024775 0.583400
C -1.750283 -2.119735 0.632440
C -1.647285 -2.037830 0.635979
C -1.531211 -2.163675 0.636322
C -1.505510 -2.009053 0.887197
C -1.563966 -1.884055 1.595796
C -1.424279 -1.861070 1.818605
C -0.761125 -1.361139 1.957503
C -0.109147 -0.878346 2.137581
C 0.389011 -0.788566 2.432963
C 0.505641 -0.732641 2.504402
C 0.702423 -0.791753 2.459452
C 0.881383 -0.876560 2.262301
C 1.009111 -0.976058 2.082922
C 0.614125 -1.599244 1.759825
C 0.176414 -2.177258 1.439696
C -0.184563 -2.451631 0.977299
C -0.077219 -2.458165 0.701629
C 0.014550 -2.300834 0.306514
C 0.217266 -2.046157 -0.178418
C 0.541699 -1.695095 -0.724681
C 0.818669 -1.279486 -1.131203
C 1.150887 -0.861331 -1.653148
C 1.460302 -0.409829 -2.036567
C 1.772758 -0.002659 -2.348808
C 1.913832 0.155009 -2.451623
C 1.884073 0.078361 -2.387284
C 1.772424 -0.059951 -2.344265
C 1.735609 -0.275667 -2.383085
C 1.569604 -0.537865 -2.145183
C 1.398499 -0.863554 -1.907823
C 1.236369 -1.284165 -1.668381
C 1.140832 -1.633365 -1.419828
C 1.073714 -1.846352 -1.182540
C 0.987472 -2.070663 -0.811940
C 0.954265 -2.258947 -0.400465
C 1.041870 -2.512413 -0.259630
C 1.259361 -2.654998 -0.200362
C 1.361625 -2.636787 -0.253597
C 1.507197 -2.556905 -0.276685
C 1.805694 -2.422904 -0.312090
C 2.046316 -2.267741 -0.472317
C 2.249765 -2.120221 -0.667237
C 2.208425 -1.919786 -0.536399
C 2.172794 -1.795965 -0.278507
C 2.265960 -1.696479 0.136784
C 2.295061 -1.561023 0.214771
C 2.130631 -1.464819 0.204467
C 2.129324 -1.328318 0.269865
C 2.062017 -1.243582 0.409376
C 2.244970 -1.139894 0.443719
C 2.320964 -1.052230 0.424706
C 2.297444 -0.905958 0.294135
C 2.379047 -0.797265 0.248420
C 2.510482 -0.688692 0.336046
C 2.489643 -0.530649 0.257224
C 2.620717 -0.263299 0.181414
C 2.672721 -0.037585 -0.081801
C 2.777780 0.233805 -0.285542
C 2.849040 0.405890 -0.477307
C 2.804144 0.484261 -0.532244
C 2.774528 0.575307 -0.554396
C 2.709113 0.540095 -0.357226
C 2.460287 0.415319 -0.308515
C 2.207152 0.322096 -0.132372
C 1.900155 0.175779 0.157849
C 1.601588 -0.104777 0.596611
C 1.327158 -0.290689 1.078874
C 0.958247 -0.496385 1.464673
C 0.681980 -0.612900 1.747988
C 0.491338 -0.673061 2.152028
C 0.397949 -0.676830 2.529828
C 0.202333 -0.634834 2.651706
C 0.135516 -0.517175 2.604241
C 0.200529 -0.354368 2.521890
C 0.323066 -0.163666 2.478880
C 0.371419 -0.027741 2.533158
C 0.279609 0.015598 2.555629
C 0.217448 0.104927 2.634256
C 0.223580 0.187031 2.748192
C 0.081853 0.341416 2.883750
C -0.141102 0.460509 2.992884
C -0.161032 0.622147 3.163536
C -0.242538 0.669823 3.224208
C -0.187354 0.810180 3.310280
C -0.241056 0.912687 3.284505
