167
chr17 3D structure from Hi-C (resolution 500000bp)
C -1.384198 2.884088 1.305676
C -1.515749 2.677641 1.339906
C -1.422299 2.561906 1.267376
C -1.418834 2.598067 1.094723
C -1.587653 2.321625 1.050994
C -1.565473 2.323306 1.197633
C -1.481129 2.139395 1.241654
C -1.432746 2.083606 1.237723
C -1.302038 2.084494 1.004894
C -1.303303 2.091728 0.835714
C -1.301716 1.940495 0.853101
C -1.319677 1.876679 0.892808
C -1.470272 1.747248 0.778419
C -1.548995 1.729919 0.558194
C -1.568431 1.693188 0.239294
C -1.594098 1.567851 0.125388
C -1.598435 1.519849 -0.069461
C -1.513052 1.538106 -0.309292
C -1.331760 1.671447 -0.738099
C -0.981167 1.712610 -1.265557
C -0.739650 1.756695 -1.663226
C -0.563884 1.715730 -1.889937
C -0.408656 1.753635 -2.084103
C -0.272455 1.715497 -2.230739
C -0.167589 1.648509 -2.432767
C -0.139109 1.452164 -2.524206
C -0.159304 1.391908 -2.485042
C -0.217872 1.272841 -2.537556
C -0.429581 1.284780 -2.643371
C -0.736579 1.256974 -2.500971
C -1.086415 1.246628 -2.281374
C -1.446015 1.192533 -1.955665
C -1.732062 1.069494 -1.763272
C -2.184671 0.967976 -1.473526
C -2.565333 0.923282 -1.148462
C -2.753045 0.798734 -0.990473
C -2.744454 0.681685 -1.117006
C -2.665858 0.484162 -1.381653
C -2.575972 0.378134 -1.687614
C -2.423998 0.534734 -1.826263
C -1.957076 0.790783 -2.125075
C -1.373212 1.039355 -2.432897
C -0.679896 1.353275 -2.502345
C 0.064742 1.728995 -2.323919
C 0.780979 2.140465 -1.936249
C 1.452883 2.543581 -1.500367
C 1.954087 2.847506 -1.083798
C 2.144881 3.021679 -0.617068
C 2.175029 3.251642 -0.221199
C 2.088737 3.458865 0.022712
C 1.866304 3.495959 -0.080122
C 1.324950 3.130333 -0.252173
C 0.762375 2.677560 -0.490789
C 0.136087 2.035225 -0.711670
C -0.414194 1.435001 -0.697918
C -0.948940 0.782596 -0.591279
C -1.562267 -0.006177 -0.596686
C -2.196752 -0.712225 -0.383533
C -2.581630 -0.871015 -0.007463
C -2.875603 -0.994078 0.322126
C -2.850276 -0.963814 0.457664
C -2.810137 -1.084406 0.353032
C -2.721519 -1.167776 0.160583
C -2.385741 -1.092380 0.045823
C -2.094769 -0.962173 -0.079241
C -1.784488 -1.042726 -0.455808
C -1.538309 -1.106141 -0.769931
C -1.496232 -1.198041 -0.905183
C -1.509830 -1.344998 -0.958259
C -0.652399 -0.988549 -0.763038
C 0.010541 -0.631871 -0.415696
C 0.654232 -0.241330 -0.027703
C 1.252920 0.265183 0.472880
C 1.813663 0.828140 0.977323
C 1.725264 1.078945 1.508471
C 1.755576 1.283639 1.781354
C 0.947754 0.892227 1.860428
C 0.115128 0.452487 1.864076
C -0.645262 -0.213288 1.750473
C -1.310683 -0.880342 1.260215
C -1.903911 -1.478613 1.238658
C -1.786412 -1.707955 1.146564
C -1.806217 -1.707002 1.230240
C -1.763829 -1.595628 1.266936
C -1.676120 -1.428907 1.428267
C -1.602695 -1.127076 1.658558
C -1.510416 -0.939252 2.289638
C -1.449374 -0.750278 2.423293
C -1.123983 -0.083533 2.450447
C -0.705488 0.526290 2.453144
C -0.798880 0.105655 2.108474
C -0.718130 -0.217795 1.973185
C -0.624871 -0.403296 1.850248
C -0.560929 -0.513325 1.566613
C -0.433901 -0.757063 1.367735
C -0.600396 -1.492904 1.252181
C -0.776781 -2.318440 1.119455
C -0.450739 -2.158222 1.424486
C -0.357492 -1.988139 1.272725
C -0.246631 -1.846058 0.874853
C -0.047436 -1.672310 0.399809
C 0.217988 -1.478452 -0.264025
C 0.470489 -1.291732 -0.850412
C 0.748798 -0.937369 -1.486152
C 0.928567 -0.605570 -2.150172
C 1.137232 -0.422596 -2.656835
C 1.275939 -0.368514 -2.828894
C 1.259114 -0.449727 -2.777629
C 1.136605 -0.527116 -2.690297
C 1.066665 -0.696285 -2.730064
C 0.887351 -0.966178 -2.488417
C 0.744651 -1.203342 -2.146198
C 0.583961 -1.528767 -1.845379
C 0.500633 -1.775279 -1.505834
C 0.448638 -1.980577 -1.250237
C 0.440095 -2.181637 -0.861585
C 0.404528 -2.339705 -0.380815
C 0.466153 -2.598207 -0.151996
C 0.540565 -2.797951 -0.138942
C 0.708485 -2.856642 -0.134684
C 0.790138 -2.868279 -0.217685
C 0.955864 -2.847105 -0.304437
C 1.123270 -2.812673 -0.510006
C 1.385155 -2.756463 -0.713179
C 1.419896 -2.542588 -0.642893
C 1.578910 -2.366346 -0.355934
C 1.768241 -2.259433 -0.063472
C 1.892614 -2.137504 -0.049377
C 1.890665 -1.906016 -0.074584
C 1.976014 -1.773868 -0.091398
C 1.879548 -1.623197 -0.083298
C 2.112911 -1.505574 -0.144758
C 2.183647 -1.448588 -0.247196
C 2.139375 -1.331362 -0.385850
C 2.177615 -1.233666 -0.444988
C 2.276330 -1.196757 -0.385814
C 2.303453 -1.069444 -0.390441
C 2.478006 -0.864706 -0.494038
C 2.456651 -0.656588 -0.762780
C 2.490266 -0.380088 -1.065923
C 2.549036 -0.239916 -1.293573
C 2.561174 -0.144690 -1.292441
C 2.643481 -0.061854 -1.276845
C 2.577987 -0.079263 -1.089943
C 2.364506 -0.145911 -0.908350
C 2.192663 -0.266748 -0.626720
C 2.037851 -0.421619 -0.183351
C 1.788137 -0.569640 0.381104
C 1.565700 -0.679979 0.906489
C 1.250140 -0.765923 1.342340
C 1.087774 -0.781477 1.640264
C 0.992867 -0.835565 2.028996
C 1.048162 -0.830863 2.324550
C 0.925431 -0.799686 2.449059
C 0.869410 -0.641050 2.429657
C 0.966614 -0.512698 2.344846
C 1.042050 -0.392687 2.330863
C 1.040353 -0.256311 2.420026
C 0.997352 -0.136966 2.493175
C 0.928218 -0.017815 2.618287
C 0.897782 0.154742 2.752665
C 0.854838 0.301482 2.904825
C 0.780562 0.483044 3.017869
C 0.816028 0.729852 3.100070
C 0.807119 0.818168 3.158016
C 0.857647 0.964122 3.180597
C 0.767315 1.142445 3.170675
