381
chr4 3D structure from Hi-C (resolution 500000bp)
C -1.578081 1.026155 -3.644675
C -1.490271 0.894392 -3.686180
C -1.426633 0.766866 -3.734723
C -1.306766 0.716637 -3.745606
C -1.177991 0.647364 -3.802584
C -0.989474 0.657022 -3.761705
C -0.784595 0.728076 -3.691439
C -0.638862 0.966859 -3.566417
C -0.508960 1.173810 -3.469761
C -0.354811 1.354483 -3.383694
C -0.311847 1.432872 -3.333351
C -0.199172 1.485983 -3.298807
C -0.176899 1.538937 -3.312229
C -0.114777 1.505039 -3.358996
C -0.084749 1.495172 -3.361321
C -0.286326 1.594867 -3.339636
C -0.229760 1.677507 -3.297640
C -0.082753 1.795703 -3.107318
C -0.027079 1.852193 -2.975032
C 0.047728 1.938142 -2.849155
C -0.006017 2.184782 -2.649267
C -0.030290 2.366137 -2.470806
C 0.170712 2.486544 -2.304456
C 0.069094 2.669022 -2.157969
C -0.076990 2.826855 -2.214477
C -0.121643 2.972455 -2.156452
C -0.135228 3.009713 -2.134931
C -0.016004 2.953429 -2.131339
C 0.159977 2.827818 -2.208661
C 0.319416 2.715108 -2.261581
C 0.473228 2.705792 -2.211322
C 0.576365 2.738707 -2.124546
C 0.626188 2.767291 -2.140369
C 0.703755 2.809789 -2.016002
C 0.698843 2.916466 -1.870967
C 0.557870 3.134196 -1.660584
C 0.411266 3.320781 -1.442899
C 0.389234 3.378976 -1.340731
C 0.438632 3.423432 -1.215382
C 0.501927 3.461013 -1.002440
C 0.479866 3.587609 -0.878403
C 0.557459 3.524065 -0.871481
C 0.674079 3.496766 -0.798265
C 0.779443 3.483851 -0.731397
C 0.794624 3.516050 -0.587491
C 0.916412 3.444329 -0.642794
C 0.983970 3.334935 -0.821503
C 1.050465 3.127623 -1.045019
C 1.107031 3.037000 -1.173585
C 1.271225 2.752850 -1.460160
C 1.457171 2.564421 -1.651876
C 1.640119 2.384823 -1.804474
C 1.638416 2.410680 -1.629510
C 1.638001 2.475075 -1.370053
C 1.619728 2.685128 -0.992031
C 1.639949 2.851254 -0.739547
C 1.543219 3.126781 -0.306979
C 1.545685 3.224631 -0.112895
C 1.512236 3.270371 -0.001003
C 1.558724 3.233820 -0.043805
C 1.658860 3.250601 0.008462
C 1.761809 3.145639 -0.030918
C 1.828414 3.068615 0.042649
C 1.901625 3.018411 0.109242
C 1.829358 3.065078 0.335264
C 1.849843 3.078390 0.479841
C 1.770054 3.159080 0.866381
C 1.804472 3.035868 0.786923
C 1.861370 2.966896 0.682173
C 1.820705 2.750475 0.394599
C 1.846257 2.508116 0.013531
C 1.916645 2.229949 -0.372748
C 1.853647 1.949047 -0.899156
C 1.803244 1.539895 -1.630925
C 1.621954 1.292769 -1.980840
C 1.379158 0.898019 -2.438952
C 1.203867 0.641972 -2.756280
C 1.100253 0.402713 -2.975817
C 0.972046 0.205234 -3.266721
C 1.033769 0.193365 -3.201344
C 1.208760 0.208188 -3.182229
C 1.390526 0.261417 -3.112002
C 1.661262 0.500251 -2.847151
C 1.985204 0.899144 -2.088365
C 2.225425 1.256907 -1.508809
C 2.525359 1.531561 -1.020228
C 2.719021 1.696120 -0.735726
C 2.841292 1.909151 -0.397118
C 2.902076 2.160368 0.017879
C 2.873052 2.370627 0.495932
C 2.939559 2.279453 0.150474
C 2.935322 2.115677 -0.218090
C 2.877712 1.985103 -0.540605
C 2.619015 1.746500 -0.772707
C 2.446417 1.522973 -1.075475
C 2.274506 1.572586 -0.779759
C 1.715792 0.895215 -1.530122
C 0.994392 0.386174 -1.935220
C 0.307400 -0.015742 -2.259525
C -0.360202 -0.363621 -2.506570
C -0.542427 -0.580585 -2.778407
C -0.401582 -0.616347 -2.596635
C -0.297089 -1.058754 -3.239863
C 0.251138 -0.854223 -3.119435
C 0.777112 -0.599317 -2.895785
C 1.478295 -0.397353 -2.586027
C 2.221414 -0.208299 -2.241708
C 2.516023 -0.071054 -1.853118
C 2.430956 -0.189743 -1.894661
C 2.390881 -0.240142 -1.906859
C 2.391405 -0.265111 -1.730194
C 2.473765 -0.284850 -1.566723
C 2.580214 -0.263159 -1.355899
C 2.576609 -0.194926 -1.202564
C 2.754355 -0.175761 -1.028562
C 2.949791 -0.136504 -0.821311
C 3.078160 -0.092157 -0.549289
C 3.186346 0.026318 -0.260673
C 3.304085 0.060607 -0.046552
C 3.284822 0.043695 0.034877
C 3.353219 0.061312 0.243490
C 3.362266 0.096572 0.354426
C 3.255987 0.182212 0.479133
C 3.268586 0.296651 0.642912
C 3.281774 0.229614 0.662407
C 3.286273 0.238313 0.761776
C 3.217500 0.232614 0.951524
C 3.101699 0.092445 0.932430
C 3.052421 0.039346 1.039280
C 3.053633 -0.040849 1.111660
C 3.054591 -0.283016 1.015903
C 3.026457 -0.377025 0.967923
C 2.873294 -0.527800 0.727205
C 2.800393 -0.304398 0.892519
C 2.624195 0.090106 1.271180
C 2.573523 0.271494 1.427142
C 2.555209 0.191657 1.363746
C 2.489222 0.445552 1.653058
C 2.558523 0.396188 1.481569
C 2.656990 0.593211 1.844917
C 2.643844 0.356283 1.552719
C 2.846543 0.051755 1.372700
C 2.845294 -0.053159 1.360767
C 2.755903 -0.201144 0.943760
C 2.720337 -0.525402 0.383212
C 2.567657 -0.596992 0.327596
C 2.518699 -0.871233 -0.140048
C 2.387750 -1.013513 -0.450474
C 2.087815 -1.300322 -1.143079
C 1.839659 -1.588433 -1.812747
C 1.640130 -1.567359 -1.785023
C 1.483208 -1.595398 -1.911080
C 1.321553 -1.639749 -2.082338
C 1.177571 -1.703708 -2.153331
C 1.103322 -1.888987 -2.313354
C 1.298216 -1.969457 -2.157404
C 1.507366 -2.032858 -2.011537
C 1.639293 -2.134323 -2.023026
C 1.759149 -2.279146 -1.980269
C 1.796186 -2.359789 -1.862999
C 1.736884 -2.450230 -1.848022
C 1.799275 -2.422358 -1.702417
C 1.603024 -2.394248 -1.817244
C 1.300415 -2.393969 -2.028792
C 1.277732 -2.374646 -1.878955
C 1.376518 -2.319787 -1.627398
C 1.529556 -2.238960 -1.334390
C 1.670499 -2.119476 -1.035483
C 1.737888 -2.085284 -0.842269
C 1.926514 -2.123983 -0.527387
C 1.865289 -2.198909 -0.483114
C 1.826076 -2.175575 -0.443943
C 1.664379 -2.111405 -0.411689
C 1.507723 -2.172670 -0.519706
C 1.489622 -2.325882 -0.616487
C 1.492777 -2.378632 -0.564597
C 1.549222 -2.363373 -0.362880
C 1.899469 -2.344767 0.155390
C 2.101959 -2.339531 0.463292
C 2.141923 -2.394857 0.652118
C 2.331873 -2.306965 1.020606
C 2.434617 -2.157004 1.386263
C 2.492541 -2.079588 1.685195
C 2.408862 -2.006329 1.702653
C 2.327423 -1.897864 1.777656
C 2.179090 -1.881661 1.754172
C 2.075567 -1.813074 1.754713
C 1.907998 -1.795103 1.775790
C 1.822671 -1.729726 1.852748
C 1.794526 -1.512627 1.984734
C 1.753819 -1.432336 2.200905
C 1.754763 -1.394370 2.322468
C 1.823680 -1.227130 2.605522
C 1.864833 -1.441048 2.557092
C 1.848739 -1.468377 2.393328
C 1.776366 -1.644737 2.134518
C 1.622391 -1.992056 1.762783
C 1.559507 -2.237722 1.494445
C 1.398913 -2.499183 1.114135
C 1.161740 -2.887970 0.511069
C 1.075233 -2.838985 0.431662
C 0.918398 -2.924107 0.260592
C 0.578111 -2.980869 -0.086119
C 0.428616 -3.074038 -0.338917
C 0.379707 -3.045517 -0.269999
C 0.223463 -3.055648 -0.446926
C 0.096693 -3.019372 -0.462426
C -0.104602 -2.999142 -0.722428
C -0.182021 -3.056584 -0.834172
C -0.157230 -3.114933 -0.819202
C -0.088715 -3.081853 -0.470156
C -0.203878 -3.211132 -0.559893
C -0.191092 -3.286098 -0.392430
C -0.184277 -3.331006 -0.290580
C -0.111645 -3.326913 -0.025505
C -0.068845 -3.425317 0.189603
C -0.012627 -3.361137 0.367952
C -0.143519 -3.309395 0.133835
C -0.280659 -3.245661 0.092275
C -0.354743 -3.244333 0.188599
C -0.367214 -3.201804 0.324679
C -0.485575 -3.194333 0.253287
C -0.641573 -3.093540 0.135086
C -0.700072 -3.070316 0.229176
C -0.755158 -3.016103 0.228920
C -0.708705 -2.981904 0.375398
C -0.595141 -2.802385 0.578955
C -0.553998 -2.646839 0.708946
C -0.440552 -2.572265 0.962423
C -0.283110 -2.518002 1.360818
C -0.177223 -2.394692 1.618364
C -0.091717 -2.408084 2.009630
C -0.020257 -2.359036 2.195740
C -0.051484 -2.420352 2.260236
C -0.181923 -2.541449 2.183714
C -0.224294 -2.507616 2.204764
C -0.296034 -2.385648 2.157967
C -0.180824 -2.215166 2.331277
C -0.161927 -2.046742 2.297787
C -0.237943 -1.937377 2.101701
C -0.308380 -1.818505 1.943421
C -0.320818 -1.717574 2.091750
C -0.436472 -1.774831 1.978167
C -0.516568 -1.753999 1.835295
C -0.668755 -1.788788 1.759370
C -0.678747 -1.817978 1.901553
C -0.695409 -1.750107 2.155270
C -0.621873 -1.600268 2.406169
C -0.584956 -1.510851 2.522332
C -0.380555 -1.243273 2.834653
C -0.223242 -1.136377 3.198024
C -0.275735 -1.185823 3.265820
C -0.461081 -1.230757 3.212890
C -0.643490 -1.420201 2.955456
C -0.861588 -1.554797 2.707427
C -0.827263 -1.376427 2.639335
C -0.840715 -1.236866 2.655144
C -0.898204 -1.111114 2.623373
C -0.805977 -0.908792 2.612850
C -0.560631 -0.483322 2.717199
C -0.233415 0.052553 3.019638
C -0.027163 0.370490 3.213832
C -0.063595 0.351020 3.231065
C -0.209652 0.308778 3.210728
C -0.228278 0.395750 3.221615
C -0.311084 0.417639 3.232403
C -0.478191 0.202431 3.180720
C -0.753274 -0.058159 3.091546
C -0.816714 -0.054463 3.191103
C -0.877071 0.001466 3.284605
C -1.020577 -0.149462 3.202231
C -1.181727 -0.353121 2.981567
C -1.433564 -0.647820 2.765828
C -1.554886 -0.779837 2.445876
C -1.591011 -0.839797 2.148126
C -1.753527 -1.115067 1.550199
C -1.867695 -1.328111 1.048182
C -1.981727 -1.484014 0.691145
C -2.158443 -1.660901 0.305589
C -2.259474 -1.731083 -0.034393
C -2.319809 -1.817854 -0.358166
C -2.440852 -1.944533 -0.536453
C -2.245197 -1.455742 0.026909
C -2.348157 -1.530538 -0.057558
C -2.370624 -1.515871 -0.313921
C -2.401523 -1.419706 -0.457665
C -2.418862 -1.270602 -0.671010
C -2.496158 -1.206996 -0.639198
C -2.468595 -1.137933 -0.746339
C -2.783822 -1.579199 -1.284130
C -2.821323 -1.476898 -1.170452
C -2.876964 -1.437708 -0.900331
C -2.898932 -1.423785 -0.821306
C -2.847022 -1.429993 -0.423056
C -2.877960 -1.414618 -0.150194
C -2.901772 -1.334195 0.230340
C -2.934842 -1.324851 0.511488
C -2.851399 -1.287046 0.598313
C -2.813388 -1.200935 0.527091
C -2.681350 -1.151066 0.687947
C -2.653648 -1.132064 0.530104
C -2.644681 -1.098800 0.314185
C -2.674449 -1.070077 -0.062216
C -2.633721 -0.995629 -0.432672
C -2.681289 -0.928971 -0.513107
C -2.763386 -0.874298 -0.483093
C -2.881103 -0.823945 -0.374481
C -3.007575 -0.778735 -0.189879
C -3.117214 -0.708684 -0.062942
C -3.158848 -0.666817 0.271538
C -3.304145 -0.557346 0.591794
C -3.336745 -0.459923 0.886000
C -3.228145 -0.409022 1.176898
C -3.180433 -0.324852 1.346146
C -3.195201 -0.238150 1.391725
C -3.095642 -0.185997 1.524335
C -3.061353 -0.072869 1.704285
C -2.945633 -0.031573 1.914621
C -2.858049 0.009318 1.979829
C -2.843000 0.145403 2.061732
C -2.750636 0.293841 2.222245
C -2.586752 0.509468 2.392369
C -2.409034 0.722894 2.637664
C -2.367649 0.818847 2.561296
C -2.272092 0.860658 2.494610
C -2.180818 1.086173 2.550065
C -2.136199 1.116965 2.497273
C -2.159630 1.034380 2.257991
C -2.050752 1.088530 2.220577
C -2.049658 1.145525 2.150564
C -1.928410 1.246715 2.129957
C -1.838380 1.522538 2.195365
C -1.732567 1.614497 2.185254
C -1.655618 1.838573 2.169443
C -1.639193 1.917701 2.180532
C -1.873955 1.690449 1.717336
C -1.985891 1.527972 1.497667
C -2.051382 1.538415 1.442460
C -2.138806 1.441446 1.347504
C -2.230062 1.515968 1.227504
C -2.210314 1.533764 1.246764
C -2.250591 1.660873 1.275633
C -2.140419 1.866035 1.615555
C -2.223118 1.960501 1.400344
C -2.216853 2.021508 1.404399
C -2.400296 1.924926 1.222112
C -2.612161 1.598881 1.008751
C -2.882886 1.439924 0.791405
C -3.037275 1.436954 0.486013
C -3.111145 1.332653 0.365753
C -3.132116 1.392304 0.508061
C -3.252295 1.259755 0.370131
C -3.147207 1.441413 0.414785
C -3.050682 1.729576 0.485950
C -2.946604 1.841983 0.502591
C -2.846737 1.799774 0.693397
C -2.794289 1.908275 0.705354
C -2.745389 1.932464 0.773300
C -2.696839 2.020529 0.783010
C -2.748262 1.960769 0.702971
C -2.803783 1.824546 0.588212
C -2.870781 1.684688 0.425386
C -2.933567 1.599232 0.246152
C -3.013653 1.465675 0.043569
C -3.026456 1.328714 -0.154819
C -3.078188 1.143022 -0.422481
C -3.014107 0.901995 -0.610390
C -3.001972 0.701155 -0.778840
C -2.953903 0.580561 -0.816260
C -2.879974 0.590218 -0.785626
C -2.864589 0.819468 -0.837297
C -2.876388 0.993151 -0.889748
C -2.800024 1.335897 -0.733884
C -2.797037 1.720494 -0.629937
C -2.774295 2.076048 -0.559670
C -2.673869 2.436503 -0.403268
C -2.222199 2.767386 0.056986
C -2.197859 2.425525 -0.305026
C -2.049904 2.498332 -0.191760
C -1.973523 2.404194 -0.206837
C -1.818939 2.270220 -0.185487
