381
chr4 3D structure from Hi-C (resolution 500000bp)
C -3.775501 0.596093 -0.848596
C -3.781297 0.495750 -0.771714
C -3.800442 0.404486 -0.679941
C -3.779659 0.282439 -0.639588
C -3.816314 0.159885 -0.572093
C -3.737233 0.042418 -0.589817
C -3.625144 -0.134330 -0.670113
C -3.496143 -0.241629 -0.834319
C -3.382764 -0.361937 -0.968269
C -3.263772 -0.471307 -1.109015
C -3.205233 -0.528005 -1.175892
C -3.111819 -0.630786 -1.249674
C -3.094814 -0.639471 -1.369104
C -3.087946 -0.694724 -1.424559
C -3.036704 -0.739704 -1.514905
C -3.058988 -0.565571 -1.657628
C -2.991743 -0.589681 -1.738046
C -2.789188 -0.652487 -1.835442
C -2.644789 -0.754125 -1.832368
C -2.532982 -0.829471 -1.875359
C -2.339891 -0.833954 -2.047501
C -2.139123 -0.799798 -2.219753
C -1.926053 -0.944530 -2.328180
C -1.850813 -0.884359 -2.498097
C -1.829306 -0.761651 -2.742555
C -1.754013 -0.691309 -2.928153
C -1.688677 -0.700111 -2.968236
C -1.710895 -0.754008 -2.901842
C -1.852999 -0.859884 -2.751506
C -1.900690 -0.971528 -2.635409
C -1.797571 -1.055928 -2.628436
C -1.746459 -1.131019 -2.607467
C -1.823518 -1.054313 -2.611994
C -1.712567 -1.074038 -2.637054
C -1.528590 -1.105310 -2.731987
C -1.240280 -0.998987 -2.935224
C -0.936953 -0.921981 -3.111566
C -0.830548 -0.907038 -3.152428
C -0.726052 -0.952539 -3.138127
C -0.463013 -1.076734 -3.179396
C -0.358489 -1.047936 -3.267482
C -0.373700 -1.076211 -3.198535
C -0.431688 -1.162269 -3.159020
C -0.449827 -1.217952 -3.120513
C -0.353341 -1.247564 -3.160724
C -0.393454 -1.319792 -3.145775
C -0.577757 -1.426302 -3.035311
C -0.817114 -1.524529 -2.809914
C -0.976866 -1.569798 -2.687274
C -1.139355 -1.685261 -2.467933
C -1.362686 -1.835950 -2.265411
C -1.477451 -1.974245 -2.095595
C -1.438368 -2.067641 -1.987907
C -1.224330 -2.064097 -2.008006
C -0.822670 -2.056928 -2.208750
C -0.495615 -2.058365 -2.356135
C -0.096285 -2.012705 -2.538355
C 0.088331 -2.007196 -2.630072
C 0.140807 -2.015934 -2.603038
C 0.216992 -2.011883 -2.630061
C 0.344167 -1.999587 -2.662944
C 0.313633 -2.042659 -2.569616
C 0.304417 -2.089065 -2.493611
C 0.336160 -2.150962 -2.439252
C 0.623894 -2.088963 -2.481007
C 0.762067 -2.111872 -2.485335
C 1.074209 -1.890499 -2.632157
C 0.995843 -1.918004 -2.532155
C 0.907858 -2.006649 -2.453313
C 0.677554 -1.980565 -2.284954
C 0.365885 -2.047447 -2.065025
C -0.024289 -2.123574 -1.842121
C -0.442821 -2.068339 -1.645967
C -1.058159 -2.181439 -1.206025
C -1.460953 -2.112910 -0.942678
C -1.944372 -1.920803 -0.648107
C -2.283529 -1.758974 -0.449057
C -2.513125 -1.649088 -0.245791
C -2.747713 -1.581456 -0.050383
C -2.735794 -1.597422 0.010335
C -2.647896 -1.778687 -0.038050
C -2.496108 -1.944045 -0.130055
C -2.204876 -2.148648 -0.315361
C -1.422144 -2.338571 -0.645335
C -0.782486 -2.434312 -0.947201
C -0.197275 -2.520270 -1.264308
C 0.295578 -2.599938 -1.511511
C 0.608148 -2.613420 -1.693605
C 0.978756 -2.646179 -1.839541
C 1.219484 -2.753045 -1.898337
C 0.906190 -2.901578 -1.814678
C 0.570103 -3.011376 -1.680575
C 0.096080 -3.073100 -1.450720
C -0.326314 -2.959502 -1.192433
C -0.693089 -2.862235 -0.988223
C -0.495664 -2.599316 -1.154598
C -0.125854 -2.156859 -1.382948
C -0.656918 -1.499122 -1.035694
C -1.167446 -0.876917 -0.730014
C -0.381916 -0.605219 -0.950852
C -0.621274 -0.548071 -0.760380
C -0.454700 -0.628945 -0.713337
C -1.016160 -0.793224 -0.252914
C -1.727294 -1.129496 0.251799
C -1.334367 -1.616339 0.127977
C -0.959181 -2.198308 0.011170
C -1.537145 -2.522599 0.332064
C -1.118087 -2.677411 0.195732
C -1.161292 -2.627835 0.305502
C -1.082328 -2.691726 0.347682
C -0.915821 -2.643416 0.353197
C -0.730268 -2.694023 0.401625
C -0.395236 -2.738555 0.322012
C -0.253716 -2.703141 0.319527
C -0.108410 -2.790559 0.393121
C 0.145486 -2.886192 0.346125
C 0.377847 -2.879894 0.303510
C 0.722858 -2.871697 0.215452
C 0.921801 -2.911659 0.144419
C 1.019629 -2.864656 0.135708
C 1.258707 -2.866886 0.044089
C 1.450154 -2.813765 -0.084879
C 1.507017 -2.745098 -0.107849
C 1.586859 -2.781039 -0.095925
C 1.581906 -2.821058 -0.063054
C 1.605258 -2.837338 -0.003246
C 1.621680 -2.820488 0.090520
C 1.486296 -2.710213 0.246014
C 1.479962 -2.632724 0.343984
C 1.548970 -2.587461 0.443952
C 1.486133 -2.535765 0.572095
C 1.383632 -2.493493 0.723423
C 1.140873 -2.340070 0.830033
C 1.338943 -2.227560 0.688777
C 0.589436 -1.821012 0.843432
C -0.127290 -1.591340 1.034305
C -0.194941 -1.600106 1.089382
C 0.055132 -1.550030 0.906296
C -0.001275 -1.635644 1.002862
C 0.377521 -1.687160 0.787674
C -0.016322 -1.786744 1.077977
C 0.911936 -2.241639 0.880355
C 1.347438 -2.609734 0.897139
C 1.079101 -2.651868 0.983885
C 0.518615 -2.636534 1.239186
C 0.337406 -2.559235 1.272321
C -0.151337 -2.601410 1.547282
C -0.338406 -2.431672 1.560859
C -1.001192 -2.253903 1.744278
C -1.258368 -1.968978 1.705215
C -1.347227 -1.746203 1.664466
C -1.424972 -1.684355 1.670253
C -1.629767 -1.578551 1.666236
C -1.675289 -1.462808 1.711311
C -1.854271 -1.472867 1.836095
C -1.741383 -1.554334 1.946802
C -1.614174 -1.634482 2.058113
C -1.663965 -1.624520 2.205178
C -1.682043 -1.592018 2.355625
C -1.567863 -1.588920 2.452955
C -1.493411 -1.623085 2.502752
C -1.302197 -1.639714 2.498353
C -1.376171 -1.494532 2.472707
C -1.572704 -1.293327 2.433126
C -1.285386 -1.396412 2.368618
C -0.946814 -1.505570 2.328066
C -0.685099 -1.582644 2.290146
C -0.547546 -1.527500 2.262352
C -0.486117 -1.454916 2.263783
C -0.159681 -1.570999 2.280586
C -0.135007 -1.558025 2.337325
C -0.292820 -1.401314 2.342372
C -0.307835 -1.240109 2.249014
C -0.407281 -1.103068 2.256475
C -0.501714 -1.063816 2.406028
C -0.415136 -1.120746 2.417043
C -0.393152 -1.117836 2.537449
C 0.157042 -1.304685 2.584777
C 0.573613 -1.465318 2.520973
C 0.800953 -1.521231 2.576470
C 1.212583 -1.585329 2.526828
C 1.655738 -1.650620 2.362991
C 2.006905 -1.639774 2.278681
C 2.243742 -1.566573 2.073355
C 2.342728 -1.478400 1.931143
C 2.270479 -1.378270 2.001721
C 2.157889 -1.275824 1.947981
C 2.136801 -1.153238 1.849470
C 2.194956 -1.094414 1.647652
C 2.290492 -1.054951 1.473565
C 2.415342 -1.028577 1.347456
C 2.481729 -1.051678 1.236830
C 2.770347 -1.030764 0.956398
C 3.012017 -1.025232 0.864487
C 2.842207 -1.060195 0.949473
C 2.653362 -0.976255 1.130413
C 2.285264 -0.906579 1.429138
C 2.033209 -0.854256 1.694792
C 1.849471 -0.763737 1.951695
C 1.225681 -0.653131 2.383691
C 0.996601 -0.585486 2.540256
C 0.901911 -0.441958 2.612983
C 0.416121 -0.290411 2.744970
C 0.404242 -0.213775 2.840121
C 0.481857 -0.154801 2.782937
C 0.060650 0.014050 2.793275
C -0.052518 0.151667 2.723587
C -0.442599 0.277998 2.727493
C -0.661492 0.353086 2.758936
C -0.441084 0.303202 2.870761
C -0.168286 0.298077 2.674340
C -0.204094 0.304047 2.725153
C -0.132023 0.295898 2.780760
C 0.036949 0.283301 2.861821
C 0.260056 0.225122 2.868309
C 0.324679 0.281821 2.918659
C 0.242405 0.345679 2.801999
C -0.180111 0.455010 2.872470
C -0.307499 0.567075 2.900529
C -0.017001 0.596471 2.914509
C 0.101297 0.613767 2.902902
C 0.019856 0.745220 2.901755
C 0.039015 0.792212 2.860588
C 0.111445 0.839615 2.877743
C 0.019289 0.909894 2.845564
C 0.119049 0.891003 2.851630
C 0.139285 0.900226 2.743328
C 0.233107 0.899497 2.600440
C 0.397968 0.859302 2.579080
C 0.696539 0.803073 2.522532
C 0.974518 0.812178 2.402488
C 1.484109 0.730411 2.367250
C 1.630119 0.795276 2.315943
C 1.732272 0.894043 2.325262
C 1.664303 0.982686 2.409945
C 1.768109 1.060324 2.369474
C 1.773184 1.122137 2.257379
C 1.973472 1.045050 2.149916
C 1.882966 1.097492 2.095777
C 1.655258 1.124038 1.970698
C 1.457572 1.100221 1.857522
C 1.501193 1.142700 1.786599
C 1.347657 1.136828 1.770959
C 1.149372 1.130555 1.764134
C 0.836523 1.374775 1.894206
C 0.854094 1.515932 1.923934
C 1.101624 1.555047 1.934376
C 1.365389 1.562524 1.894716
C 1.595606 1.493750 1.736059
C 1.923731 1.479555 1.620186
C 2.337377 1.473264 1.563399
C 2.577104 1.459686 1.447041
C 2.317803 1.514790 1.564776
C 1.907823 1.658178 1.645584
C 1.561679 1.745117 1.712021
C 1.456408 1.795183 1.660620
C 1.508684 1.831040 1.569107
C 1.480794 1.835892 1.473141
C 1.537086 1.702645 1.320511
C 1.963571 1.455023 0.825101
C 2.484943 1.176663 0.390418
C 2.865501 1.096480 0.092098
C 2.905605 1.077404 0.034428
C 2.860152 1.106950 0.034752
C 2.883808 1.091421 -0.065101
C 2.881130 1.140358 -0.105284
C 2.851924 1.240709 0.004269
C 2.789937 1.295489 0.065545
C 2.834417 1.207162 -0.013438
C 2.930443 1.149185 -0.120744
C 2.891284 1.200161 -0.145289
C 2.647014 1.332433 -0.006841
C 2.343286 1.568621 0.186787
C 1.910056 1.671460 0.381748
C 1.564273 1.839789 0.548169
C 1.000507 2.004727 0.822807
C 0.468185 2.141645 1.058518
C -0.051967 2.157254 1.240571
C -0.492993 2.192549 1.353719
C -0.878336 2.120523 1.403691
C -1.015321 2.236160 1.437670
C -1.218906 2.314925 1.539345
C -1.405298 2.364360 1.531526
C -1.514402 2.497327 1.508371
C -1.580193 2.627729 1.418781
C -1.602607 2.748710 1.286258
C -0.970115 2.530131 0.830931
C -1.075539 2.492942 0.736315
C -1.165678 2.426210 0.649102
C -1.028053 2.431619 0.535895
C -0.836747 2.424901 0.522964
C -0.712816 2.406793 0.528764
C -0.709774 2.356983 0.476955
C -1.092849 2.630945 0.794887
C -0.707609 2.685107 0.762917
C -0.343120 2.751896 0.692085
C -0.033319 2.858397 0.716134
C -0.017627 2.808386 0.634816
C 0.000109 2.746259 0.585738
C 0.161095 2.681774 0.629315
C 0.038720 2.593681 0.612657
C -0.383987 2.492317 0.602440
C -0.816726 2.446412 0.607712
C -1.234455 2.314035 0.592059
C -1.235695 2.359516 0.556356
C -1.076661 2.470286 0.564088
C -0.963539 2.580963 0.515471
C -0.743033 2.719767 0.471820
C -0.480936 2.901933 0.421260
C -0.097351 2.995268 0.341059
C 0.456922 3.111171 0.265450
C 0.718760 3.155210 0.193115
C 0.896039 3.061589 0.041131
C 1.032676 3.021309 -0.038241
C 1.029319 3.015748 -0.117205
C 1.095909 2.941970 -0.167298
C 1.303216 2.906167 -0.320408
C 1.355674 2.847089 -0.512194
C 1.459364 2.690868 -0.632563
C 1.517013 2.619985 -0.786442
C 1.723289 2.494252 -0.987810
C 1.925168 2.361455 -1.150392
C 2.154893 2.317460 -1.280579
C 2.009629 2.336309 -1.258653
C 1.879673 2.321831 -1.233108
C 1.897018 2.279829 -1.385855
C 1.845194 2.307421 -1.347049
C 1.575109 2.318607 -1.216305
C 1.559026 2.234575 -1.307869
C 1.504532 2.144816 -1.418186
C 1.549640 1.994973 -1.560265
C 1.631194 1.863482 -1.785994
C 1.565743 1.842746 -1.860760
C 1.552241 1.774326 -2.025755
C 1.505123 1.846547 -2.074338
C 1.032812 2.010799 -1.836932
C 0.836695 2.083352 -1.664832
C 0.750402 2.211236 -1.596322
C 0.547744 2.407678 -1.391405
C 0.472613 2.365042 -1.483120
C 0.375705 2.372312 -1.519256
C 0.469682 2.343147 -1.673609
C 0.787859 2.274337 -1.864038
C 0.612675 2.367742 -1.928471
C 0.592514 2.355462 -1.997258
C 0.562498 2.374027 -2.056677
C 0.458388 2.532620 -1.801285
C 0.480270 2.532241 -1.831546
C 0.443758 2.488758 -1.946172
C 0.333915 2.501156 -1.935116
C 0.525675 2.433246 -2.091808
C 0.422303 2.477708 -2.026081
C 0.419628 2.395908 -2.161382
C 0.330689 2.419844 -2.300820
C 0.170263 2.487099 -2.265329
C 0.052937 2.566969 -2.120171
C -0.044735 2.620298 -2.119316
C -0.138734 2.661905 -2.006696
C -0.202840 2.620989 -2.068990
C -0.300072 2.608452 -2.017683
C -0.430697 2.611597 -1.920077
C -0.547324 2.670456 -1.791271
C -0.723951 2.687293 -1.708515
C -0.809114 2.636195 -1.617763
C -0.968867 2.580708 -1.560353
C -1.182160 2.520156 -1.393689
C -1.360978 2.524176 -1.172064
C -1.441103 2.520153 -0.986186
C -1.453813 2.492002 -0.868941
C -1.388477 2.471685 -0.833053
C -1.417664 2.473461 -1.043576
C -1.367957 2.426954 -1.271640
C -1.328117 2.442157 -1.486392
C -1.354978 2.430469 -1.695811
C -1.344347 2.402066 -1.996359
C -1.397929 2.401186 -2.176284
C -0.785869 1.975399 -2.382208
C -0.111169 1.569116 -2.401377
C 0.062744 1.453212 -2.375317
C 0.405236 1.287931 -2.390457
C 1.000296 1.021534 -2.453070
