277
chr9 3D structure from Hi-C (resolution 500000bp)
C -0.108408 3.118725 0.426793
C -0.097945 3.195081 0.259927
C -0.070645 3.280782 0.380969
C -0.030154 3.380270 0.505850
C 0.096820 3.494018 0.527848
C 0.091857 3.657080 0.536091
C -0.039141 3.737521 0.513842
C -0.146844 3.836494 0.608128
C -0.251212 3.920449 0.733711
C -0.363158 3.932973 0.610598
C -0.476832 3.846461 0.392902
C -0.375940 3.798981 0.263638
C -0.142297 3.803844 0.361737
C 0.189861 3.771564 0.408591
C 0.606675 3.662507 0.302933
C 1.054682 3.562421 0.326670
C 1.505197 3.475196 0.377638
C 1.944381 3.393057 0.387989
C 2.275408 3.136550 0.264238
C 2.538893 2.897686 0.087438
C 2.823582 2.674785 -0.058395
C 2.990423 2.565529 -0.084095
C 3.023292 2.487018 -0.247943
C 3.164188 2.421675 -0.297649
C 3.241156 2.460904 -0.192703
C 3.037986 2.716530 -0.091580
C 2.785793 2.918464 -0.089075
C 2.489315 3.087938 -0.209378
C 2.424771 3.202822 -0.408322
C 2.293048 3.197272 -0.500898
C 2.136819 3.276446 -0.713688
C 2.082412 3.156308 -1.003126
C 2.187790 2.970740 -1.217467
C 2.230778 2.885721 -1.424912
C 2.207672 2.833512 -1.534718
C 1.860493 2.882454 -1.536061
C 1.767090 3.006444 -1.615222
C 1.502884 3.017103 -1.702269
C 1.093671 3.145579 -1.715128
C 0.770743 3.314917 -1.731836
C 0.630500 3.318536 -1.748028
C 0.680121 3.260094 -1.860591
C 1.089610 2.980784 -1.955019
C 1.350798 2.629367 -2.072991
C 1.674800 2.330106 -2.122727
C 2.208903 2.007476 -2.180828
C 2.687439 1.656083 -2.240654
C 3.059530 1.333934 -2.316317
C 3.211802 1.115249 -2.371109
C 3.152722 1.007719 -2.503818
C 2.966691 1.133138 -2.507191
C 2.681065 1.310289 -2.554969
C 2.249685 1.575533 -2.692955
C 1.926730 1.751623 -2.812316
C 1.585242 1.926866 -2.959901
C 1.351315 2.044827 -3.027067
C 1.238800 2.186288 -3.021449
C 1.289330 2.073526 -3.221831
C 1.405101 2.054110 -3.390517
C 1.402095 2.039510 -3.481502
C 1.239838 2.136188 -3.532992
C 0.988618 2.258343 -3.458428
C 0.673901 2.450526 -3.281524
C 0.094223 2.654065 -3.069354
C -0.510568 2.979158 -2.547584
C -1.115664 3.095665 -2.020110
C -1.589583 3.209400 -1.464878
C -1.967551 3.291536 -0.862368
C -2.223719 3.353965 -0.335076
C -2.510198 3.412821 -0.058249
C -2.560798 3.405280 0.025976
C -2.559860 3.317937 -0.031736
C -2.484389 3.285643 -0.191073
C -2.338952 3.199197 -0.442663
C -2.245798 3.195279 -0.909081
C -1.251292 2.671113 -1.122327
C -0.168786 2.062071 -1.154154
C 0.820546 1.374057 -1.023542
C 1.769511 0.696790 -0.981710
C 2.692006 0.019484 -0.948297
C 3.568103 -0.644699 -0.943644
C 4.409179 -1.278624 -0.928871
C 4.332899 -1.434624 -1.127661
C 4.206740 -1.604733 -1.402367
C 3.495882 -0.864668 -0.895352
C 2.899723 -0.131980 -0.302013
C 2.374030 0.515575 0.423736
C 2.037627 0.690727 1.247305
C 1.790643 0.746850 2.164802
C 1.581153 0.994093 3.073041
C 1.349802 1.452894 3.975855
C 1.667491 1.165982 4.084580
C 1.870488 0.880507 4.181713
C 2.000802 0.573677 4.253636
C 1.931471 0.615760 4.294431
C 1.841335 0.454276 4.306965
C 1.781400 0.149660 4.286198
C 1.863217 -0.308139 4.185277
C 2.104863 -0.787437 3.972413
C 2.445336 -1.209944 3.652137
C 2.814821 -1.558500 3.224770
C 3.183035 -1.846714 2.723018
C 3.480896 -2.004902 2.283223
C 3.660386 -2.156055 1.977042
C 3.665550 -2.304547 1.858941
C 3.481330 -2.482105 1.921925
C 3.157458 -2.688721 2.108985
C 2.763777 -2.862072 2.393710
C 1.811200 -2.156322 1.712517
C 1.784882 -2.212712 1.369603
C 1.817779 -2.263572 1.002835
C 1.900238 -2.344765 0.601621
C 2.044237 -2.452007 0.176320
C 2.228056 -2.572636 -0.221510
C 2.405611 -2.705601 -0.542313
C 3.105054 -3.636902 0.265047
C 2.910968 -3.703346 0.790646
C 2.870176 -3.379157 1.366512
C 2.873679 -2.929327 1.866902
C 2.914099 -2.360369 2.302706
C 2.978757 -1.653994 2.637969
C 3.067639 -0.838020 2.902424
C 3.204993 -0.002831 3.007789
C 3.445535 0.723360 3.007653
C 3.561766 0.989907 2.845602
C 3.673252 1.095890 2.638125
C 3.801834 1.015812 2.419012
C 3.948955 0.757870 2.119247
C 4.165476 0.472556 1.783797
C 4.380789 0.247400 1.531036
C 4.159864 0.421243 1.651669
C 3.818442 0.708603 1.864653
C 3.386711 1.100253 2.114154
C 2.259333 1.464681 1.502552
C 1.296612 1.681439 0.974365
C 0.323025 1.820648 0.498891
C -0.581110 1.805705 -0.140557
C -1.143910 1.508781 -1.141176
C -1.564733 1.118170 -2.113906
C -1.733409 0.633939 -3.191912
C -1.322219 0.288075 -3.419528
C -1.095593 0.086425 -3.587468
C -0.945062 -0.039557 -3.805705
C -0.703133 -0.219068 -3.918249
C -0.350189 -0.480790 -3.996682
C -0.060733 -0.663628 -4.087366
C -0.122997 -0.763310 -4.055742
C -0.094003 -0.830424 -3.901206
C 0.077456 -0.890953 -3.826334
C 0.080376 -0.989922 -3.619330
C -0.128276 -1.008006 -3.496032
C -0.512458 -0.959392 -3.461762
C -0.760479 -1.039610 -3.423927
C -0.859930 -1.137605 -3.293779
C -0.754301 -1.345739 -3.316551
C -0.805773 -1.529207 -3.287165
C -0.684843 -1.712097 -3.371547
C -0.249667 -1.891316 -3.329481
C 0.138123 -2.103828 -3.211658
C 0.459778 -2.147133 -3.190902
C 0.841783 -2.204346 -3.247844
C 1.112328 -2.233287 -3.209060
C 1.272410 -2.265213 -3.165777
C 1.160219 -2.213748 -3.158343
C 0.597580 -2.093292 -3.183072
C 0.086958 -1.842082 -3.157733
C -0.448332 -1.676123 -2.950249
C -1.050800 -1.555496 -2.846084
C -1.839675 -1.400702 -2.761374
C -2.409571 -1.072214 -2.579304
C -2.642032 -1.013821 -2.405298
C -2.747060 -0.923790 -2.224350
C -2.815864 -0.936452 -2.078543
C -2.947164 -0.967935 -2.033975
C -3.017392 -0.955297 -1.899302
C -3.081076 -0.753262 -1.810951
C -3.211892 -0.735932 -1.674148
C -3.431899 -0.579945 -1.588136
C -3.500061 -0.454218 -1.389270
C -3.649737 -0.361885 -1.229346
C -3.699300 -0.140093 -1.138330
C -3.838079 0.133174 -0.991905
C -3.815265 0.118352 -0.669387
C -3.862835 0.300076 -0.594569
C -3.830985 0.426891 -0.427681
C -3.925886 0.685361 -0.206261
C -3.865049 0.797189 -0.025069
C -3.914056 0.868536 0.238969
C -3.899756 0.855206 0.454699
C -3.959968 0.868924 0.506428
C -3.976302 0.890760 0.729087
C -4.055114 0.841016 0.914163
C -3.942999 0.558737 0.823983
C -3.848548 0.393908 0.765215
C -3.692333 0.092984 0.614956
C -3.661105 -0.262756 0.472873
C -3.638121 -0.618364 0.307046
C -3.517153 -1.109362 -0.105633
C -3.257736 -1.537823 -0.491808
C -3.111152 -1.996591 -0.819859
C -2.825657 -2.353634 -1.157692
C -2.309944 -2.657047 -1.390767
C -1.729660 -2.866501 -1.663946
C -1.067990 -3.025551 -1.910416
C -0.535430 -3.201279 -2.015284
C -0.136356 -3.337729 -2.083015
C 0.090267 -3.291676 -2.010512
C 0.133092 -3.350887 -1.856841
C -0.057481 -3.422456 -1.843274
C -0.023844 -3.548232 -1.705772
C -0.159568 -3.590680 -1.549437
C -0.402562 -3.506495 -1.380298
C -0.635633 -3.426675 -1.199339
C -0.748484 -3.414334 -1.142942
C -0.909811 -3.343013 -1.091317
C -1.152395 -3.264027 -0.868408
C -1.344891 -3.220447 -0.507364
C -1.496961 -3.133583 -0.245037
C -1.499147 -3.173865 0.075534
C -1.343402 -3.161990 0.401175
C -1.331851 -3.143659 0.822344
C -1.279218 -3.201664 1.192545
C -1.193213 -3.107618 1.369669
C -1.473651 -2.919509 1.290127
C -1.636572 -2.798850 1.289454
C -1.792083 -2.693466 1.177194
C -2.029653 -2.698807 1.126721
C -2.063244 -2.641997 0.842213
C -1.839782 -2.728334 0.685409
C -1.571981 -2.848344 0.594317
C -1.385496 -2.984165 0.456230
C -1.239835 -3.175666 0.332982
C -0.975657 -3.334484 0.257749
C -0.621648 -3.466985 0.100304
C -0.373497 -3.726488 0.153084
C -0.432618 -3.784917 0.132983
C -0.538301 -3.832420 0.104414
C -0.604431 -3.789688 0.164465
C -0.815932 -3.626165 0.367404
C -1.045228 -3.326894 0.596453
C -1.503005 -3.006785 0.824279
C -1.887511 -2.582348 1.066416
C -2.226251 -2.292262 1.359285
C -2.485232 -2.033815 1.766832
C -2.476070 -1.954107 2.176881
C -2.380233 -1.875728 2.317369
C -2.222744 -2.015721 2.596459
C -1.939847 -2.082430 2.901605
C -1.644931 -2.189968 3.168528
C -1.535766 -2.053438 3.234884
C -1.430633 -1.987170 3.285072
C -1.311954 -1.764873 3.396748
C -1.143079 -1.548327 3.641343
C -1.107047 -1.232375 3.768556
C -1.088139 -0.753912 3.834242
C -1.101319 -0.348414 3.913540
C -1.000593 -0.107604 4.023488
C -0.993192 0.123648 4.091177
C -1.082001 0.317323 4.108879
C -1.217149 0.480449 4.043913
C -1.343119 0.634276 3.955119
C -1.552765 0.473949 3.889883
C -1.758617 0.337283 3.835055
C -1.950631 0.331426 3.814461
C -2.078836 0.395191 3.740121
C -2.212392 0.479489 3.617675
C -2.347708 0.362361 3.561009
C -2.539606 0.283172 3.462310
C -2.655255 0.406570 3.380690
C -2.720345 0.621477 3.319988
C -2.573191 0.830819 3.363454
C -2.503039 1.043327 3.398159
C -2.494242 1.178987 3.360965
C -2.380415 1.598150 3.362582
C -2.282409 1.801907 3.415637
C -2.156979 1.994648 3.451010
C -2.061075 2.163853 3.438707
