277
chr9 3D structure from Hi-C (resolution 500000bp)
C -0.200988 3.002699 1.126711
C -0.200890 3.044354 1.077097
C -0.116651 3.189856 1.063257
C -0.129672 3.310616 1.006583
C 0.013031 3.451711 0.844648
C -0.018868 3.600912 0.835431
C -0.181623 3.655537 0.787552
C -0.210144 3.744607 0.895278
C -0.338945 3.806546 1.018084
C -0.520546 3.758836 0.980263
C -0.624120 3.686020 0.932555
C -0.561186 3.671597 0.865151
C -0.279632 3.739715 0.900915
C 0.053664 3.756749 0.817392
C 0.273513 3.721703 0.535177
C 0.729148 3.725186 0.314145
C 1.174767 3.707713 0.221888
C 1.549528 3.698620 0.100319
C 1.858879 3.576773 -0.021798
C 2.000141 3.428235 -0.181801
C 2.215412 3.315585 -0.298288
C 2.394958 3.202859 -0.435710
C 2.390632 3.149965 -0.602183
C 2.529750 3.028991 -0.777065
C 2.714228 2.822147 -0.942355
C 2.509243 2.909696 -1.018477
C 2.289469 2.974449 -1.085805
C 2.039171 3.029956 -1.260227
C 2.004916 3.084876 -1.443827
C 1.876098 2.975569 -1.576583
C 1.740517 2.981292 -1.747360
C 1.600563 3.065614 -1.825378
C 1.595277 2.983175 -1.974209
C 1.526619 2.983277 -2.088727
C 1.475643 2.990742 -2.122778
C 1.090069 3.041395 -1.950966
C 0.926272 3.245028 -1.940491
C 0.624497 3.358873 -1.821970
C 0.230108 3.441087 -1.650183
C 0.003989 3.552012 -1.478367
C -0.022526 3.450586 -1.549330
C -0.007482 3.360939 -1.677729
C 0.411265 3.152381 -1.947525
C 0.661266 2.854938 -2.107299
C 0.923327 2.573232 -2.341566
C 1.331423 2.325991 -2.690528
C 1.735477 1.942754 -2.997611
C 2.020963 1.755054 -3.137259
C 2.109509 1.591908 -3.243622
C 1.950626 1.559161 -3.373738
C 1.746411 1.617112 -3.339610
C 1.382641 1.832249 -3.200325
C 1.026387 2.055305 -3.101219
C 0.627033 2.262422 -3.082351
C 0.215533 2.450887 -3.088662
C -0.132727 2.573544 -3.042925
C -0.392686 2.647171 -3.014941
C -0.390881 2.580662 -3.220220
C -0.294012 2.430100 -3.535495
C -0.452881 2.465249 -3.521647
C -0.567370 2.551090 -3.480371
C -0.749164 2.629842 -3.280059
C -0.928826 2.742476 -3.024681
C -1.204228 2.949441 -2.440378
C -1.639877 3.137365 -1.772295
C -2.022080 3.303497 -0.977339
C -2.137487 3.297022 -0.286757
C -2.278127 3.301509 0.446023
C -2.323361 3.281621 0.983541
C -2.456846 3.290639 1.388281
C -2.535026 3.169631 1.355604
C -2.630133 3.107405 1.339774
C -2.650229 3.093129 1.157729
C -2.654917 3.035205 0.785794
C -2.719837 3.065709 0.299559
C -2.184325 3.109311 0.451492
C -1.354198 3.065247 0.635896
C -0.446219 3.011584 0.928628
C 0.561269 2.969699 1.100609
C 1.496938 2.508322 0.704507
C 2.248933 1.989404 0.209631
C 3.007711 1.409765 -0.183585
C 3.229664 0.759183 -1.082810
C 3.329906 0.137599 -1.894536
C 3.388839 -0.475793 -2.577252
C 3.430333 -1.104732 -3.094782
C 3.463231 -1.400679 -2.898896
C 3.625991 -1.635799 -2.459612
C 3.835531 -1.906626 -1.913329
C 3.981610 -2.058640 -1.356481
C 4.106169 -1.756425 -0.704734
C 4.154431 -1.338892 -0.067012
C 4.131393 -0.859577 0.607483
C 4.082989 -0.379776 1.255829
C 4.069576 0.040329 1.766643
C 4.096417 0.349746 2.084089
C 4.121847 0.522775 2.251113
C 4.129762 0.235033 2.134775
C 4.183063 -0.119559 1.818939
C 4.299252 -0.450940 1.301409
C 4.446526 -0.667357 0.710595
C 4.565130 -0.708279 0.213782
C 4.639449 -0.603146 -0.109962
C 4.691784 -0.435715 -0.267983
C 4.711182 -0.304996 -0.248068
C 4.625644 -0.430739 -0.001916
C 4.337591 -0.803606 0.446276
C 4.026970 -1.225355 0.969354
C 3.805914 -1.320877 1.589124
C 3.604928 -1.861950 1.494177
C 3.361917 -2.425912 1.265186
C 3.101168 -2.951341 1.021871
C 2.927510 -3.239737 0.790775
C 2.960683 -3.306677 0.542726
C 3.033925 -3.358546 0.304442
C 3.038253 -3.774186 -0.032045
C 3.030681 -3.727575 0.338230
C 3.051791 -3.583059 0.854180
C 3.092893 -3.334470 1.389210
C 3.171462 -3.011977 1.830002
C 3.270756 -2.627855 2.160140
C 3.350594 -2.201790 2.477837
C 3.358390 -1.761771 2.701479
C 3.317145 -1.765807 2.117210
C 3.266776 -1.767866 1.349893
C 3.192848 -1.786253 0.475583
C 3.327818 -1.521849 -0.261932
C 3.469803 -1.252149 -0.898563
C 3.624587 -0.935365 -1.342138
C 3.781650 -0.632730 -1.627266
C 3.766686 0.106320 -0.839309
C 3.719928 0.828317 0.078011
C 3.660785 1.565796 1.032728
C 2.617939 1.792374 0.830880
C 1.471418 1.903673 0.851009
C 0.446092 1.769794 0.569764
C -0.587319 1.492848 0.073722
C -1.449987 1.312069 -0.767599
C -2.127779 0.964470 -1.707949
C -2.682374 0.542691 -2.766869
C -2.539515 0.355574 -2.763774
C -2.420765 0.245361 -2.922559
C -2.412167 0.224831 -3.023633
C -2.323585 0.160943 -3.154957
C -2.054390 -0.033855 -3.384407
C -1.879440 -0.130860 -3.513578
C -1.887014 -0.320577 -3.436631
C -1.880826 -0.499758 -3.288297
C -1.698921 -0.756169 -3.388825
C -1.551518 -0.906696 -3.421330
C -1.567921 -0.956782 -3.326944
C -1.737612 -1.158560 -3.159733
C -1.859406 -1.350639 -2.995073
C -1.784938 -1.366219 -2.872228
C -1.548776 -1.447463 -2.969770
C -1.430503 -1.442305 -3.026022
C -1.371646 -1.593408 -3.008133
C -1.028711 -1.692827 -3.151035
C -0.702691 -1.682866 -3.231068
C -0.376423 -1.648879 -3.346448
C -0.177427 -1.762136 -3.482721
C -0.014901 -1.820219 -3.583640
C 0.055825 -1.949530 -3.564300
C -0.009948 -1.944156 -3.584596
C -0.530121 -1.863887 -3.346437
C -1.050633 -1.671797 -3.051614
C -1.665916 -1.471409 -2.653244
C -2.197950 -1.143131 -2.346924
C -2.899256 -0.840078 -1.943356
C -3.373230 -0.615338 -1.514661
C -3.609535 -0.521504 -1.265590
C -3.574990 -0.565503 -1.117716
C -3.523747 -0.623199 -0.939272
C -3.512798 -0.745688 -0.926551
C -3.476590 -0.947540 -0.819248
C -3.505473 -1.085954 -0.601602
C -3.552085 -1.128530 -0.431040
C -3.702123 -1.005227 -0.208733
C -3.744421 -0.880450 0.083402
C -3.840668 -0.691466 0.240937
C -3.837973 -0.501270 0.491084
C -3.837320 -0.252276 0.797660
C -3.662157 -0.088653 0.950005
C -3.566976 -0.025031 1.228729
C -3.440614 0.042423 1.482401
C -3.386216 0.291373 1.774289
C -3.289911 0.190361 1.942372
C -3.222906 0.220892 2.204848
C -3.280087 0.114530 2.298206
C -3.335536 0.007233 2.416101
C -3.458977 0.089692 2.402637
C -3.545687 0.156837 2.417148
C -3.455692 -0.038053 2.266880
C -3.406006 -0.015330 2.144272
C -3.338938 -0.163255 1.778654
C -3.397204 0.059417 1.490889
C -3.517631 0.261377 1.136687
C -3.440506 -0.074106 0.640926
C -3.278424 -0.533602 0.093814
C -2.831315 -1.059324 -0.456431
C -2.539306 -1.421051 -0.870264
C -2.235082 -1.764287 -1.233492
C -1.648083 -2.342599 -1.577115
C -0.951984 -2.971614 -1.899461
C -0.506199 -3.106795 -2.046294
C -0.101388 -3.247258 -2.127054
C -0.372915 -3.111179 -2.053570
C -0.537041 -3.143465 -1.926748
C -0.731426 -3.179342 -1.779184
C -0.841537 -3.337936 -1.701954
C -1.123811 -3.352003 -1.591574
C -1.343435 -3.344693 -1.378877
C -1.605507 -3.293268 -1.169754
C -1.620441 -3.378568 -1.055391
C -1.587316 -3.414519 -0.940918
C -1.653971 -3.316933 -0.727165
C -1.844863 -3.235394 -0.313293
C -2.042187 -3.130287 0.020651
C -2.129734 -3.098693 0.227720
C -2.200774 -3.080277 0.520706
C -2.343516 -2.903287 0.904745
C -2.490695 -2.740189 1.177806
C -2.439587 -2.667307 1.354782
C -2.437773 -2.504835 1.409874
C -2.365618 -2.399786 1.456211
C -2.269379 -2.332903 1.519834
C -2.106552 -2.428318 1.504280
C -1.919756 -2.500282 1.253249
C -1.588747 -2.800727 1.029884
C -1.354298 -3.037708 0.836153
C -1.205880 -3.191052 0.689591
C -0.981632 -3.413728 0.581558
C -0.763618 -3.582299 0.399309
C -0.566185 -3.617427 0.186663
C -0.328497 -3.794508 0.233393
C -0.180743 -3.749408 0.238366
C -0.112579 -3.754032 0.291910
C -0.035207 -3.747971 0.338544
C -0.159205 -3.527814 0.626251
C -0.317918 -3.283017 0.940349
C -0.551531 -3.060943 1.298463
C -0.830709 -2.773384 1.612605
C -0.997475 -2.622094 2.028409
C -1.025070 -2.486785 2.388956
C -0.966128 -2.444438 2.680190
C -0.848053 -2.438685 2.788923
C -0.582624 -2.547709 2.971561
C -0.294240 -2.528113 3.176140
C -0.048631 -2.584232 3.331597
C -0.020868 -2.434933 3.394103
C -0.011682 -2.257410 3.504999
C 0.103708 -1.960442 3.682000
C 0.315219 -1.845150 3.844967
C 0.428847 -1.558911 3.922560
C 0.521923 -1.246628 4.003596
C 0.618971 -0.872530 4.086039
C 0.747291 -0.655761 4.189825
C 0.623969 -0.242215 4.242089
C 0.453497 0.049485 4.275035
C 0.234568 0.338014 4.267260
C -0.146294 0.565975 4.297742
C -0.497383 0.633472 4.285662
C -0.808732 0.590900 4.257675
C -0.978425 0.613009 4.271243
C -0.910229 0.432868 4.276039
C -0.884099 0.312775 4.266941
C -0.916385 0.105706 4.266949
C -0.839944 0.041027 4.228767
C -0.731477 0.035589 4.236499
C -0.520522 0.090953 4.237924
C -0.293408 0.254201 4.224087
C -0.088505 0.503261 4.225436
C -0.057213 0.708022 4.175072
C 0.124261 1.138821 4.171991
C 0.277014 1.238794 4.192367
C 0.411988 1.403288 4.174849
C 0.451574 1.660423 4.161567
