291
chr8 3D structure from Hi-C (resolution 500000bp)
C -3.375541 2.080076 0.003781
C -3.327616 2.301599 -0.024640
C -3.355305 2.222890 -0.189589
C -3.339274 2.034079 -0.377258
C -3.209811 2.052292 -0.545061
C -3.133046 1.981140 -0.734817
C -3.169568 1.577336 -1.032729
C -3.265079 1.154667 -1.283375
C -3.250502 0.781820 -1.501460
C -3.119260 0.429488 -1.517647
C -3.004381 0.169698 -1.405828
C -3.164884 0.025061 -1.205828
C -3.276193 0.249441 -0.882646
C -3.195089 -0.205360 -0.562021
C -2.870304 -0.632765 -0.344624
C -2.796376 -0.962915 -0.121871
C -2.913125 -1.132371 0.103251
C -3.084852 -1.181520 0.229921
C -2.884629 -1.418321 0.197330
C -2.693355 -2.004127 0.153877
C -2.657042 -1.930295 0.078352
C -3.078540 -1.655686 0.215571
C -3.172427 -1.518083 0.102729
C -3.024830 -1.273922 -0.219073
C -2.887115 -1.011099 -0.516301
C -2.863163 -0.599657 -0.810139
C -2.875283 -0.110981 -1.198716
C -2.928924 0.436585 -1.526032
C -2.727440 0.643644 -1.995213
C -2.721273 0.997858 -2.131823
C -2.761764 1.118583 -2.253273
C -2.703584 0.975489 -2.284431
C -2.659756 0.702489 -2.225100
C -2.546728 0.359689 -2.136993
C -2.511107 0.055548 -2.109569
C -2.476930 -0.261773 -2.014883
C -2.385882 -0.724204 -1.873158
C -2.418206 -1.069136 -1.650148
C -2.522350 -1.211081 -1.580840
C -2.617996 -1.370084 -1.437223
C -2.645733 -1.566518 -1.315769
C -2.546989 -1.932132 -1.023425
C -2.411133 -2.203007 -0.796533
C -2.253611 -2.396596 -0.726881
C -2.080737 -2.450832 -0.745936
C -2.041617 -2.635307 -0.658039
C -2.047388 -2.710506 -0.667991
C -2.066103 -2.693413 -0.695517
C -2.119587 -2.569323 -0.963636
C -2.126790 -2.523346 -1.084901
C -2.138210 -2.431977 -1.176893
C -2.082286 -2.516538 -1.115209
C -1.933195 -2.569007 -1.003001
C -1.669936 -2.718101 -0.766074
C -1.464604 -2.914063 -0.508255
C -1.236209 -3.151951 -0.170478
C -1.194082 -3.251920 0.016154
C -1.077498 -3.365129 0.099509
C -1.038334 -3.403182 0.009394
C -1.054339 -3.268367 -0.311105
C -1.081680 -2.911890 -0.840668
C -1.193434 -2.480619 -1.343925
C -1.284284 -2.139480 -1.849486
C -1.222774 -1.938774 -2.283211
C -1.340898 -1.761212 -2.652397
C -1.413241 -1.332372 -2.957354
C -1.375610 -1.133542 -3.105780
C -1.396658 -1.029426 -3.131633
C -1.407128 -0.843642 -3.247658
C -1.501226 -0.659104 -3.327684
C -1.577916 -0.387552 -3.494007
C -1.478303 -0.410719 -3.421899
C -1.370056 -0.842352 -3.209372
C -1.230358 -1.248902 -2.860775
C -1.071602 -1.678232 -2.479728
C -0.765761 -2.375822 -2.009911
C -0.478016 -2.833917 -1.829326
C -0.371681 -2.991425 -1.640198
C -0.364997 -2.841171 -1.705088
C -0.345420 -2.656194 -1.704922
C -0.296925 -2.642848 -1.699096
C -0.275762 -2.664326 -1.848506
C -0.376300 -2.526819 -2.047027
C -0.633518 -1.731775 -2.028764
C -0.827372 -1.105096 -1.966470
C -1.055422 -0.435817 -1.641092
C -1.271708 0.363661 -1.427741
C -1.500817 1.437743 -1.423369
C -1.720791 2.479518 -1.415669
C -1.874116 3.414825 -1.516560
C -1.796136 3.434684 -1.618814
C -1.600843 3.230551 -1.790537
C -1.125808 2.246047 -1.967271
C -0.820397 1.767854 -2.291834
C -0.555773 1.403373 -2.570600
C -0.246670 0.979042 -2.745802
C -0.007713 0.722955 -2.859239
C 0.277600 0.640883 -2.922897
C 0.410021 0.769188 -2.927102
C 0.334760 1.518855 -3.097566
C 0.405451 1.584337 -3.205084
C 0.548407 1.528584 -3.248836
C 0.679422 1.532454 -3.275617
C 0.811202 1.445947 -3.273048
C 0.879065 1.231338 -3.259262
C 1.022517 0.876488 -3.280516
C 1.189475 0.606003 -3.268352
C 1.290695 0.390624 -3.240184
C 1.326016 -0.041460 -3.038615
C 1.277003 -0.273784 -2.887920
C 1.291679 -0.464886 -2.757149
C 1.262659 -0.604308 -2.684517
C 1.290234 -0.698093 -2.642414
C 1.279890 -1.004930 -2.361896
C 1.324357 -1.214727 -2.245427
C 1.393344 -1.156587 -2.444426
C 1.491280 -1.229304 -2.539698
C 1.566235 -1.366322 -2.575564
C 1.680512 -1.634643 -2.342289
C 1.783697 -1.819295 -2.164215
C 1.833953 -1.738406 -2.285055
C 2.030126 -1.698584 -2.259865
C 2.056532 -1.577875 -2.127335
C 2.191661 -1.610554 -1.974564
C 2.323195 -1.490070 -1.941065
C 2.435046 -1.251198 -2.077014
C 2.501645 -1.287336 -1.984888
C 2.568048 -1.188926 -1.947528
C 2.422217 -1.397889 -1.660182
C 2.496828 -1.638944 -1.405879
C 2.412645 -1.897745 -1.182925
C 2.341919 -2.189225 -0.885076
C 2.400880 -2.292973 -0.688752
C 2.443260 -2.159179 -0.609417
C 2.601623 -2.077083 -0.592468
C 2.738649 -1.595445 -0.773169
C 2.828093 -1.424276 -0.769854
C 2.932895 -1.280139 -0.755296
C 3.042792 -0.978220 -0.863229
C 2.995395 -0.771513 -0.920048
C 2.975350 -0.731490 -0.898198
C 2.824364 -0.797685 -0.746667
C 2.874614 -0.851769 -0.646174
C 2.783945 -0.740421 -0.715199
C 2.806354 -0.683538 -0.653724
C 2.835880 -0.624944 -0.536564
C 2.894260 -0.497890 -0.534311
C 3.005178 -0.205830 -0.652599
C 3.132582 0.109562 -0.775868
C 3.107734 0.354116 -0.872366
C 3.186825 0.677251 -1.006500
C 3.213075 1.205600 -1.327450
C 3.144624 1.461035 -1.412256
C 3.129283 1.612566 -1.332273
C 3.124657 1.630743 -1.125166
C 3.114458 1.662318 -0.972899
C 3.137709 1.468490 -0.750591
C 3.238716 1.098533 -0.340925
C 3.320752 0.788032 0.016008
C 3.414952 0.631602 0.211049
C 3.429952 0.513731 0.256686
C 3.186660 0.756133 0.008083
C 2.992931 0.861927 -0.189129
C 2.669746 1.289569 -0.456241
C 2.366715 1.874944 -0.708847
C 2.124107 2.388318 -0.969057
C 1.935377 2.654724 -1.218529
C 1.664424 2.730197 -1.257799
C 1.480863 2.810480 -1.232651
C 1.333021 2.815032 -1.128427
C 1.383835 2.671724 -0.935449
C 1.158220 2.740557 -0.947775
C 1.112129 2.668985 -0.899897
C 0.904333 2.865929 -0.831528
C 0.805584 3.168943 -0.865436
C 0.909386 3.107755 -0.719814
C 1.062899 3.057594 -0.580236
C 1.128918 3.092855 -0.478553
C 1.367458 2.912646 -0.269148
C 1.343224 3.012732 -0.108295
C 1.158221 3.023909 0.020744
C 1.004599 3.002526 0.184095
C 0.846595 3.077946 0.290446
C 0.637421 3.125109 0.319900
C 0.718743 2.909615 0.407088
C 0.763335 2.356814 0.595449
C 0.877408 1.625143 0.776885
C 1.252773 0.944425 0.999231
C 1.591820 0.431933 1.111409
C 1.841742 -0.112100 1.270930
C 2.157692 -0.603667 1.515077
C 2.142369 -0.833196 1.643991
C 2.095938 -0.833583 1.636478
C 2.013682 -0.841122 1.697281
C 2.010148 -1.096635 1.748237
C 2.034675 -1.426171 1.842069
C 2.052689 -1.705348 1.948835
C 1.887452 -2.009350 1.982542
C 1.783700 -2.335740 1.995764
C 1.740503 -2.480381 2.020138
C 1.680220 -2.591874 2.025693
C 1.547395 -2.622221 2.015602
C 1.419699 -2.583537 2.051404
C 1.400137 -2.339631 2.025785
C 1.458315 -1.836209 1.986958
C 1.624527 -1.418119 2.109537
C 1.760448 -1.023608 2.194644
C 1.951705 -0.436666 2.147948
C 2.188186 0.243530 2.142853
C 2.417604 0.730668 2.118306
C 2.498969 0.990803 2.123829
C 2.596901 1.091312 2.147730
C 2.549573 1.415276 2.028606
C 2.439471 1.500222 1.902051
C 2.326903 1.558400 1.877541
C 2.183533 1.486409 1.838363
C 2.055910 1.704036 1.802138
C 1.777298 2.046101 1.682611
C 1.327689 2.397496 1.602596
C 0.954842 2.572073 1.598144
C 0.877167 2.819389 1.574242
C 0.705056 2.976743 1.569368
C 0.499649 3.275335 1.596790
C 0.386963 3.279042 1.648592
C 0.499148 3.133484 1.793703
C 0.714411 2.929822 1.931751
C 0.829258 2.778529 2.014222
C 0.815006 2.634497 2.226886
C 0.741013 2.584743 2.418692
C 0.788944 2.430118 2.534585
C 0.800059 2.184090 2.657729
C 0.779017 2.008023 2.828354
C 0.874881 1.731820 2.927444
C 0.980763 1.288797 3.054617
C 1.010052 1.040217 3.096753
C 1.051504 0.824307 3.069838
C 1.088779 0.499297 3.185969
C 1.035141 0.475536 3.208770
C 1.001080 0.349193 3.201184
C 0.727550 0.524277 3.194267
C 0.560122 0.833463 3.164046
C 0.399607 0.989273 3.156341
C 0.385209 0.728134 3.243061
C 0.338337 0.494638 3.187039
C 0.254433 0.042628 3.204172
C 0.169282 -0.196996 3.147338
C 0.173752 -0.597694 3.156820
C 0.211758 -1.036134 3.152543
C 0.193664 -1.277879 3.094403
C 0.073846 -1.202333 3.075014
C -0.117701 -1.077900 3.138103
C -0.170319 -0.999544 3.113433
C -0.265282 -1.100791 3.139152
C -0.323552 -1.144261 3.097706
C -0.567075 -1.269551 3.147470
C -0.682465 -1.331122 3.203743
C -0.720879 -1.429615 3.205812
C -0.644915 -1.439751 3.100011
C -0.732293 -1.223371 3.164473
C -0.872060 -0.823826 3.146765
C -0.947499 -0.548405 3.207584
C -0.873250 -0.146208 3.212083
C -0.940800 0.026304 3.237223
C -0.969792 0.112601 3.159269
C -1.093355 0.190027 3.177417
C -1.143596 0.295066 3.076750
C -1.106787 0.270927 3.021952
C -1.177670 0.388393 2.919628
C -1.339268 0.558914 2.813364
C -1.387274 0.842933 2.700359
C -1.544236 1.211114 2.621387
C -1.659989 1.518352 2.541688
C -1.672386 1.728323 2.447620
C -1.758026 1.880967 2.375497
C -1.683688 1.868248 2.320902
C -1.613333 1.743103 2.306360
C -1.661386 1.419295 2.323365
C -1.584262 0.906999 2.405571
C -1.647305 0.474383 2.456398
C -1.820617 0.009370 2.587566
C -1.937556 -0.421641 2.649875
C -2.148147 -0.642665 2.693890
C -2.350035 -0.850914 2.698451
C -2.547301 -0.838549 2.660742
C -2.895974 -0.580086 2.552168
C -3.085721 -0.315694 2.436689
C -3.240910 0.098222 2.242764
C -3.379948 0.627194 2.042706
C -3.506340 0.792877 1.955906
C -3.627969 1.104284 1.847118
C -3.669528 1.372901 1.692292
