291
chr8 3D structure from Hi-C (resolution 500000bp)
C -3.510572 1.824498 0.209430
C -3.509742 2.009829 0.251447
C -3.541318 1.964359 0.130672
C -3.489792 1.859597 -0.054802
C -3.372200 1.909480 -0.292822
C -3.291501 1.962399 -0.462741
C -3.297181 1.663088 -0.758644
C -3.360028 1.370710 -1.016621
C -3.302219 1.050223 -1.299806
C -3.113648 0.766911 -1.408139
C -2.958468 0.419989 -1.389327
C -3.099624 0.251407 -1.178989
C -3.201237 0.349980 -0.820769
C -3.059480 -0.227566 -0.503902
C -2.807244 -0.722693 -0.277252
C -2.733132 -1.043829 -0.055115
C -2.860721 -1.261232 0.158298
C -3.059019 -1.304629 0.351849
C -2.844106 -1.524804 0.401968
C -2.602967 -2.116531 0.281145
C -2.614744 -2.021680 0.165794
C -2.954771 -1.643517 0.255332
C -3.009915 -1.501288 0.050065
C -2.923969 -1.291438 -0.251469
C -2.790941 -1.013212 -0.631800
C -2.798594 -0.569807 -0.986909
C -2.864567 -0.013669 -1.340841
C -2.946498 0.542122 -1.632444
C -2.697076 0.649701 -2.094120
C -2.695102 1.027390 -2.178435
C -2.744301 1.172552 -2.236837
C -2.740045 1.044351 -2.203869
C -2.645949 0.786447 -2.121430
C -2.572726 0.464741 -2.046709
C -2.567373 0.094729 -1.990340
C -2.633060 -0.218411 -1.861373
C -2.572502 -0.665240 -1.728901
C -2.552675 -0.971898 -1.545450
C -2.655590 -1.156226 -1.327630
C -2.780576 -1.353773 -1.217839
C -2.741635 -1.611054 -1.045606
C -2.616789 -1.923406 -0.809979
C -2.410487 -2.216274 -0.620831
C -2.270469 -2.451706 -0.549102
C -2.139367 -2.567469 -0.570056
C -2.009192 -2.682943 -0.683398
C -1.960412 -2.786694 -0.758152
C -1.933257 -2.812669 -0.898925
C -2.023822 -2.667421 -1.114150
C -1.988431 -2.621161 -1.247644
C -1.931405 -2.553834 -1.318496
C -1.808699 -2.576513 -1.303370
C -1.604565 -2.654961 -1.117278
C -1.384468 -2.769353 -0.880379
C -1.162670 -2.897085 -0.622560
C -0.866077 -3.157785 -0.291853
C -0.780128 -3.284206 -0.073608
C -0.707807 -3.418643 0.056847
C -0.574223 -3.555424 0.149097
C -0.709082 -3.362460 -0.233980
C -0.763173 -3.008371 -0.733555
C -0.901042 -2.540444 -1.180988
C -0.960004 -2.189255 -1.720928
C -1.051442 -1.861289 -2.173785
C -1.168060 -1.661813 -2.558619
C -1.424480 -1.236217 -2.985899
C -1.438770 -0.970675 -3.049756
C -1.497508 -0.792882 -3.032647
C -1.567275 -0.629513 -3.121537
C -1.694843 -0.291055 -3.160711
C -1.720157 -0.098179 -3.308899
C -1.649996 -0.091924 -3.286256
C -1.459420 -0.447464 -3.088651
C -1.241663 -0.947189 -2.856848
C -1.052918 -1.371565 -2.636316
C -0.808043 -1.892221 -2.573919
C -0.577222 -2.399546 -2.509847
C -0.483098 -2.519863 -2.378084
C -0.469577 -2.376366 -2.370371
C -0.527607 -2.213104 -2.364818
C -0.547306 -2.204074 -2.250208
C -0.473612 -2.325897 -2.125391
C -0.474826 -2.429827 -1.841144
C -0.977461 -2.062651 -1.530170
C -1.256291 -1.525636 -1.296878
C -1.487688 -0.868025 -0.980632
C -1.655407 -0.065420 -0.783129
C -1.846832 0.976024 -0.821640
C -2.115451 2.045157 -0.947667
C -2.382805 3.001857 -1.117940
C -2.066007 3.353791 -1.379432
C -1.819422 3.176356 -1.629899
C -1.374562 2.235104 -1.848644
C -1.042973 1.721679 -2.156108
C -0.768727 1.276936 -2.470842
C -0.445293 0.794869 -2.626389
C -0.160995 0.571707 -2.740996
C 0.089883 0.519356 -2.865229
C 0.291485 0.562619 -2.964867
C 0.295178 1.190601 -3.180633
C 0.380630 1.289606 -3.297902
C 0.479670 1.259877 -3.349841
C 0.487691 1.185801 -3.463758
C 0.625827 0.907616 -3.494307
C 0.696968 0.499061 -3.465523
C 0.768238 0.058446 -3.426405
C 0.822198 -0.197909 -3.418242
C 0.929749 -0.372494 -3.380407
C 1.020655 -0.796956 -3.047824
C 1.126291 -0.911014 -2.807390
C 1.195833 -0.894651 -2.678670
C 1.307049 -0.937872 -2.607031
C 1.460906 -0.922772 -2.522607
C 1.527717 -1.168232 -2.184279
C 1.570023 -1.468013 -2.028039
C 1.702449 -1.480496 -2.159512
C 1.804563 -1.548542 -2.247201
C 1.895703 -1.824869 -2.141659
C 1.931024 -2.061980 -1.775271
C 1.947192 -2.245822 -1.546387
C 2.061299 -2.146438 -1.594934
C 2.224955 -2.055076 -1.604480
C 2.225616 -1.822233 -1.573663
C 2.319934 -1.848516 -1.417785
C 2.356194 -1.509021 -1.584075
C 2.470296 -1.163915 -1.884927
C 2.556450 -1.143117 -1.884725
C 2.581874 -1.057053 -1.922064
C 2.528802 -1.212701 -1.676251
C 2.542610 -1.475202 -1.401924
C 2.497477 -1.699986 -1.186190
C 2.562238 -2.042889 -0.811024
C 2.677637 -2.155361 -0.602440
C 2.695479 -1.967357 -0.664820
C 2.690479 -1.753804 -0.792122
C 2.736299 -1.260191 -0.935523
C 2.797931 -1.082779 -0.980397
C 2.874385 -0.892993 -1.014924
C 2.848135 -0.600695 -1.100520
C 2.690859 -0.331261 -1.182626
C 2.666223 -0.224603 -1.045063
C 2.666698 -0.350625 -0.789649
C 2.685370 -0.388438 -0.805981
C 2.697759 -0.294394 -0.776179
C 2.748527 -0.235415 -0.734951
C 2.805762 -0.159323 -0.788539
C 2.885434 -0.080729 -0.818863
C 3.008876 0.070059 -0.974880
C 3.179429 0.246746 -1.046438
C 3.137372 0.467411 -1.081311
C 3.084153 0.866882 -1.397327
C 2.925717 1.415918 -1.748072
C 2.816744 1.612224 -1.778713
C 2.824185 1.680702 -1.697470
C 2.796895 1.769981 -1.545159
C 2.730644 1.894005 -1.452912
C 2.779629 1.695390 -1.174189
C 2.966184 1.347704 -0.736407
C 3.204600 0.995294 -0.380558
C 3.379918 0.819180 -0.152787
C 3.439382 0.720117 0.007854
C 3.205752 0.938791 -0.119187
C 2.947177 1.053730 -0.288533
C 2.624323 1.433212 -0.590305
C 2.214379 1.956066 -0.944724
C 1.785804 2.428296 -1.216739
C 1.530380 2.714269 -1.412919
C 1.280614 2.771941 -1.489565
C 0.993827 2.851929 -1.490410
C 0.948560 2.789030 -1.330666
C 0.987001 2.651936 -1.103132
C 0.845316 2.722113 -1.042750
C 0.798364 2.702970 -0.908785
C 0.562236 2.887737 -0.841042
C 0.375111 3.196201 -0.852476
C 0.684576 3.067673 -0.651021
C 0.868711 2.892394 -0.459119
C 1.044278 2.882782 -0.386078
C 1.302729 2.651470 -0.154769
C 1.431617 2.671266 -0.076409
C 1.635592 2.679133 0.026864
C 1.888371 2.649695 0.190057
C 1.991243 2.675529 0.301103
C 1.979048 2.842777 0.290631
C 2.027429 2.505608 0.498377
C 2.080128 1.978347 0.689801
C 2.208274 1.294369 1.005468
C 2.311540 0.617444 1.283641
C 2.261523 0.160289 1.415485
C 2.214088 -0.260763 1.554548
C 2.318479 -0.603804 1.714171
C 2.320757 -0.632898 1.777633
C 2.320256 -0.564596 1.816103
C 2.210161 -0.572553 1.844983
C 2.166996 -0.828567 1.844791
C 2.145083 -1.253175 1.905258
C 2.101888 -1.602351 1.937113
C 1.836534 -2.011279 2.027038
C 1.673291 -2.282627 2.083267
C 1.550706 -2.438583 2.141487
C 1.612840 -2.541832 2.072421
C 1.526125 -2.515879 2.113679
C 1.486433 -2.416641 2.140321
C 1.456158 -2.197388 2.130374
C 1.603095 -1.676876 2.020047
C 1.745325 -1.351160 2.029692
C 1.927426 -1.012428 2.067776
C 2.040418 -0.511578 2.106732
C 2.196635 0.099702 2.106420
C 2.335814 0.592260 2.133383
C 2.426466 0.852970 2.218392
C 2.491773 1.029864 2.269864
C 2.434071 1.346754 2.159019
C 2.312577 1.515823 2.045325
C 2.254557 1.545059 1.989873
C 2.134949 1.432773 1.943799
C 2.069762 1.603857 1.932667
C 1.958386 1.948046 1.791326
C 1.464826 2.202336 1.635909
C 1.093057 2.415654 1.527509
C 0.929515 2.643667 1.463505
C 0.674859 2.891167 1.452869
C 0.453005 3.280989 1.369412
C 0.273873 3.353997 1.317048
C 0.028393 3.334624 1.372369
C 0.134376 3.250542 1.486398
C 0.191250 3.161873 1.573245
C 0.068516 3.114097 1.634262
C -0.166333 3.089612 1.680774
C -0.230236 2.977042 1.781091
C -0.217492 2.815275 1.829847
C -0.084827 2.734187 1.923120
C 0.039975 2.487905 2.149890
C 0.217914 2.164257 2.388466
C 0.379294 1.935297 2.587567
C 0.562830 1.771489 2.656857
C 0.719135 1.528461 2.846335
C 0.659639 1.500595 2.959453
C 0.595821 1.349946 3.038148
C 0.414222 1.424793 3.002670
C 0.255227 1.576242 2.979083
C 0.112209 1.667965 2.979219
C 0.198211 1.427093 3.118504
C 0.235250 1.133139 3.093635
C 0.309656 0.771211 3.221169
C 0.322257 0.418704 3.214117
C 0.443813 -0.040642 3.243243
C 0.547257 -0.435334 3.264425
C 0.602265 -0.706274 3.264105
C 0.425481 -0.642156 3.265555
C 0.199526 -0.540405 3.321851
C 0.101752 -0.548716 3.231394
C 0.078707 -0.629583 3.279137
C -0.012332 -0.430306 3.300306
C -0.558957 -0.274011 3.266051
C -0.582373 -0.298411 3.291152
C -0.602869 -0.441338 3.295214
C -0.566053 -0.453411 3.208387
C -0.737217 -0.216625 3.206622
C -0.923543 0.208415 3.130346
C -1.033744 0.322955 3.104473
C -0.779929 0.405491 3.111661
C -1.054200 0.495815 3.088194
C -1.082698 0.548609 2.963407
C -1.169405 0.603101 2.910004
C -1.171971 0.546393 2.818866
C -1.138704 0.322806 2.790237
C -1.287550 0.304693 2.722152
C -1.390102 0.401380 2.646067
C -1.438513 0.598448 2.539636
C -1.697142 0.852264 2.514971
C -1.828759 1.128114 2.448535
C -1.921668 1.348950 2.366067
C -2.141928 1.502875 2.366407
C -2.074636 1.421946 2.363986
C -2.008402 1.183546 2.401454
C -1.920522 0.830791 2.486743
C -1.673275 0.393159 2.577793
C -1.527746 -0.207950 2.696497
C -1.434042 -0.853191 2.829795
C -1.334512 -1.263760 2.865489
C -1.337295 -1.583469 2.906529
C -1.327865 -1.896305 2.904134
C -1.376560 -2.167292 2.864764
C -1.696781 -2.302918 2.788089
C -1.997589 -2.228767 2.718024
C -2.328606 -2.001308 2.637905
C -2.658115 -1.738195 2.527294
C -2.824679 -1.691109 2.461833
C -3.088190 -1.554831 2.419253
C -3.377822 -1.269183 2.354109
