118
chr19 3D structure from Hi-C (resolution 500000bp)
C -0.205269 2.685841 -2.165675
C -0.308154 2.804545 -2.010595
C -0.314585 2.776371 -1.852963
C -0.228688 2.780357 -1.706590
C -0.061384 2.952203 -1.421208
C 0.007812 2.970070 -1.187142
C 0.088785 2.975737 -0.845594
C 0.137951 2.952118 -0.509492
C 0.240506 2.940609 -0.261669
C 0.247987 3.031225 -0.031302
C 0.197936 2.953090 0.081122
C 0.061154 2.851167 0.256505
C 0.005177 2.798834 0.349791
C -0.156361 2.528158 0.350761
C -0.359564 2.086868 0.265688
C -0.636677 1.596663 0.212719
C -0.804421 1.197176 0.110830
C -0.949251 1.109491 0.105671
C -1.041549 1.104223 0.110286
C -1.231061 1.042356 0.089966
C -1.485509 1.074536 0.035161
C -1.628644 1.240407 0.092358
C -1.582287 1.531247 0.225991
C -1.524021 1.651966 0.494641
C -1.539633 1.653212 0.781121
C -1.482643 1.599949 1.079270
C -1.372516 1.445785 1.352117
C -1.088611 1.435526 1.760232
C -0.775470 1.430728 2.014365
C -0.526592 1.433223 2.205710
C -0.385280 1.531716 2.274067
C -0.096445 1.574949 2.265417
C 0.025038 1.576638 2.154169
C 0.153415 1.713497 2.112293
C 0.189796 1.637784 2.132222
C 0.191756 1.541035 2.088552
C -0.086861 1.144249 1.960144
C -0.437493 0.634181 1.876877
C -0.967630 0.135654 1.935601
C -1.317091 -0.344089 1.774839
C -1.814839 -0.916430 1.550788
C -2.206593 -1.312428 1.160707
C -2.465061 -1.656696 0.950283
C -2.453750 -1.776062 0.851689
C -2.449251 -1.860866 0.711535
C -2.395378 -1.895961 0.445268
C -2.719630 -1.605631 0.512132
C -2.955065 -1.149932 0.417999
C -3.131231 -0.690983 0.111346
C -3.333795 -0.250976 -0.380011
C -3.528129 0.040955 -0.972182
C -3.541776 0.037923 -1.388282
C -3.389704 -0.151857 -1.514001
C -2.854205 -0.685382 -1.655114
C -2.305087 -1.283383 -1.582575
C -1.772055 -1.832334 -1.200970
C -1.243537 -2.265763 -0.604795
C -0.824819 -2.655321 0.138209
C -0.507704 -2.762082 0.619455
C -0.385067 -2.734085 0.810242
C -0.288250 -2.755543 0.896536
C -0.180231 -2.661412 1.067757
C -0.070114 -2.528269 1.204166
C 0.023350 -2.466103 1.313369
C 0.212953 -2.409259 1.324165
C 0.420477 -2.237364 1.603066
C 0.566172 -2.052402 1.602814
C 0.704143 -1.661816 1.669671
C 0.957062 -1.461938 1.712432
C 0.961769 -1.480665 1.474671
C 0.853933 -1.560247 1.089061
C 0.792599 -1.683119 0.685999
C 0.810762 -1.748229 0.232234
C 1.051392 -1.696487 0.217896
C 1.345906 -1.685146 0.154845
C 1.386543 -1.508923 0.089465
C 1.678966 -1.225889 0.201937
C 1.963686 -0.871742 0.460297
C 2.212322 -0.465542 0.820111
C 2.427536 -0.184024 1.041991
C 2.495654 0.043825 1.149818
C 2.526868 0.069483 0.991007
C 2.638190 -0.216512 0.805858
C 2.599044 -0.516782 0.686014
C 2.428728 -0.651285 0.536884
C 2.263075 -0.817661 0.192819
C 2.139130 -0.831585 -0.076262
C 2.063705 -0.755278 -0.244073
C 1.930487 -0.564909 -0.163766
C 1.844816 -0.241212 -0.156002
C 1.902437 0.277499 -0.149005
C 2.183751 0.561830 -0.256616
C 2.352673 0.886967 -0.227828
C 2.420190 1.087206 -0.279372
C 2.417244 1.167684 -0.488315
C 2.374032 1.184422 -0.661545
C 2.324251 1.291488 -0.930613
C 2.217756 1.104882 -1.132669
C 2.077298 0.888087 -1.174785
C 1.941972 0.689166 -1.240300
C 1.699716 0.418824 -1.230584
C 1.383116 0.004655 -1.327801
C 1.048338 -0.308760 -1.362764
C 0.719821 -0.735558 -1.297551
C 0.330748 -1.055442 -1.315755
C -0.073031 -1.196593 -1.718721
C -0.393372 -1.117721 -2.212841
C -0.359292 -1.032770 -2.479988
C -0.255245 -1.062052 -2.486783
C -0.122048 -1.158618 -2.504579
C -0.141963 -1.240993 -2.514468
C -0.014611 -1.132409 -2.468073
C 0.044264 -1.086684 -2.148072
C 0.131801 -1.264362 -1.722532
C 0.113085 -1.313044 -1.890653
C 0.037126 -1.253926 -1.898640
C -0.053188 -1.176654 -1.988638
C 0.064709 -0.913825 -2.115839
