118
chr19 3D structure from Hi-C (resolution 500000bp)
C 0.455169 3.201772 0.609844
C 0.377937 3.203481 0.735179
C 0.260448 3.118550 0.830889
C 0.211648 3.053136 0.975548
C 0.248156 2.940051 1.396129
C 0.179915 2.823086 1.652288
C 0.238694 2.598687 1.868092
C 0.345568 2.335710 1.961947
C 0.448708 2.066788 2.170582
C 0.517606 1.904893 2.394548
C 0.482763 1.742164 2.430340
C 0.315146 1.586098 2.429769
C 0.246418 1.474182 2.302991
C 0.059342 1.290614 2.066606
C -0.259356 1.062356 1.623329
C -0.662758 0.885214 1.154986
C -0.956247 0.691402 0.712090
C -1.041994 0.634144 0.565177
C -1.159443 0.616782 0.537613
C -1.342514 0.605209 0.546474
C -1.611757 0.698326 0.545165
C -1.750080 0.875421 0.691392
C -1.727841 0.984251 1.029036
C -1.663653 0.945280 1.376900
C -1.727205 0.763322 1.565318
C -1.813258 0.659654 1.679933
C -1.701875 0.343294 1.766565
C -1.482893 -0.009174 2.048377
C -1.246897 -0.312750 2.303402
C -1.077545 -0.499960 2.454516
C -0.958638 -0.543857 2.591948
C -0.774952 -0.580025 2.658893
C -0.534986 -0.641009 2.651890
C -0.503084 -0.491556 2.746179
C -0.607744 -0.437436 2.732711
C -0.719034 -0.346489 2.584781
C -0.980197 -0.380845 2.175322
C -1.297874 -0.516192 1.588637
C -1.821838 -0.499190 1.076107
C -2.187365 -0.585786 0.603934
C -2.566329 -0.688682 -0.057243
C -2.724753 -0.685247 -0.705021
C -2.823473 -0.779866 -1.083752
C -2.754565 -0.803964 -1.330899
C -2.762334 -0.755441 -1.395156
C -2.520026 -0.778393 -1.566537
C -2.637909 -0.297196 -1.647437
C -2.611346 0.268827 -1.564195
C -2.518590 0.955450 -1.531069
C -2.388998 1.672338 -1.662735
C -2.264399 2.263681 -1.863162
C -2.065443 2.389104 -2.219902
C -1.928383 2.259190 -2.334291
C -1.595159 1.597783 -2.461918
C -1.333139 0.814901 -2.559507
C -1.130766 -0.048723 -2.588361
C -1.036698 -0.892876 -2.275570
C -0.999729 -1.762644 -1.874012
C -0.905445 -2.131529 -1.476518
C -0.840558 -2.294986 -1.310797
C -0.763881 -2.440833 -1.255692
C -0.683001 -2.523578 -1.104457
C -0.596623 -2.569559 -0.871440
C -0.512808 -2.650477 -0.820823
C -0.341918 -2.672726 -0.803461
C -0.227648 -2.792494 -0.589812
C -0.145970 -2.675339 -0.430691
C 0.025083 -2.427067 -0.121487
C 0.174239 -2.372350 0.189610
C 0.248662 -2.234652 0.063300
C 0.263242 -2.077892 -0.238309
C 0.370282 -1.912748 -0.534672
C 0.520427 -1.677146 -0.806032
C 0.739142 -1.746114 -0.696184
C 0.947854 -1.867221 -0.530007
C 1.110500 -1.725404 -0.509682
C 1.278688 -1.651465 -0.095753
C 1.506174 -1.573419 0.397861
C 1.672666 -1.476804 0.932316
C 1.861932 -1.419095 1.296721
C 2.031995 -1.290407 1.416020
C 2.191621 -1.176186 1.219023
C 2.310488 -1.276659 0.936473
C 2.349203 -1.368646 0.539535
C 2.253932 -1.327758 0.290187
C 2.176998 -1.274176 -0.118694
C 2.113130 -1.181053 -0.308313
C 2.029212 -1.012963 -0.317150
C 1.908445 -0.809502 -0.159366
C 1.907811 -0.560516 0.011222
C 2.023252 -0.237886 0.236474
C 2.269555 -0.023296 0.398870
C 2.365129 0.110680 0.662989
C 2.354883 0.293875 0.792487
C 2.339653 0.481195 0.754063
C 2.319643 0.593468 0.632585
C 2.319804 0.854039 0.571570
C 2.218255 0.873354 0.419980
C 2.102830 0.857362 0.264630
C 2.004492 0.814598 0.090467
C 1.842710 0.716258 -0.156185
C 1.640048 0.607959 -0.579964
C 1.386318 0.500720 -0.872377
C 1.046358 0.267486 -1.185949
C 0.828664 0.165304 -1.490608
C 0.692377 0.337252 -1.998072
C 0.683536 0.809268 -2.331553
C 0.834279 1.041896 -2.385272
C 0.901736 0.974305 -2.419807
C 0.934769 0.863287 -2.502350
C 0.938938 0.786673 -2.592860
C 0.837849 0.797247 -2.448041
C 0.679305 0.554434 -2.223732
C 0.486731 0.223866 -2.026516
C 0.569074 0.361057 -2.128331
C 0.495517 0.422334 -2.083719
C 0.483725 0.600727 -2.074993
C 0.579998 0.884022 -1.949427
