229
chr13 3D structure from Hi-C (resolution 500000bp)
C 4.563087 -1.458801 2.734821
C 4.619954 -1.669949 2.430280
C 4.655935 -1.865311 2.083331
C 4.678041 -2.011820 1.701665
C 4.729710 -2.251559 1.099033
C 4.834752 -2.335206 0.500634
C 4.960348 -2.239706 0.085648
C 5.045621 -2.015643 -0.080384
C 4.742053 -1.334055 0.362783
C 4.369278 -0.506559 0.921512
C 3.995892 0.416941 1.546177
C 3.681478 1.309157 2.159348
C 3.422314 2.066886 2.690889
C 3.196279 2.627276 3.107999
C 2.980840 3.006190 3.469023
C 3.088323 2.836663 3.452459
C 3.285908 2.485443 3.444936
C 3.564741 2.042513 3.416403
C 3.851258 1.611598 3.339798
C 4.095579 1.217243 3.208334
C 4.312695 0.911314 2.911800
C 4.465936 0.772918 2.080286
C 4.634505 0.718474 1.033845
C 4.799100 0.636325 -0.001921
C 4.927341 0.505163 -0.854061
C 5.008850 0.396243 -1.427133
C 5.049389 0.394335 -1.783783
C 5.034635 0.521840 -1.881239
C 5.025528 0.703394 -1.392301
C 4.995975 1.044632 -0.792394
C 4.938548 1.542263 -0.279326
C 4.877110 2.044539 -0.003769
C 4.791107 2.414090 0.002083
C 4.653885 2.684947 -0.197501
C 4.372596 2.928728 -0.528693
C 3.955519 3.057800 -0.856576
C 3.409345 3.106210 -0.988585
C 2.794531 3.167282 -1.155451
C 2.211229 3.363568 -1.028688
C 1.582778 3.551127 -0.802577
C 1.049039 3.666043 -0.561350
C 0.720233 3.684082 -0.329196
C 0.624217 3.703167 -0.277015
C 0.556423 3.598863 -0.328091
C 0.478808 3.563445 -0.150391
C 0.292926 3.407561 -0.069865
C 0.110414 3.403995 0.083715
C -0.089478 3.454222 0.152541
C -0.240500 3.520183 0.432539
C -0.444548 3.470829 0.524553
C -0.534460 3.551426 0.549817
C -0.604046 3.534667 0.543342
C -0.614220 3.505891 0.450688
C -0.647261 3.438840 0.309135
C -0.601152 3.391660 0.134387
C -0.471320 3.219103 -0.160967
C -0.596495 3.207834 -0.117386
C -0.739709 3.202091 -0.142724
C -0.728580 3.209718 -0.346597
C -0.641136 3.114923 -0.538060
C -0.498055 2.968250 -0.809166
C -0.504277 2.840152 -0.898685
C -0.658530 2.955810 -1.148352
C -0.432888 2.999756 -1.497520
C -0.277055 2.977291 -1.755887
C -0.076417 2.809710 -2.023938
C 0.125708 2.828775 -2.283617
C 0.273564 2.838645 -2.513207
C 0.375931 2.710126 -2.578836
C 0.377259 2.413873 -2.535915
C 0.163536 2.231807 -2.558277
C 0.158079 1.962506 -2.600634
C 0.186262 1.829686 -2.650817
C 0.017178 1.725574 -2.724062
C -0.203248 1.616180 -2.627273
C -0.390007 1.588733 -2.471593
C -0.594098 1.650700 -2.412411
C -0.737365 1.704098 -2.302967
C -0.954539 1.913214 -2.187729
C -1.471435 2.168410 -1.789767
C -1.835490 2.332158 -1.217688
C -2.124235 2.508072 -0.980673
C -2.334178 2.638855 -0.896566
C -2.443462 2.700693 -0.662733
C -2.530298 2.615301 -0.626093
C -2.628922 2.559392 -0.515781
C -2.599958 2.430937 -0.393653
C -2.681982 2.384402 -0.531850
C -2.703093 2.260878 -0.366111
C -2.784388 2.175776 -0.435084
C -2.846266 2.031910 -0.513645
C -2.853635 1.887135 -0.572781
C -2.903865 1.706400 -0.814000
C -2.953941 1.637610 -1.109361
C -2.934611 1.401663 -1.190059
C -3.044244 1.414804 -1.164778
C -3.114042 1.420866 -1.050612
C -3.237271 1.404480 -0.936131
C -3.393830 1.524267 -0.740427
C -3.501878 1.533947 -0.502882
C -3.589277 1.426669 -0.331680
C -3.731111 1.335167 -0.455812
C -3.519006 1.076041 -0.733516
C -3.271594 0.803989 -1.092984
C -2.906374 0.664111 -1.643608
C -2.509097 0.428213 -2.153845
C -2.170569 0.296623 -2.585027
C -1.789297 0.048634 -2.984820
C -1.397369 -0.161248 -3.288286
C -1.116316 -0.319236 -3.631435
C -0.803633 -0.313931 -3.880283
C -0.718147 -0.501682 -3.887213
C -0.550748 -0.626100 -3.824699
C -0.300823 -0.729955 -3.802830
C -0.156287 -0.669251 -3.836994
C -0.007108 -0.559660 -3.731776
C -0.035939 -0.447368 -3.541664
C -0.206578 -0.483429 -3.139658
C -0.179000 -0.426995 -2.931319
C -0.099449 -0.402620 -2.727478
C -0.078946 -0.501503 -2.529377
C -0.082482 -0.597930 -2.288947
C 0.143235 -0.773723 -2.319574
C 0.405899 -0.961285 -2.383217
C 0.844145 -1.123307 -2.576696
C 1.216093 -1.165233 -2.774066
C 1.296040 -1.373003 -2.841079
C 1.482432 -1.493010 -2.903269
C 1.766090 -1.591037 -3.020698
C 1.873004 -1.683225 -2.853527
C 1.762722 -1.838792 -2.747458
C 1.595766 -2.028369 -2.711336
C 1.555098 -2.329592 -2.518104
C 1.489119 -2.512077 -2.480632
C 1.227644 -2.598769 -2.457190
C 0.851962 -2.777012 -2.502981
C 0.415588 -2.974571 -2.566643
C 0.162362 -3.202125 -2.626843
C -0.292139 -3.231200 -2.542433
C -0.810299 -3.140024 -2.439854
C -1.327681 -3.049469 -2.365201
C -1.662328 -2.971636 -2.241550
C -1.875534 -2.802589 -1.994262
C -2.132747 -2.586282 -1.774480
C -2.429844 -2.257452 -1.578432
C -2.579706 -2.124432 -1.371624
C -2.609625 -2.093810 -1.337832
C -2.647076 -2.017782 -1.092239
C -2.720887 -1.866060 -0.860898
C -2.692323 -1.975338 -0.835541
C -2.663963 -1.903648 -0.736163
C -2.679479 -1.810532 -0.478217
C -2.616424 -1.759219 -0.352649
C -2.617202 -1.721080 -0.153226
C -2.524294 -1.713654 -0.146826
C -2.511017 -1.769878 -0.064154
C -2.640233 -1.865373 0.146053
C -2.581005 -1.899481 0.218352
C -2.383734 -2.279051 0.219932
C -2.260255 -2.617266 0.301026
C -2.205253 -2.803753 0.284279
C -1.988564 -2.993025 0.252850
C -1.655343 -3.306628 0.102562
C -1.349635 -3.415611 -0.007353
C -1.169301 -3.760276 0.034589
C -0.920352 -3.769208 -0.068013
C -0.707606 -3.686160 -0.114596
C -0.466383 -3.696831 -0.090882
C -0.302501 -3.621473 -0.022902
C -0.110410 -3.543225 0.071281
C 0.135581 -3.487162 0.174550
C 0.419378 -3.336892 0.144296
C 0.694003 -3.237544 0.394427
C 0.965958 -3.212342 0.429592
C 1.164184 -3.181555 0.633461
C 1.334422 -3.252486 0.868370
C 1.351198 -3.333965 1.067901
C 1.276016 -3.172041 1.112151
C 1.120661 -3.197263 1.294299
C 0.836231 -3.146060 1.330876
C 0.616751 -2.894654 1.475866
C 0.436220 -2.753344 1.524233
C 0.373396 -2.631632 1.578278
C 0.317816 -2.438727 1.590107
C 0.458222 -2.394529 1.852933
C 0.550923 -2.132632 1.986946
C 0.434714 -1.937963 1.945475
C 0.228731 -1.750886 1.923598
C -0.141498 -1.660173 1.953247
C -0.418306 -1.514193 1.858468
C -0.764575 -1.513786 1.967501
C -1.388357 -1.337790 1.916668
C -1.859470 -1.230806 1.869987
C -2.048725 -1.056441 1.939772
C -2.131457 -1.034427 2.025641
C -2.153067 -0.787316 2.083961
C -2.400348 -0.573147 2.309111
C -2.489309 -0.301929 2.383828
C -2.380799 -0.349884 2.401576
C -2.254000 -0.477875 2.490433
C -2.189511 -0.702328 2.591648
C -2.093667 -0.980455 2.697264
C -1.964991 -1.133098 2.709972
C -1.787037 -1.207845 2.722176
C -1.427280 -1.461140 2.846265
C -1.098015 -1.660241 3.037080
C -0.991232 -1.744979 3.159355
C -0.832788 -1.852142 3.250547
C -0.708586 -1.880948 3.396525
C -0.628799 -1.961745 3.553679
C -0.518108 -2.099709 3.632673
C -0.555511 -2.014843 3.518190
C -0.596894 -1.802723 3.516497
C -0.522582 -1.610460 3.581564
C -0.484345 -1.375537 3.588807
C -0.451489 -1.057592 3.498675
C -0.368979 -0.879044 3.421637
C -0.471243 -0.586270 3.413961
C -0.690038 -0.209758 3.380307
C -0.809227 0.082863 3.279900
C -0.708556 0.314768 3.306956
C -0.500634 0.568190 3.540855
C -0.667932 0.775293 3.557560
C -0.829543 1.046620 3.681861
C -0.715615 1.348714 3.800254
C -0.586295 1.573957 4.010243
C -0.523102 1.668620 4.166851
C -0.681898 1.849726 4.152777
C -1.081448 2.054686 3.946796
