229
chr13 3D structure from Hi-C (resolution 500000bp)
C 4.825450 -2.503414 -0.783680
C 4.723812 -2.565331 -1.112758
C 4.581145 -2.739982 -1.278060
C 4.444945 -2.939844 -1.296375
C 4.265311 -3.179126 -1.415494
C 4.064559 -3.440197 -1.339139
C 3.834678 -3.727563 -1.004311
C 3.611642 -3.994800 -0.417956
C 3.460675 -4.122134 0.301161
C 3.464161 -3.926102 1.055160
C 3.571378 -3.588222 1.652557
C 3.710992 -3.269047 2.046798
C 3.803495 -3.034627 2.330084
C 3.726028 -2.852292 2.695150
C 3.620971 -2.633294 3.030114
C 3.508808 -2.371184 3.329855
C 3.384901 -2.230422 3.521044
C 3.412676 -1.995292 3.564761
C 3.491073 -1.649654 3.564591
C 3.677389 -1.162878 3.400725
C 4.078497 -0.593131 2.878780
C 4.524002 -0.082050 2.118794
C 4.943050 0.247449 1.189821
C 5.277698 0.388844 0.280185
C 5.404376 0.300947 -0.298598
C 5.456944 0.131761 -0.576099
C 5.430953 -0.082370 -0.553159
C 5.169642 -0.236593 0.015165
C 4.764041 -0.354465 0.860858
C 4.318143 -0.318830 1.856179
C 3.914311 -0.101475 2.827492
C 3.617484 0.207714 3.582512
C 3.430294 0.550721 4.048834
C 3.335768 0.964402 4.183655
C 3.446929 1.363684 3.725196
C 3.494449 1.691975 2.966549
C 3.343921 1.969163 2.464577
C 3.073723 2.215661 2.049431
C 2.831556 2.485918 1.761351
C 2.410934 2.744372 1.570943
C 2.022345 2.796959 1.328699
C 1.720304 2.788751 1.286050
C 1.627880 2.768983 1.468150
C 1.682149 2.783667 1.350527
C 1.662655 2.826260 1.285107
C 1.462628 2.810355 1.195820
C 1.447946 2.885990 1.127050
C 1.360029 3.010917 1.211121
C 1.360275 3.115245 1.150338
C 1.160989 3.151200 1.101512
C 1.145535 3.191052 0.960704
C 1.154089 3.224120 0.877093
C 1.215791 3.261507 0.764828
C 1.062043 3.256718 0.659174
C 1.032986 3.290689 0.575336
C 0.875650 3.206364 0.540677
C 0.789369 3.344868 0.505253
C 0.573424 3.441924 0.574053
C 0.478171 3.463708 0.435741
C 0.445779 3.400706 0.240582
C 0.562743 3.241861 0.006911
C 0.457569 3.184860 -0.208601
C 0.375248 3.432505 -0.277149
C 0.445324 3.499246 -0.533810
C 0.480708 3.448174 -0.724381
C 0.764034 3.300249 -1.008855
C 1.002783 3.285836 -1.232025
C 1.142271 3.363427 -1.430983
C 1.241601 3.248244 -1.550403
C 1.263146 2.872958 -1.664292
C 1.239556 2.702806 -1.694673
C 1.288726 2.520243 -1.829173
C 1.165965 2.512094 -1.942306
C 0.953261 2.494888 -2.052765
C 0.678522 2.426622 -2.037560
C 0.494583 2.445259 -1.896886
C 0.247603 2.636954 -1.716683
C -0.005669 2.657886 -1.263929
C -0.290143 2.816204 -0.798890
C -0.670331 2.952694 -0.121222
C -1.026502 3.044627 0.528013
C -1.292516 3.101215 1.014407
C -1.503768 3.125282 1.218313
C -1.627293 3.119311 1.352958
C -1.709302 3.192350 1.125506
C -1.735735 3.157459 0.973356
C -1.798539 3.099489 0.750621
C -1.880343 3.085101 0.647359
C -1.922057 3.040132 0.573220
C -2.027650 3.090897 0.570975
C -2.112901 3.017660 0.434972
C -2.148268 2.855354 0.176978
C -2.206890 2.863537 -0.087132
C -2.281008 2.857748 -0.198710
C -2.222916 2.775037 -0.475005
C -2.324349 2.811351 -0.711882
C -2.300491 2.852648 -0.932004
C -2.364916 2.848047 -1.059001
C -2.359517 2.980201 -0.964297
C -2.493637 2.905125 -0.798329
C -2.529816 2.810718 -0.750335
C -2.563194 2.850408 -0.952219
C -2.243874 2.627485 -1.030992
C -1.702690 2.254530 -1.123910
C -0.982330 1.959909 -1.345079
C -0.394977 1.502590 -1.498277
C 0.342366 1.110347 -1.767231
C 0.930542 0.777979 -2.083598
C 1.559389 0.336292 -2.187986
C 1.989331 0.156186 -2.451618
C 2.127401 0.129130 -2.753001
C 2.047988 0.137658 -2.881201
C 1.918926 0.199783 -3.012567
C 1.797696 0.317928 -3.174935
C 1.725897 0.405582 -3.295766
C 1.517290 0.533090 -3.290972
C 1.085688 0.699892 -3.207507
C 0.684309 0.830762 -3.040199
C 0.430819 0.760824 -2.869925
C 0.172717 0.787129 -2.881483
C -0.096346 0.709417 -2.803757
C -0.322742 0.637226 -2.701781
C -0.491729 0.561301 -2.842562
C -0.343663 0.297728 -3.024372
C -0.146189 -0.118977 -3.164536
C 0.095474 -0.415893 -3.377182
C 0.199724 -0.714106 -3.371661
C 0.400124 -0.880494 -3.506677
C 0.577684 -1.079722 -3.692770
C 0.635731 -1.323550 -3.720278
C 0.515816 -1.360478 -3.672604
C 0.339159 -1.255834 -3.776501
C 0.217759 -1.370585 -3.748142
C 0.043324 -1.439782 -3.808211
C -0.306780 -1.327321 -3.737705
C -0.641579 -1.240585 -3.738659
C -1.005588 -1.042475 -3.696825
C -1.316076 -0.961475 -3.793886
C -1.613569 -1.032962 -3.670122
C -2.087831 -0.714092 -3.545422
C -2.474599 -0.632463 -3.369743
C -2.630199 -0.706546 -3.247712
C -2.735328 -0.670543 -2.955560
C -2.799697 -0.672089 -2.653596
C -2.947146 -0.701448 -2.288407
C -3.125116 -0.522508 -2.067099
C -3.192501 -0.591304 -1.947359
C -3.194220 -0.385490 -1.664838
C -3.266066 -0.266836 -1.398861
C -3.253053 -0.321964 -1.413374
C -3.236088 -0.419095 -1.275356
C -3.205405 -0.307640 -1.097339
C -3.144046 -0.350017 -0.886191
C -3.048966 -0.287664 -0.765871
C -2.969326 -0.447820 -0.774559
C -3.029972 -0.492421 -0.772383
C -3.156368 -0.620526 -0.638285
C -3.048484 -0.690684 -0.687012
C -2.918477 -1.100767 -0.846362
C -2.843335 -1.465194 -1.032769
C -2.783808 -1.786322 -1.130534
C -2.594050 -2.062493 -1.295247
C -2.282189 -2.426567 -1.493451
C -1.965845 -2.650425 -1.652629
C -1.776059 -2.998669 -1.781085
C -1.468967 -3.134733 -1.879355
C -1.170562 -3.027891 -1.861578
C -0.977137 -3.069079 -1.808848
C -0.737675 -3.024316 -1.723024
C -0.525212 -3.045206 -1.586532
C -0.377832 -3.109283 -1.388418
C -0.264374 -3.070759 -1.136320
C -0.145549 -3.114402 -0.787008
C -0.078899 -3.303009 -0.558091
C 0.100151 -3.392589 -0.361279
C 0.101929 -3.600059 -0.201121
C 0.037804 -3.730853 -0.052055
C -0.050999 -3.605190 0.029557
C -0.208661 -3.650054 0.053158
C -0.570439 -3.559554 0.058073
C -0.840474 -3.430265 0.092753
C -1.083895 -3.296717 0.147494
C -1.218145 -3.237928 0.285486
C -1.386919 -3.101576 0.423675
C -1.413850 -3.252301 0.661873
C -1.547786 -3.165208 0.819820
C -1.506475 -2.895408 0.923701
C -1.531646 -2.560554 1.094104
C -1.630070 -2.243975 1.313516
C -1.717021 -1.903499 1.275795
C -1.885074 -1.806735 1.311618
C -2.233472 -1.365651 1.294987
C -2.381929 -1.060304 1.410603
C -2.477953 -0.919854 1.525412
C -2.585197 -0.874553 1.542530
C -2.795160 -0.770297 1.547505
C -3.004984 -0.625946 1.770232
C -3.008632 -0.310100 1.932426
C -2.927960 -0.429595 1.917314
C -2.872545 -0.573643 1.931867
C -2.864708 -0.769892 1.930053
C -2.819644 -1.068242 1.948602
C -2.687688 -1.186839 2.002468
C -2.533713 -1.346807 2.021888
C -2.418613 -1.703135 2.154368
C -2.259817 -1.837612 2.413703
C -2.066612 -1.910550 2.550913
C -1.905227 -2.014648 2.720870
C -1.677538 -2.130479 2.866836
C -1.565722 -2.384095 2.839726
C -1.557826 -2.457247 2.918335
C -1.369998 -2.430731 2.764216
C -1.163033 -2.501598 2.641415
C -1.125059 -2.341203 2.732945
C -1.024957 -2.240697 2.600075
C -0.984489 -1.942477 2.556483
C -0.932960 -1.711391 2.608801
C -0.884602 -1.468601 2.674413
C -1.054760 -1.067066 2.800366
C -1.163965 -0.628755 2.871136
C -0.973869 -0.560958 2.964714
C -0.832973 -0.347261 3.406937
C -0.916031 -0.143767 3.542467
C -0.961966 0.134520 3.741260
C -0.872228 0.273239 3.936265
C -0.710114 0.458429 4.187127
C -0.647488 0.522590 4.393537
C -0.817085 0.796425 4.448051
C -1.094183 1.008535 4.256494
