102
chr22 3D structure from Hi-C (resolution 500000bp)
C 5.087449 0.069718 0.699477
C 4.961884 -0.410360 0.611111
C 4.751551 -0.902685 0.534337
C 4.454413 -1.378570 0.483129
C 4.006216 -2.173262 0.378213
C 3.529424 -2.886849 0.507980
C 3.150067 -3.375004 0.839662
C 2.923515 -3.555682 1.217361
C 2.835107 -3.402909 1.633940
C 2.818848 -2.975580 2.156346
C 2.839003 -2.443260 2.765655
C 2.827052 -2.013248 3.319479
C 2.688604 -1.775091 3.698160
C 2.324259 -1.771949 3.893303
C 1.730964 -2.003549 3.941811
C 0.986958 -2.471891 3.817995
C 0.249363 -3.113283 3.461477
C -0.348513 -3.764827 2.869786
C -0.731041 -4.253971 2.051609
C -0.976481 -4.509509 1.104379
C -1.005817 -4.639664 0.194078
C -0.814300 -4.673695 -0.628196
C -0.411287 -4.567348 -1.366238
C 0.210193 -4.372153 -1.908718
C 0.938703 -4.026170 -2.277562
C 1.698812 -3.488546 -2.469016
C 2.438610 -2.940565 -2.574404
C 2.942842 -2.461189 -2.786348
C 3.142846 -2.027634 -3.070728
C 3.038204 -1.641047 -3.308569
C 2.661484 -1.154624 -3.479660
C 2.111067 -0.668331 -3.414692
C 1.527009 -0.331479 -3.265613
C 1.217343 0.035757 -3.119775
C 1.148176 0.509468 -2.856980
C 0.956679 0.918757 -2.305876
C 0.961594 1.267690 -1.704705
C 1.156688 1.540730 -1.140737
C 1.231857 1.733926 -0.758212
C 1.537233 1.934185 -0.458424
C 1.350887 1.993341 0.023585
C 1.097899 2.070204 0.526541
C 1.256854 2.288295 0.842183
C 1.290101 2.522662 1.011257
C 1.276546 2.733925 1.034040
C 1.309552 2.832240 0.905958
C 0.974756 2.814391 0.627035
C 0.838606 2.829424 0.248310
C 0.645475 2.746728 -0.138899
C 0.319701 2.609419 -0.556197
C 0.089233 2.446285 -0.897555
C -0.222475 2.169455 -1.254732
C -0.422946 2.020895 -1.580769
C -0.558219 1.992842 -1.776069
C -0.630466 2.004205 -1.894541
C -0.643793 2.161064 -1.798835
C -0.657594 2.218556 -1.543551
C -0.702179 2.362058 -1.267616
C -0.777709 2.559228 -0.918372
C -0.833215 2.667503 -0.493186
C -0.906464 2.680043 -0.117909
C -1.038340 2.610314 0.071867
C -1.234633 2.358135 -0.031663
C -1.476419 2.230291 -0.290604
C -1.666382 2.061880 -0.493807
C -1.810738 1.824549 -0.786499
C -1.937045 1.608490 -1.121937
C -2.009050 1.490233 -1.186715
C -2.255682 1.487663 -1.063979
C -2.267582 1.507297 -0.746430
C -2.279161 1.473222 -0.380728
C -2.265652 1.436102 -0.015908
C -2.143339 1.517988 0.520077
C -2.097076 1.584715 1.169642
C -2.125283 1.412501 1.669265
C -1.840931 1.293122 2.007166
C -1.744496 1.175473 2.359273
C -1.534915 1.119484 2.638593
C -1.447376 0.978330 2.846024
C -1.430861 0.856097 2.925224
C -1.444060 0.690193 2.840172
C -1.491224 0.608578 2.753866
C -1.502778 0.532511 2.604525
C -1.598611 0.487824 2.266539
C -1.773310 0.407790 1.860140
C -1.898660 0.383523 1.476212
C -2.055261 0.282072 1.075531
C -2.226075 0.218433 0.744571
C -2.305713 0.248914 0.376008
C -2.486445 0.105733 0.071385
C -2.470743 0.023036 -0.196290
C -2.517319 -0.081075 -0.509654
C -2.504080 -0.234751 -0.935170
C -2.431405 -0.348294 -1.236034
C -2.334009 -0.498545 -1.568026
C -2.258425 -0.636612 -1.896135
C -2.137551 -0.629590 -2.054260
C -2.170192 -0.799510 -1.967376
C -2.184655 -0.964020 -1.614256
C -2.158083 -0.988714 -1.437761
C -2.203729 -1.044933 -1.268326
C -2.172898 -1.009213 -0.987926
