102
chr22 3D structure from Hi-C (resolution 500000bp)
C -1.678308 0.906537 -4.524354
C -1.714431 1.336758 -4.321875
C -1.802029 1.737420 -4.028848
C -1.899895 2.113263 -3.623001
C -1.914007 2.840122 -3.009729
C -1.816567 3.531630 -2.419553
C -1.614579 4.060646 -1.987354
C -1.308991 4.382916 -1.754734
C -0.885682 4.488755 -1.733858
C -0.346830 4.378951 -1.934051
C 0.274472 4.049737 -2.390918
C 0.851518 3.515035 -3.010642
C 1.259801 2.793380 -3.628265
C 1.464835 1.953134 -4.111682
C 1.489026 1.058475 -4.438588
C 1.330134 0.163647 -4.614580
C 0.978444 -0.676477 -4.653094
C 0.446015 -1.412343 -4.565067
C -0.263523 -1.993923 -4.305718
C -1.063541 -2.408014 -3.884261
C -1.842717 -2.612203 -3.406339
C -2.579932 -2.589234 -2.999894
C -3.192838 -2.379303 -2.653955
C -3.650169 -1.873472 -2.454756
C -3.968110 -1.195199 -2.270769
C -4.138730 -0.403346 -2.072690
C -4.218905 0.404430 -1.843908
C -4.318170 1.009657 -1.555611
C -4.405033 1.293252 -1.188307
C -4.416642 1.341328 -0.713535
C -4.244740 0.991678 -0.131118
C -3.773860 0.451226 0.329790
C -3.142772 -0.158616 0.605840
C -2.575845 -1.081859 0.579127
C -1.852901 -1.947606 0.296986
C -0.989438 -2.296050 0.253246
C -0.195436 -2.516152 0.098243
C 0.475688 -2.520700 -0.124470
C 0.882330 -2.386617 -0.208132
C 1.234509 -2.448658 -0.490345
C 1.668597 -2.103453 -0.457258
C 2.069265 -1.735246 -0.368097
C 2.428163 -1.632905 -0.597745
C 2.657475 -1.563388 -0.659034
C 2.777636 -1.629720 -0.663728
C 2.788918 -1.736600 -0.600770
C 2.502851 -1.747814 -0.236733
C 2.166975 -1.886652 -0.003732
C 1.794995 -1.996265 0.343299
C 1.328425 -2.102281 0.797413
C 0.959424 -2.069416 1.089823
C 0.476893 -2.014006 1.424507
C 0.043112 -2.051838 1.593623
C -0.122397 -2.120539 1.766203
C -0.069685 -2.169295 1.882012
C 0.096248 -2.109878 1.973359
C 0.318993 -2.008921 1.940278
C 0.582166 -1.965011 1.916016
C 0.960598 -1.832086 1.914567
C 1.387072 -1.640084 1.942796
C 1.654485 -1.379422 1.943375
C 1.605374 -1.151943 2.008811
C 1.329700 -1.009848 2.082076
C 0.935910 -0.938904 2.186828
C 0.505893 -0.866431 2.297344
C 0.017273 -0.865632 2.345196
C -0.474786 -0.862074 2.331416
C -0.684529 -0.772283 2.277603
C -0.795213 -0.466574 2.032050
C -0.567315 -0.326113 1.809161
C -0.222775 -0.067128 1.618312
C 0.199986 0.158290 1.439519
C 0.750412 0.504191 1.264190
C 1.277536 0.869154 1.078550
C 1.648736 1.276501 0.887963
C 2.083572 1.320580 0.826412
C 2.306461 1.521153 0.645376
C 2.522113 1.660762 0.524994
C 2.685637 1.737891 0.378715
C 2.805458 1.692806 0.286986
C 2.909380 1.621857 0.335879
C 2.950511 1.538936 0.462386
C 2.898293 1.390470 0.576648
C 2.738634 1.296247 0.891996
C 2.440563 1.118737 1.170721
C 2.130367 1.017888 1.517342
C 1.766275 0.931948 1.815477
C 1.431422 0.940360 2.088693
C 1.064080 0.833412 2.300413
C 0.759358 0.946472 2.452322
C 0.526111 0.886607 2.464076
C 0.228370 0.843935 2.547063
C -0.199745 0.696940 2.555240
C -0.571732 0.597282 2.583158
C -0.988734 0.445557 2.559414
C -1.232090 0.282711 2.552170
C -1.298400 0.178730 2.554595
C -1.324749 0.425973 2.574255
C -1.226360 0.759326 2.525760
C -1.092169 0.933493 2.531404
C -0.910852 1.156428 2.492609
C -0.586028 1.388800 2.447369
