94
chr21 3D structure from Hi-C (resolution 500000bp)
C -0.155394 2.264925 -4.817220
C -0.118624 2.668677 -4.578900
C 0.120959 2.966718 -4.344024
C 0.461091 3.122985 -4.148307
C 0.811920 3.404708 -3.849501
C 1.326788 3.462550 -3.600754
C 2.011232 3.233940 -3.455880
C 2.666811 2.726082 -3.422469
C 3.169742 1.939681 -3.475271
C 3.417496 0.968677 -3.573483
C 3.359781 -0.015239 -3.743330
C 3.017279 -0.820246 -3.961093
C 2.446396 -1.375699 -4.186396
C 1.749420 -1.648244 -4.394408
C 0.928136 -1.649044 -4.542485
C -0.001793 -1.482482 -4.631709
C -0.955679 -1.318803 -4.615637
C -1.733008 -1.267913 -4.401736
C -2.271244 -1.359121 -4.161480
C -2.425675 -1.681399 -3.957978
C -2.304258 -2.223651 -3.640256
C -2.045871 -2.957655 -3.232304
C -1.875675 -3.677639 -2.762530
C -1.759450 -4.070045 -2.192395
C -1.609132 -4.277573 -1.595928
C -1.405299 -4.003564 -0.846157
C -1.397328 -3.574126 0.078277
C -1.602989 -3.092682 0.928986
C -1.847366 -2.587801 1.615887
C -1.987990 -2.020213 2.087472
C -2.032033 -1.564395 2.237713
C -2.099971 -1.072478 2.246191
C -2.246591 -0.926359 2.239721
C -2.513002 -0.781027 1.968833
C -2.739287 -0.532222 1.637164
C -2.884825 -0.242441 1.229750
C -2.972698 -0.065571 0.916198
C -3.048087 0.135308 0.755167
C -3.090368 0.334700 0.649762
C -3.192738 0.481055 0.395762
C -3.226789 0.708821 0.267770
C -3.323353 0.936183 0.106586
C -3.318613 1.204448 0.212303
C -3.232485 1.470346 0.451551
C -3.094865 1.628355 0.687315
C -2.921052 1.733177 0.864778
C -2.736808 1.813749 1.112585
C -2.391959 1.741573 1.457330
C -1.976832 1.666695 1.889897
C -1.712154 1.599643 2.047180
C -1.490273 1.564505 1.945598
C -1.335943 1.724663 1.706152
C -1.308225 1.924219 1.458629
C -1.233800 2.130577 1.252055
C -1.190719 2.343327 1.191924
C -0.965616 2.408321 1.177297
C -0.765358 2.479871 1.236255
C -0.604718 2.712030 1.263295
C -0.339856 2.711525 1.411599
C 0.050679 2.514379 1.561763
C 0.409135 2.328131 1.687711
C 0.732710 2.162706 1.576994
C 1.092601 2.121034 1.425047
C 1.492679 1.994101 1.307885
C 1.951275 1.648488 1.437401
C 2.409397 1.349619 1.486936
C 2.655117 1.207044 1.564842
C 2.801802 1.128983 1.679427
C 2.883522 1.084810 1.860064
C 2.729252 0.877517 1.962249
C 2.591023 0.637654 2.118477
C 2.425093 0.455874 2.233563
C 2.105785 0.316906 2.429151
C 1.834987 0.248012 2.538661
C 1.617329 0.012586 2.565812
C 1.467284 -0.263770 2.568238
C 1.175212 -0.381122 2.481127
C 0.792122 -0.454543 2.253841
C 0.417789 -0.533691 1.997549
C 0.378313 -0.687341 1.802560
C 0.450068 -0.918613 1.659950
C 0.747571 -1.016241 1.515896
C 0.998836 -1.062415 1.301609
C 1.582221 -1.276837 1.094898
C 2.112334 -1.490504 1.116418
C 2.687112 -1.783577 1.051464
C 2.945217 -1.933176 0.971790
C 3.099525 -2.090208 0.900966
C 2.945912 -2.327807 0.854647
C 2.812713 -2.624245 0.861702
C 2.524160 -2.880701 0.937359
C 2.426526 -2.979727 0.947285
C 2.239092 -2.987527 1.058487
C 2.110544 -3.157342 1.079016
