94
chr21 3D structure from Hi-C (resolution 500000bp)
C 0.348850 2.495221 -4.415481
C 0.414265 2.868025 -4.135539
C 0.645143 3.131291 -3.845465
C 0.961775 3.255335 -3.600242
C 1.312095 3.499970 -3.244594
C 1.787085 3.522798 -2.966699
C 2.372494 3.271790 -2.818855
C 2.907111 2.752229 -2.811304
C 3.290941 1.997282 -2.930297
C 3.480634 1.053550 -3.085526
C 3.380807 0.072408 -3.317083
C 3.018613 -0.769333 -3.583252
C 2.468260 -1.362826 -3.836068
C 1.878585 -1.694647 -4.071268
C 1.240351 -1.743013 -4.254393
C 0.486868 -1.558732 -4.370831
C -0.349472 -1.182103 -4.443831
C -1.137362 -0.823226 -4.400200
C -1.722621 -0.707958 -4.284147
C -1.796780 -1.076645 -3.993823
C -1.834279 -1.564548 -3.656021
C -1.928482 -2.131991 -3.349930
C -2.038723 -2.735285 -3.025535
C -2.150351 -3.200873 -2.564013
C -2.051602 -3.670982 -1.981546
C -1.835972 -3.556075 -1.246170
C -1.899972 -3.171815 -0.550107
C -2.062529 -2.746615 0.180449
C -2.130772 -2.440197 0.881441
C -2.119927 -2.101029 1.450658
C -2.014844 -1.791113 1.772429
C -2.011606 -1.336997 1.965850
C -2.052279 -1.208748 2.067050
C -2.332896 -0.875718 1.979773
C -2.495314 -0.619589 1.692527
C -2.684992 -0.292235 1.463569
C -2.774349 -0.035519 1.322674
C -2.847466 0.156695 1.212733
C -2.873125 0.340755 0.989257
C -3.010579 0.545360 0.700085
C -3.076120 0.674472 0.474854
C -3.143276 0.953763 0.271187
C -3.101304 1.233426 0.174372
C -3.036782 1.476243 0.102368
C -2.841971 1.612494 0.039905
C -2.721202 1.701484 0.179042
C -2.558625 1.683454 0.345471
C -2.228001 1.676334 0.540027
C -1.793335 1.664557 0.793797
C -1.428639 1.585390 0.939615
C -1.237934 1.570959 1.086328
C -1.183519 1.744179 1.186995
C -1.094069 1.927417 1.049632
C -1.024736 2.188960 0.922089
C -0.936255 2.393857 0.906750
C -0.821604 2.344126 1.089788
C -0.723198 2.427944 1.292553
C -0.683095 2.497330 1.513294
C -0.588205 2.325361 1.780143
C -0.422647 2.053784 2.108761
C -0.201992 1.759066 2.351569
C -0.035407 1.479463 2.498266
C 0.318151 1.401862 2.391128
C 0.661558 1.294328 2.295742
C 1.215819 1.121569 2.172274
C 1.774846 0.969600 2.049268
C 2.148641 0.896436 1.987258
C 2.392352 0.909306 1.977855
C 2.537737 0.888833 2.018780
C 2.376764 0.701803 2.141722
C 2.257129 0.473364 2.279906
C 2.108715 0.235015 2.384995
C 1.759328 0.046227 2.510880
C 1.526453 -0.089022 2.550036
C 1.312615 -0.334835 2.562191
C 1.211399 -0.529005 2.453720
C 0.862564 -0.588836 2.312872
C 0.565122 -0.679979 1.997804
C 0.261529 -0.724134 1.745156
C 0.299365 -0.761357 1.524744
C 0.426995 -0.850569 1.349068
C 0.778859 -0.905640 1.154459
C 1.037586 -0.993207 0.993862
C 1.683000 -1.158069 0.794815
C 2.203342 -1.350887 0.815139
C 2.680830 -1.666568 0.726391
C 2.936723 -1.879350 0.667528
C 3.044562 -2.076416 0.621642
C 2.844268 -2.310420 0.669979
C 2.721882 -2.560111 0.740505
C 2.430383 -2.856682 0.864199
C 2.290670 -2.979924 0.931720
C 2.170285 -2.976007 1.087074
C 2.050918 -3.110227 1.128500
