291
chr8 3D structure from Hi-C (resolution 500000bp)
C -3.011503 2.182210 -0.596738
C -2.993580 2.351968 -0.702515
C -2.946026 2.245642 -0.913318
C -2.816484 2.070071 -1.077716
C -2.609459 2.066742 -1.215068
C -2.420397 2.052622 -1.389292
C -2.354998 1.666499 -1.652538
C -2.255541 1.233587 -1.897642
C -2.147916 0.886330 -1.968115
C -2.045328 0.610159 -1.852281
C -2.012812 0.365393 -1.632288
C -2.202162 0.332270 -1.428888
C -2.460329 0.577085 -1.013269
C -2.543081 0.227222 -0.639987
C -2.558072 -0.075066 -0.302057
C -2.581702 -0.319434 -0.063437
C -2.783170 -0.409701 0.136080
C -3.007229 -0.363808 0.207565
C -2.909830 -0.524452 0.306950
C -2.788726 -1.086020 0.259698
C -2.721129 -1.040559 0.202546
C -2.991731 -0.614890 0.178402
C -2.977825 -0.493029 0.019481
C -2.730779 -0.398354 -0.235176
C -2.520567 -0.335142 -0.511781
C -2.495211 -0.165229 -0.792008
C -2.478962 0.119138 -1.119069
C -2.458342 0.432659 -1.507768
C -2.167895 0.270342 -1.894473
C -2.213292 0.428108 -2.077528
C -2.307026 0.470805 -2.205116
C -2.318022 0.394472 -2.168862
C -2.216032 0.221042 -2.079461
C -2.079666 0.021389 -1.984992
C -2.075595 -0.203500 -1.825523
C -2.144692 -0.333806 -1.620243
C -2.068976 -0.605607 -1.370912
C -2.096277 -0.760254 -1.140977
C -2.228843 -0.805820 -1.045685
C -2.378342 -0.816447 -0.952563
C -2.490689 -0.957086 -0.801471
C -2.481702 -1.184848 -0.544953
C -2.405939 -1.429775 -0.293457
C -2.363238 -1.578051 -0.199577
C -2.279647 -1.645993 -0.180799
C -2.286833 -1.716255 -0.139659
C -2.334461 -1.646775 -0.149479
C -2.310040 -1.621514 -0.221151
C -2.318367 -1.471963 -0.492949
C -2.333947 -1.388240 -0.682180
C -2.297762 -1.320535 -0.792200
C -2.228328 -1.387444 -0.733519
C -2.086921 -1.503067 -0.565327
C -1.899893 -1.784717 -0.376947
C -1.818166 -1.947238 -0.121415
C -1.736744 -2.198774 0.241199
C -1.612660 -2.343935 0.418533
C -1.615592 -2.455722 0.506051
C -1.581966 -2.540085 0.420086
C -1.503429 -2.484752 0.121383
C -1.431598 -2.230467 -0.339937
C -1.362183 -1.964303 -0.783371
C -1.351258 -1.699853 -1.275575
C -1.359981 -1.580761 -1.600367
C -1.355535 -1.445415 -1.917320
C -1.369599 -1.095611 -2.226007
C -1.358236 -0.877996 -2.397068
C -1.358112 -0.838157 -2.421579
C -1.415569 -0.741800 -2.522229
C -1.404479 -0.540165 -2.630565
C -1.467721 -0.361083 -2.831915
C -1.446052 -0.362449 -2.750562
C -1.478684 -0.684594 -2.493641
C -1.447996 -1.057460 -2.052980
C -1.428386 -1.350141 -1.722152
C -1.358278 -1.881437 -1.340719
C -1.278060 -2.400910 -1.025795
C -1.169568 -2.441243 -0.833643
C -1.136702 -2.409906 -0.819112
C -1.060251 -2.272191 -0.812156
C -1.090906 -2.243843 -0.927738
C -1.150952 -2.319850 -0.883455
C -1.170196 -2.224250 -0.915822
C -1.209182 -2.100348 -1.116227
C -1.391429 -1.642771 -1.213062
C -1.490899 -0.885761 -1.146805
C -1.559031 -0.099262 -1.160742
C -1.524936 0.853334 -1.338800
C -1.431961 1.788339 -1.705781
C -1.404656 2.548808 -2.098244
C -1.316993 3.071875 -2.199697
C -1.018366 2.493295 -2.244497
C -0.785486 1.528892 -2.243552
C -0.569207 0.793736 -2.356148
C -0.387958 0.110626 -2.489748
C -0.217003 -0.414424 -2.372664
C -0.007324 -0.677006 -2.297768
C 0.148904 -0.808477 -2.311705
C 0.240207 -0.448369 -2.427055
C 0.344811 -0.044167 -2.699470
C 0.470806 -0.018845 -2.845485
C 0.585389 0.035388 -2.873402
C 0.674181 -0.144103 -2.945202
C 0.724246 -0.214941 -2.934906
C 0.755604 -0.628783 -2.696351
C 0.803739 -1.015245 -2.482987
C 0.851296 -1.184291 -2.401111
C 0.827882 -1.268963 -2.224550
C 0.737862 -1.531772 -1.844113
C 0.718704 -1.460563 -1.682326
C 0.718675 -1.519907 -1.526684
C 0.772286 -1.379912 -1.526507
C 0.812504 -1.385758 -1.414506
C 0.780824 -1.509529 -1.067316
C 0.829245 -1.684014 -0.907823
C 1.033393 -1.748657 -1.087872
C 1.166892 -1.753093 -1.186751
C 1.260539 -1.900286 -1.168915
C 1.234828 -2.024832 -0.934449
C 1.236230 -2.014740 -0.856402
C 1.313123 -1.922355 -0.986073
C 1.435754 -1.721566 -1.160213
C 1.384115 -1.377353 -1.172748
C 1.372256 -1.461381 -1.089325
C 1.465177 -1.346460 -1.200467
C 1.558301 -1.082126 -1.430238
C 1.585459 -1.187707 -1.364651
C 1.629235 -1.156817 -1.394024
C 1.540425 -1.360965 -1.045256
C 1.549310 -1.627888 -0.778927
C 1.552842 -1.817250 -0.494945
C 1.522476 -2.041349 -0.164157
C 1.594457 -2.223768 -0.090281
C 1.716653 -1.973476 -0.248965
C 1.790588 -1.807084 -0.377263
C 1.819585 -1.428511 -0.638327
C 1.855219 -1.316838 -0.669619
C 1.878265 -1.201813 -0.700267
C 1.895626 -1.018111 -0.792364
C 1.844572 -0.827736 -0.730656
C 1.793026 -0.859080 -0.597552
C 1.709494 -0.954773 -0.372480
C 1.842456 -1.114153 -0.253609
C 1.823186 -1.124052 -0.265359
C 1.881075 -1.118077 -0.290521
C 1.949917 -1.043669 -0.323110
C 2.060037 -0.937069 -0.456099
C 2.204769 -0.769845 -0.609039
C 2.407455 -0.709310 -0.705422
C 2.415667 -0.495301 -0.846241
C 2.667445 -0.392391 -1.038230
C 2.760577 -0.046566 -1.332201
C 2.747391 0.108661 -1.375091
C 2.770931 0.173082 -1.334886
C 2.793710 0.118747 -1.163530
C 2.710930 0.265121 -1.219713
C 2.677582 0.074558 -0.938613
C 2.535811 -0.117844 -0.583750
C 2.521742 -0.285533 -0.279567
C 2.537383 -0.499552 -0.044544
C 2.497719 -0.532018 0.056741
C 2.366546 -0.222358 -0.162029
C 2.278625 -0.134784 -0.120729
C 2.197023 0.287050 -0.489883
C 2.085769 0.915688 -0.859174
C 1.893770 1.337331 -1.200986
C 1.817647 1.679128 -1.478733
C 1.658052 1.705762 -1.502928
C 1.424197 1.801178 -1.441347
C 1.334157 1.844451 -1.373161
C 1.287091 1.708574 -1.111151
C 1.197644 1.780069 -1.121654
C 1.215100 1.718452 -0.944461
C 1.287815 1.844711 -0.916803
C 1.420560 2.076225 -0.992572
C 1.638867 1.928471 -0.915749
C 1.868024 1.705137 -0.715068
C 1.921264 1.766832 -0.710641
C 2.162648 1.419218 -0.413503
C 2.392719 1.300950 -0.241354
C 2.238627 1.392521 -0.221825
C 2.336797 1.301779 -0.026833
C 2.425291 1.360149 0.101562
C 2.304817 1.504274 0.031873
C 2.356992 1.250911 0.251919
C 2.155481 1.037884 0.380449
C 1.936604 0.723408 0.619244
C 1.937060 0.198399 0.969051
C 1.672935 0.034966 1.046080
C 1.482448 -0.267308 1.207006
C 1.531368 -0.492199 1.424460
C 1.442835 -0.523768 1.453058
C 1.431340 -0.502659 1.482140
C 1.309358 -0.532036 1.471232
C 1.217201 -0.707628 1.604616
C 1.259893 -1.033947 1.805312
C 1.226816 -1.275957 1.975743
C 0.958235 -1.515765 2.156216
C 0.823231 -1.656531 2.301269
C 0.719720 -1.735456 2.385308
C 0.737140 -1.712453 2.405811
C 0.755212 -1.710912 2.380263
C 0.700975 -1.640667 2.371486
C 0.745023 -1.436105 2.258040
C 0.942240 -1.086798 1.969323
C 1.148447 -0.834632 1.841467
C 1.378634 -0.584427 1.742529
C 1.590883 -0.222018 1.580535
C 1.849619 0.266464 1.433059
C 2.041646 0.605348 1.296455
C 2.124520 0.780436 1.270169
C 2.185331 0.977910 1.279464
C 2.199922 1.180725 1.219628
C 2.110945 1.311248 1.138796
C 2.013100 1.350301 1.140580
C 1.862631 1.275062 1.135022
C 1.852617 1.313136 1.242183
C 1.689787 1.637090 1.058388
C 1.460388 1.877656 0.961027
C 1.293807 2.091366 0.820942
C 1.267208 2.252792 0.747105
C 1.183294 2.413420 0.663264
C 1.152611 2.716231 0.603569
C 1.042501 2.885739 0.454960
C 1.159852 2.784622 0.625054
C 1.266902 2.618624 0.752480
C 1.326735 2.484578 0.879542
C 1.339262 2.422302 1.084594
C 1.244659 2.506093 1.196672
C 1.199485 2.413054 1.289806
C 1.186019 2.155275 1.471912
C 1.075045 2.135523 1.552891
C 1.056283 1.943244 1.721871
C 1.006382 1.696565 1.897179
C 0.996415 1.422758 2.000787
C 1.049556 1.163429 2.064626
C 1.046961 0.996602 2.177910
C 1.003830 1.123745 2.137202
C 1.058834 0.991464 2.186284
C 0.989859 1.165501 2.117495
C 0.884776 1.392038 2.059654
C 0.791580 1.659417 1.893007
C 0.806106 1.509872 2.026847
C 0.753968 1.325387 2.133769
C 0.646189 1.176389 2.350637
C 0.530172 0.997111 2.406713
C 0.472032 0.629373 2.564946
C 0.428159 0.275242 2.707815
C 0.383402 0.055651 2.845384
C 0.269312 0.183809 2.744607
C 0.114462 0.377988 2.707439
C 0.049500 0.293821 2.624354
C -0.032649 0.287147 2.667913
C -0.081581 0.373226 2.626348
C -0.323435 0.783684 2.584713
C -0.369088 0.892054 2.583343
C -0.387756 0.841514 2.713118
C -0.324798 0.677689 2.681257
C -0.311291 0.903209 2.635069
C -0.343619 1.188255 2.514219
C -0.382381 1.392534 2.435049
C -0.216003 1.259201 2.375852
C -0.284351 1.245784 2.397226
C -0.350009 1.187246 2.311760
C -0.390933 1.221050 2.270672
C -0.436479 1.180742 2.224703
C -0.429125 1.012149 2.228613
C -0.471154 1.057230 2.181064
C -0.487681 1.177654 2.111925
C -0.537032 1.373779 1.983608
C -0.639594 1.689074 1.907322
C -0.699065 2.000885 1.744727
C -0.678627 2.146819 1.602821
C -0.783151 2.354839 1.493337
C -0.795883 2.277309 1.488066
C -0.837352 2.077462 1.521153
C -0.870935 1.867729 1.616804
C -0.819739 1.445582 1.730858
C -0.918212 0.964591 2.003921
C -1.079913 0.500235 2.288341
C -1.167720 0.168855 2.527977
C -1.318767 -0.039131 2.705514
C -1.453823 -0.224687 2.841899
C -1.677568 -0.411349 2.962406
C -2.053497 -0.310234 2.997735
C -2.285552 -0.124471 2.976626
C -2.490228 0.044033 2.919251
C -2.779029 0.277279 2.767497
C -2.936505 0.324350 2.732355
C -3.140640 0.447224 2.697825
C -3.257856 0.653052 2.596246
