291
chr8 3D structure from Hi-C (resolution 500000bp)
C -3.668763 1.689711 0.265923
C -3.672619 1.956049 0.223614
C -3.643869 1.881938 -0.019637
C -3.570958 1.694810 -0.207412
C -3.371721 1.762095 -0.353799
C -3.253252 1.802031 -0.534922
C -3.148237 1.473111 -0.871019
C -3.016617 1.094346 -1.190714
C -2.867561 0.747463 -1.435728
C -2.694836 0.463756 -1.415576
C -2.520292 0.254530 -1.287626
C -2.718126 0.148536 -1.111735
C -2.905519 0.290043 -0.689042
C -2.862198 -0.152764 -0.405454
C -2.705918 -0.534219 -0.145608
C -2.627463 -0.821798 0.098414
C -2.794297 -0.933862 0.297719
C -3.008386 -0.980691 0.428605
C -2.800894 -1.140820 0.501336
C -2.561982 -1.697647 0.327083
C -2.494621 -1.667141 0.309467
C -2.905628 -1.400914 0.434157
C -2.952741 -1.290346 0.294712
C -2.758551 -1.118891 0.073795
C -2.608532 -0.939445 -0.243340
C -2.629347 -0.631938 -0.560403
C -2.655364 -0.241409 -0.923264
C -2.764650 0.149946 -1.294104
C -2.551478 0.209468 -1.741024
C -2.690099 0.412522 -1.850008
C -2.781697 0.555086 -1.975069
C -2.751369 0.495003 -1.981906
C -2.673893 0.287902 -1.875787
C -2.538712 0.061381 -1.736551
C -2.444297 -0.166728 -1.649526
C -2.400398 -0.340460 -1.552634
C -2.231905 -0.635876 -1.452828
C -2.211573 -0.950978 -1.220134
C -2.353981 -1.069014 -1.054786
C -2.477533 -1.148530 -0.956739
C -2.529165 -1.328810 -0.777573
C -2.468832 -1.578529 -0.523479
C -2.297745 -1.855401 -0.299325
C -2.210882 -2.007525 -0.164854
C -2.076172 -2.072885 -0.152401
C -2.004859 -2.214708 -0.174947
C -2.041046 -2.278130 -0.158838
C -2.030069 -2.288969 -0.229205
C -2.051663 -2.167314 -0.425125
C -2.118445 -2.057562 -0.560016
C -2.093784 -1.972436 -0.653523
C -2.037588 -2.029625 -0.686836
C -1.826891 -2.105572 -0.556975
C -1.560426 -2.283763 -0.436863
C -1.393720 -2.451215 -0.276399
C -1.228341 -2.698148 -0.021589
C -1.062706 -2.875569 0.122994
C -0.995220 -3.023551 0.173937
C -0.974311 -3.102149 0.133633
C -0.984059 -3.027209 -0.162050
C -1.023920 -2.704643 -0.591712
C -1.095011 -2.315750 -0.978855
C -1.191115 -1.981450 -1.410903
C -1.309041 -1.760521 -1.755497
C -1.428073 -1.589307 -2.022932
C -1.543261 -1.267802 -2.299931
C -1.634404 -0.951651 -2.432711
C -1.690892 -0.882099 -2.429077
C -1.786903 -0.823820 -2.548886
C -1.909492 -0.641907 -2.631106
C -2.034376 -0.466462 -2.749502
C -1.971235 -0.449387 -2.721269
C -1.893536 -0.771392 -2.531164
C -1.748616 -1.237371 -2.223378
C -1.584961 -1.617359 -1.949638
C -1.391343 -2.056392 -1.853351
C -1.224436 -2.469287 -1.748622
C -1.048988 -2.550012 -1.625417
C -1.071604 -2.451491 -1.584021
C -1.029043 -2.260455 -1.573945
C -1.030423 -2.191830 -1.581965
C -1.002228 -2.259271 -1.552204
C -1.001569 -2.265207 -1.353250
C -1.120660 -1.641350 -1.381143
C -1.338514 -1.139624 -1.402166
C -1.504174 -0.440734 -1.178155
C -1.692244 0.361215 -1.013341
C -1.878366 1.378006 -1.023514
C -2.124958 2.434996 -1.185844
C -2.352958 3.282992 -1.404235
C -2.256938 3.308497 -1.475462
C -1.928599 2.797315 -1.647010
C -1.566640 1.910236 -1.919159
C -1.246001 1.286692 -2.270137
C -0.967754 0.723504 -2.605627
C -0.612040 0.158478 -2.697241
C -0.262656 -0.083910 -2.742209
C -0.039206 -0.174404 -2.764352
C 0.040365 0.199959 -2.792988
C 0.131803 0.562114 -2.997190
C 0.210739 0.562046 -3.101982
C 0.342027 0.484446 -3.103002
C 0.441592 0.471063 -3.207734
C 0.530034 0.287504 -3.238838
C 0.654161 -0.204224 -3.081625
C 0.765567 -0.681762 -2.925283
C 0.807920 -0.873626 -2.839948
C 0.849633 -1.014578 -2.678160
C 0.868664 -1.281469 -2.385000
C 0.821660 -1.381524 -2.154742
C 0.811257 -1.383715 -1.948300
C 0.823417 -1.201283 -1.934076
C 0.836621 -1.061659 -1.894480
C 0.878822 -1.191451 -1.566769
C 0.990477 -1.309308 -1.526556
C 1.141324 -1.300080 -1.726801
C 1.296162 -1.391287 -1.809122
C 1.391087 -1.497315 -1.812502
C 1.414959 -1.662970 -1.597821
C 1.480998 -1.790726 -1.400289
C 1.534639 -1.656809 -1.529168
C 1.588041 -1.458917 -1.626740
C 1.500741 -1.196276 -1.529870
C 1.537346 -1.172443 -1.462559
C 1.684247 -1.064194 -1.594215
C 1.716278 -0.735277 -1.818032
C 1.819236 -0.762350 -1.815418
C 1.886601 -0.713543 -1.832073
C 1.881779 -1.033963 -1.481125
C 1.933520 -1.326460 -1.275756
C 1.958022 -1.564404 -1.049409
C 1.905600 -1.843577 -0.704048
C 2.051823 -2.038346 -0.587133
C 2.008337 -1.738755 -0.703456
C 2.067876 -1.637637 -0.771522
C 2.027013 -1.158183 -0.995410
C 2.066088 -1.025974 -1.015627
C 2.119573 -0.821060 -1.118915
C 2.114771 -0.583727 -1.240563
C 2.025605 -0.413887 -1.255104
C 2.009766 -0.539602 -1.077052
C 1.899239 -0.571906 -0.881638
C 2.073389 -0.737317 -0.762317
C 2.132603 -0.728515 -0.709357
C 2.125973 -0.785719 -0.613360
C 2.112405 -0.609739 -0.672084
C 2.054755 -0.397286 -0.783017
C 2.161713 -0.106923 -1.025287
C 2.319826 0.021125 -1.149538
C 2.286161 0.298401 -1.247291
C 2.414685 0.647428 -1.455093
C 2.375670 1.160962 -1.790390
C 2.360835 1.257355 -1.759411
C 2.452642 1.306280 -1.683230
C 2.515347 1.171748 -1.527973
C 2.431768 1.291727 -1.560169
C 2.458542 1.118737 -1.377600
C 2.469902 0.757593 -1.075277
C 2.601314 0.463169 -0.752315
C 2.760625 0.208442 -0.582900
C 2.767649 0.058347 -0.446521
C 2.599280 0.375402 -0.514973
C 2.511290 0.447056 -0.420941
C 2.274891 0.830135 -0.652054
C 1.965504 1.392118 -0.958831
C 1.658552 1.869599 -1.175530
C 1.380290 2.247492 -1.340531
C 1.191394 2.327226 -1.372588
C 0.898577 2.439010 -1.378579
C 0.784078 2.407708 -1.369681
C 0.809517 2.224842 -1.151419
C 0.699363 2.314926 -1.128161
C 0.663426 2.240631 -1.023181
C 0.582290 2.429948 -1.047826
C 0.577496 2.713244 -1.052757
C 0.782639 2.558523 -0.946924
C 1.045163 2.310567 -0.740952
C 1.155765 2.283154 -0.688432
C 1.452672 2.024881 -0.492177
C 1.831109 1.866853 -0.335678
C 2.190036 1.752260 -0.160635
C 2.533433 1.440467 0.030402
C 2.778762 1.378829 0.133406
C 2.791892 1.495795 0.147170
C 2.849872 1.346636 0.316541
C 2.796955 1.039885 0.520865
C 2.645943 0.648971 0.706456
C 2.482940 0.164980 0.871243
C 2.240500 0.073029 0.912753
C 2.054755 -0.240812 1.083817
C 2.026993 -0.373555 1.205981
C 1.960930 -0.410258 1.252053
C 1.903375 -0.432671 1.273381
C 1.805108 -0.436208 1.281298
C 1.845954 -0.591863 1.425209
C 1.853348 -0.932678 1.585247
C 1.858278 -1.168731 1.702167
C 1.804537 -1.518412 1.816364
C 1.755626 -1.804487 1.895748
C 1.689012 -1.961851 1.971515
C 1.678841 -1.978145 1.967300
C 1.614660 -2.008429 1.994337
C 1.603761 -1.914025 2.010506
C 1.653091 -1.654568 1.916012
C 1.606218 -1.215319 1.770632
C 1.711230 -0.831973 1.737878
C 1.868735 -0.467875 1.691374
C 1.915667 0.067235 1.578341
C 1.985825 0.708123 1.404796
C 2.057226 1.182798 1.303787
C 2.068901 1.411331 1.310125
C 2.076627 1.644410 1.249406
C 1.984673 1.879327 1.161043
C 1.858086 1.963346 1.067556
C 1.868430 1.895379 1.119739
C 1.781937 1.700207 1.123176
C 1.827335 1.681103 1.175644
C 1.680046 1.948845 1.079489
C 1.490107 2.134032 1.074993
C 1.389133 2.277935 1.107017
C 1.330219 2.465030 1.085850
C 1.171246 2.616500 1.042515
C 1.019514 2.918943 1.017107
C 0.855108 3.058612 0.987451
C 0.753330 3.006449 1.103435
C 0.802535 2.861178 1.226791
C 0.807091 2.717269 1.244865
C 0.822257 2.641483 1.439453
C 0.734238 2.680793 1.628459
C 0.817702 2.559433 1.762449
C 0.879884 2.295903 1.867500
C 0.996353 2.130621 2.024457
C 1.035283 1.881814 2.140515
C 1.077273 1.643451 2.295958
C 1.127851 1.430852 2.351560
C 1.221352 1.201015 2.353503
C 1.249917 0.992959 2.507872
C 1.138089 1.050461 2.487344
C 1.087833 0.976767 2.462427
C 0.922991 1.179518 2.398729
C 0.777026 1.357765 2.317171
C 0.642675 1.519069 2.241571
C 0.667178 1.291622 2.308700
C 0.621004 1.039986 2.297173
C 0.539398 0.767813 2.509282
C 0.493118 0.506532 2.516042
C 0.554755 0.050461 2.642782
C 0.547109 -0.369239 2.771541
C 0.561787 -0.590441 2.845536
C 0.457197 -0.510373 2.815028
C 0.367422 -0.291616 2.863274
C 0.401618 -0.289063 2.761803
C 0.432435 -0.288971 2.842716
C 0.418403 -0.228082 2.847484
C 0.111744 0.108975 2.943155
C 0.047076 0.180647 2.979240
C 0.040303 0.127469 3.065910
C 0.042411 -0.005327 2.963295
C 0.000719 0.190450 2.971858
C -0.141574 0.495651 2.926790
C -0.277565 0.726834 2.866592
C -0.053963 0.714833 2.755626
C -0.143600 0.718514 2.769169
C -0.229682 0.709149 2.674912
C -0.294184 0.767010 2.646393
C -0.391471 0.781059 2.587116
C -0.376079 0.636761 2.525550
C -0.369765 0.701353 2.564427
C -0.449381 0.783332 2.515701
C -0.496742 0.964949 2.456067
C -0.643160 1.293538 2.471249
C -0.771067 1.582078 2.394833
C -0.818922 1.729704 2.309330
C -0.960420 1.987317 2.254981
C -0.989724 1.911005 2.173819
C -0.969633 1.700919 2.194553
C -1.000028 1.427334 2.241730
C -0.896732 1.013194 2.269293
C -0.847493 0.482835 2.473883
C -0.857701 -0.061859 2.680404
C -0.913699 -0.500622 2.858698
C -1.010069 -0.795016 3.036202
C -1.095014 -1.011201 3.149259
C -1.273273 -1.244614 3.237563
C -1.654232 -1.298067 3.329060
C -1.978208 -1.208747 3.317162
C -2.254326 -1.041954 3.306000
C -2.568685 -0.774198 3.222394
C -2.738824 -0.742336 3.212293
C -3.014531 -0.672182 3.193675
C -3.207027 -0.428113 3.132773
