319
chr7 3D structure from Hi-C (resolution 500000bp)
C 0.056616 4.065341 1.051409
C -0.238353 3.980433 0.979476
C -0.229013 3.940121 0.837314
C -0.073609 3.791704 0.658528
C -0.009698 3.700372 0.513409
C 0.171341 3.564344 0.322479
C 0.330842 3.484084 0.186151
C 0.384701 3.435811 0.112536
C 0.442173 3.482598 0.146232
C 0.247163 3.452059 0.216558
C 0.225502 3.644098 0.336435
C 0.183352 3.616662 0.222176
C 0.100906 3.670923 0.193095
C 0.232363 3.650727 0.094329
C 0.635952 3.531875 -0.099861
C 1.252547 3.314978 -0.329124
C 1.919889 3.207278 -0.467588
C 2.243608 2.987950 -0.605312
C 2.333416 2.881385 -0.649662
C 2.532689 2.814890 -0.721250
C 2.714371 2.658591 -0.837135
C 2.725929 2.596484 -0.930625
C 2.635713 2.509998 -1.055809
C 2.717129 2.348172 -1.168381
C 2.757540 2.208137 -1.296521
C 2.938886 2.079112 -1.356879
C 3.032697 1.834980 -1.455521
C 3.028822 1.684289 -1.537986
C 3.099107 1.525838 -1.616575
C 3.073689 1.474163 -1.720707
C 2.805723 1.472132 -1.887560
C 2.535406 1.594486 -1.960352
C 2.291766 1.745535 -2.073787
C 2.169098 1.792398 -2.227052
C 2.175052 1.872308 -2.308540
C 2.084938 1.975282 -2.422743
C 2.022228 2.073112 -2.465082
C 1.883908 2.254603 -2.440924
C 1.853792 2.283335 -2.537872
C 1.668634 2.335121 -2.467552
C 1.437233 2.473560 -2.372768
C 1.087311 2.681423 -2.273340
C 0.712690 2.825235 -2.023626
C 0.303015 3.029509 -1.755776
C 0.134901 3.102216 -1.621916
C -0.053877 3.074664 -1.499581
C -0.304256 3.080079 -1.384915
C -0.508524 3.145344 -1.286826
C -0.695280 3.175068 -1.168881
C -0.971384 3.200602 -1.096101
C -1.084123 3.177955 -1.146260
C -1.348459 3.200128 -1.062066
C -1.567028 3.349779 -0.946171
C -1.564622 3.303437 -1.027979
C -1.595310 3.225852 -1.079195
C -1.642891 3.120070 -1.208752
C -1.500336 3.023703 -1.396809
C -1.604187 2.964727 -1.435453
C -1.559602 2.813852 -1.560526
C -1.378248 2.659342 -1.825704
C -1.217944 2.582111 -1.968333
C -1.053935 2.463789 -2.062275
C -0.970864 2.520272 -2.103208
C -0.738617 2.461440 -2.330453
C -0.328055 2.301491 -2.622643
C 0.162364 2.146570 -2.891554
C 0.246957 1.971639 -2.947343
C 0.282978 1.902657 -3.050448
C 0.042274 1.936872 -3.126772
C -0.122150 1.807258 -3.126632
C -0.343922 1.796165 -3.045852
C -0.752883 1.822949 -2.879988
C -1.218147 1.958421 -2.795189
C -1.461546 1.977919 -2.672103
C -1.664713 1.940321 -2.626886
C -1.565362 1.854807 -2.677008
C -1.618632 1.729450 -2.698370
C -1.794409 1.535915 -2.768553
C -1.787077 1.288434 -2.947211
C -1.836447 1.045267 -3.021920
C -1.825989 0.924242 -3.170510
C -1.776505 0.777416 -3.295051
C -1.879435 0.572475 -3.406927
C -1.858948 0.518508 -3.441699
C -1.857243 0.610167 -3.181334
C -2.018562 0.837975 -2.913915
C -2.172107 1.035709 -2.659613
C -2.251238 1.103415 -2.568506
C -2.213421 1.075515 -2.527120
C -1.998235 1.117118 -2.515602
C -1.679557 0.970161 -2.686004
C -1.367703 0.907344 -2.940637
C -0.975827 0.676389 -3.150487
C -0.492772 0.434377 -3.392565
C -0.066909 0.261690 -3.532575
C 0.191870 0.258568 -3.522920
C 0.317657 0.175478 -3.473142
C 0.332012 0.266488 -3.339494
C 0.455080 0.154257 -3.304681
C 0.820504 0.036908 -3.395810
C 1.075434 -0.162067 -3.432276
C 1.176087 -0.297048 -3.404853
C 1.260459 -0.436923 -3.437754
C 1.541069 -0.528657 -3.388774
C 1.888761 -0.735524 -3.391662
C 2.059208 -0.816997 -3.362197
C 1.976606 -0.786160 -3.237179
C 1.734519 -0.683474 -3.139894
C 1.652913 -0.585163 -3.017383
C 1.687221 -0.613518 -2.860491
C 1.784442 -0.668910 -2.741334
C 1.910425 -0.731102 -2.629341
C 2.201620 -0.848269 -2.441863
C 2.632832 -1.022129 -2.160828
C 3.211819 -1.224618 -1.782618
C 3.698196 -1.386360 -1.361002
C 4.085454 -1.380915 -0.915166
C 4.280218 -1.246812 -0.496337
C 4.453099 -1.050421 -0.147755
C 4.551008 -0.849296 0.073257
C 4.592044 -0.665142 0.104467
C 4.596392 -0.535288 -0.000525
C 4.496480 -0.646706 -0.227608
C 4.308625 -0.877461 -0.558558
C 4.066394 -1.206519 -0.977485
C 3.695635 -1.583216 -1.428425
C 3.237374 -2.000750 -1.834021
C 2.647095 -2.392656 -2.207589
C 1.569637 -2.532912 -2.463132
C 0.582668 -2.373272 -2.619402
C -0.397980 -2.144449 -2.674102
C -1.115973 -2.024810 -2.749393
C -1.506813 -1.952322 -2.801879
C -1.704876 -1.885433 -2.802815
C -1.799790 -1.747442 -2.776469
C -1.420932 -1.771540 -2.784177
C -1.251659 -1.812006 -2.760576
C -0.997978 -1.843217 -2.762318
C -0.927861 -1.818124 -2.687387
C -0.919959 -1.882777 -2.661600
C -1.012145 -1.893518 -2.644756
C -1.155558 -1.914672 -2.631371
C -1.418886 -1.928353 -2.631453
C -1.742780 -1.827245 -2.548439
C -1.999953 -1.587334 -2.337711
C -2.366018 -1.273677 -2.115343
C -2.915574 -0.725677 -1.731002
C -3.498921 -0.254134 -1.387860
C -3.878182 0.067410 -1.039181
C -4.098322 0.368923 -0.733304
C -3.002949 0.054368 -0.611331
C -3.003415 -0.182318 -0.648369
C -2.898282 -0.465646 -0.682003
C -2.391699 -0.976841 -0.785787
C -1.726601 -1.465165 -0.906537
C -1.093130 -1.891119 -1.006210
C -0.381730 -2.386028 -1.166315
C -0.692159 -2.416339 -1.177346
C -0.227405 -2.708731 -1.267073
C 0.240449 -2.975131 -1.340471
C 0.310722 -3.139819 -1.332038
C 0.326814 -3.284931 -1.366601
C 0.307957 -3.378287 -1.317363
C 0.202470 -3.402270 -1.243379
C 0.058665 -3.477429 -1.183861
C 0.245933 -3.571506 -1.022892
C 0.481062 -3.656073 -0.926471
C 0.729338 -3.661437 -0.790137
C 1.003349 -3.660391 -0.642841
C 0.998243 -3.690247 -0.522866
C 0.856175 -3.637026 -0.325307
C 0.640075 -3.431820 -0.218738
C 0.277155 -3.374591 -0.284007
C -0.123120 -3.301293 -0.175371
C -0.436982 -3.357317 -0.248075
C -0.825223 -3.448458 -0.230300
C -0.949163 -3.448965 -0.258468
C -1.080011 -3.507640 -0.321396
C -1.226946 -3.567176 -0.401454
C -1.291000 -3.535177 -0.323013
C -1.346692 -3.421061 -0.293318
C -1.647962 -3.109983 -0.175454
C -2.003907 -2.839702 -0.085439
C -2.248499 -2.705479 -0.001467
C -2.458002 -2.651160 -0.003981
C -2.475671 -2.749537 0.158420
C -2.539555 -2.737450 0.259138
C -2.606669 -2.820773 0.302675
C -2.558273 -2.962165 0.199251
C -2.479190 -2.990015 0.287871
C -2.510347 -2.888116 0.226111
C -2.490398 -2.756128 0.350900
C -2.501195 -2.529446 0.351346
C -2.566188 -2.169137 0.405904
C -2.717499 -1.740959 0.451824
C -2.914873 -1.267089 0.674061
C -3.089827 -0.780118 0.722054
C -3.282090 -0.242952 0.883330
C -3.407204 0.280788 0.935299
C -3.552120 0.689718 0.970551
C -3.629808 0.881922 1.029238
C -3.692668 1.091440 1.123449
C -2.948042 0.470860 1.085311
C -2.984772 0.202764 1.048930
C -2.884305 -0.280581 1.131707
C -2.678197 -0.606005 1.230946
C -2.621831 -0.901001 1.299631
C -2.689059 -1.095079 1.370396
C -2.594890 -1.325618 1.388614
C -3.175167 -0.826914 1.566074
C -2.967506 -0.835039 1.705540
C -3.031406 -0.727496 1.818824
C -3.040338 -0.801148 1.898260
C -2.812371 -0.864560 1.978263
C -2.394542 -1.152264 2.012629
C -1.908326 -1.535753 2.021650
C -1.424235 -2.020007 1.969625
C -0.965268 -2.391559 1.914666
C -0.401192 -2.725935 1.830203
C 0.158254 -3.014249 1.764000
C 0.375149 -3.332867 1.713844
C 0.416039 -3.256177 1.728017
C 0.281644 -3.258770 1.755555
C 0.165635 -3.180586 1.841382
C 0.016523 -3.164749 1.994216
C -0.207177 -3.089738 2.212932
C -0.599443 -2.919683 2.384258
C -0.628344 -2.849388 2.519685
C -0.556412 -2.969020 2.658734
C -0.502396 -2.865746 2.780922
C -0.578107 -2.724854 2.888652
C -0.628963 -2.464422 2.954935
C -0.379644 -2.422633 2.904000
C -0.108766 -2.410739 2.837800
C 0.366175 -2.329879 2.632917
C 0.806172 -2.322394 2.391408
C 1.243743 -2.411815 2.126778
C 1.483635 -2.391454 1.980715
C 1.795269 -2.556185 1.852804
C 1.765331 -2.434057 1.838257
C 1.949537 -2.476305 1.773307
C 1.808536 -2.437311 1.959915
C 1.743429 -2.251713 2.127890
C 1.699846 -2.082986 2.376186
C 1.881842 -2.046883 2.510735
C 1.913474 -1.923435 2.575003
C 1.984154 -1.918651 2.535764
C 2.102739 -1.867645 2.505697
C 2.145251 -1.783735 2.403807
C 2.060873 -1.728706 2.432149
C 1.825882 -1.647755 2.546383
C 1.532675 -1.519434 2.554422
C 1.089974 -1.305842 2.596910
C 0.643011 -0.973357 2.587787
C -0.173717 -0.401982 2.664968
C -0.872239 0.125748 2.784297
C -1.518743 0.494243 2.780643
C -2.017375 0.846041 2.708049
C -2.396654 1.114706 2.699461
C -2.488488 1.363410 2.659620
C -2.386155 1.344846 2.713236
C -2.169601 1.062468 2.835554
C -2.098439 0.849829 2.873527
C -2.011394 0.681098 2.942611
C -1.956714 0.493129 3.043700
C -1.811289 0.389218 3.164751
C -1.710799 0.255163 3.288004
C -1.687636 0.224884 3.329592
C -1.587899 0.229573 3.350064
C -1.258159 0.091058 3.474573
C -0.822516 -0.005734 3.622828
C -0.367078 -0.079022 3.713495
C -0.150290 -0.179467 3.739743
C 0.010184 -0.191086 3.672023
C 0.133626 -0.215954 3.704223
C 0.073462 -0.104804 3.661703
C -0.179540 0.168479 3.600070
C -0.458777 0.472643 3.526107
C -0.715629 0.827160 3.463979
C -0.686053 0.990904 3.417285
C -0.582373 1.154270 3.554916
C 0.091423 1.258194 3.235887
C 0.888901 1.326855 2.935225
C 1.291405 1.176052 2.964422
C 1.839101 0.917687 2.958009
C 2.199804 0.642209 2.898200
C 2.449155 0.505983 2.764683
C 2.796294 0.245194 2.556606
C 2.651660 0.223793 2.777878
C 2.487105 0.080341 3.002959
C 2.719912 0.040415 2.853740
C 2.735974 0.088521 2.691521
C 2.908707 0.165889 2.582870
C 3.122937 0.284994 2.540734
C 2.850578 0.410006 2.588384
C 2.425468 0.575587 2.658160
C 1.898346 0.900678 2.743569
C 1.335437 1.332036 2.797346
C 0.801438 1.564674 2.825797
C 0.201478 1.849810 2.842751
C -0.299939 2.028049 2.929315
C -0.393921 2.346523 2.952276
C -0.247845 2.350571 2.952611
C 0.122906 2.184713 2.872365
C 0.632071 1.975872 2.811570
C 1.127837 1.980829 2.796586
C 1.546696 1.815990 2.809062
C 1.736731 1.802953 2.764604
C 1.809156 1.633941 2.749009
C 1.807475 1.670503 2.702431
C 1.521510 1.761619 2.670506
C 1.237002 1.879715 2.677472
C 1.261288 1.910527 2.613708
C 1.456430 2.045715 2.508744
C 1.588717 2.165367 2.477073
C 1.844820 2.335053 2.402714
C 1.932337 2.346898 2.314666
C 2.263788 2.431902 2.304293
C 2.653037 2.419545 2.229826
