319
chr7 3D structure from Hi-C (resolution 500000bp)
C -3.286686 -0.965438 2.258412
C -3.212089 -1.123558 2.163970
C -3.157945 -1.148912 2.061494
C -3.081766 -0.973299 1.635363
C -3.016002 -0.920398 1.347508
C -3.023676 -0.622062 0.931301
C -3.104434 -0.432650 0.707138
C -3.141789 -0.377075 0.528888
C -3.239042 -0.256280 0.535733
C -3.294230 -0.216244 0.534237
C -3.477674 -0.272298 0.931218
C -3.491956 -0.396049 1.026467
C -3.513564 -0.618633 1.210055
C -3.502384 -0.487705 1.102248
C -3.498412 -0.155343 0.658431
C -3.424830 0.197226 0.122719
C -3.363780 0.623716 -0.366421
C -3.239291 0.925329 -0.896398
C -3.149634 0.985577 -1.160338
C -3.048289 1.234260 -1.616581
C -3.068156 1.321751 -1.812418
C -3.113415 1.258270 -1.794466
C -3.154435 1.134276 -1.674611
C -3.261810 1.108663 -1.592231
C -3.321759 1.065138 -1.537572
C -3.263171 1.251510 -1.700177
C -3.286227 1.128831 -1.709531
C -3.250000 1.039877 -1.797038
C -3.231084 0.984232 -1.865022
C -3.212136 0.902397 -2.044826
C -3.109147 0.613947 -2.117395
C -3.083140 0.254383 -2.011134
C -3.231528 -0.064302 -1.785616
C -3.356263 -0.185503 -1.532835
C -3.520007 -0.228203 -1.294285
C -3.625681 -0.308769 -1.117735
C -3.707757 -0.465801 -0.980155
C -3.779128 -0.613422 -0.795318
C -3.832952 -0.637117 -0.860678
C -3.746015 -0.793753 -0.806283
C -3.615846 -0.949009 -0.850123
C -3.463006 -1.224520 -0.853083
C -3.262482 -1.485545 -0.666159
C -3.120421 -1.683091 -0.360195
C -3.049199 -1.816862 -0.189163
C -2.858320 -1.942983 -0.016514
C -2.790788 -2.087913 0.171982
C -2.652021 -2.246708 0.341444
C -2.518708 -2.342719 0.514458
C -2.451339 -2.477570 0.641511
C -2.323364 -2.599841 0.646199
C -2.230195 -2.778869 0.711207
C -2.130967 -2.980930 0.847905
C -1.982224 -3.066192 0.831323
C -1.988853 -3.106717 0.751275
C -1.942903 -3.177421 0.551784
C -1.904018 -3.160366 0.320187
C -1.938696 -3.180281 0.212233
C -1.851173 -3.120619 0.010549
C -1.970749 -3.011190 -0.344991
C -2.018898 -2.838120 -0.612210
C -2.004638 -2.736408 -0.753353
C -1.895920 -2.801771 -0.733319
C -1.668887 -2.887038 -0.960940
C -1.449132 -2.838827 -1.321022
C -1.291409 -2.788784 -1.688116
C -1.047901 -2.780442 -1.765825
C -0.866704 -2.895014 -1.917708
C -0.702913 -3.071873 -1.952410
C -0.677009 -3.055463 -2.062471
C -0.679297 -3.033733 -1.938200
C -0.698662 -3.110932 -1.740328
C -0.661230 -3.271825 -1.484370
C -0.645862 -3.286628 -1.364316
C -0.718828 -3.263847 -1.332199
C -0.820996 -3.141637 -1.423457
C -0.876879 -3.043494 -1.501381
C -1.103707 -2.835969 -1.729287
C -1.058846 -2.649241 -2.071141
C -1.119423 -2.404154 -2.398288
C -1.332955 -2.280384 -2.577669
C -1.359888 -2.183377 -2.705972
C -1.455663 -2.156541 -2.809643
C -1.527294 -2.071964 -2.832540
C -1.344989 -2.193323 -2.523895
C -1.383649 -2.427192 -1.949129
C -1.362846 -2.690993 -1.421298
C -1.245707 -2.846167 -1.230079
C -1.331969 -2.749712 -1.205140
C -1.111464 -2.581704 -1.333014
C -0.968390 -2.469428 -1.560833
C -1.044746 -2.261465 -1.884361
C -1.098222 -1.906390 -2.202191
C -1.225056 -1.469064 -2.586344
C -1.235961 -1.067381 -2.920995
C -1.173319 -0.949556 -2.933085
C -1.271632 -0.809672 -2.867017
C -1.329696 -0.742909 -2.732528
C -1.289508 -0.632881 -2.803571
C -1.362544 -0.279491 -3.066271
C -1.243918 -0.069091 -3.315709
C -1.108604 0.021031 -3.392680
C -0.986062 0.227992 -3.525038
C -0.898162 0.386995 -3.616598
C -0.833092 0.688292 -3.762254
C -0.833942 0.839367 -3.770295
C -0.643411 0.660627 -3.686711
C -0.609823 0.469733 -3.482636
C -0.557692 0.304342 -3.332069
C -0.504582 0.199421 -3.276921
C -0.473769 0.410485 -3.249750
C -0.491660 0.612097 -3.199040
C -0.520310 0.977760 -3.137259
C -0.633766 1.538030 -3.087670
C -0.744646 2.229244 -3.007518
C -0.958531 2.914893 -2.848579
C -1.180867 3.433580 -2.604148
C -0.695189 2.610918 -2.388675
C -0.174602 1.819311 -2.325138
C 0.350757 1.137210 -2.447321
C 0.833721 0.587522 -2.698446
C 1.106273 0.450522 -2.881953
C 1.423300 0.352248 -3.061926
C 1.709520 0.273457 -3.220905
C 1.328351 1.275318 -3.310629
C 1.070264 2.025161 -3.402714
C 0.858432 2.513015 -3.400238
C 0.704575 2.770784 -3.317335
C 0.967924 2.000218 -3.196716
C 1.153737 1.067391 -3.025039
C 1.423392 0.093605 -2.762120
C 1.679966 -0.626379 -2.796328
C 1.764299 -0.976046 -2.796931
C 1.807494 -1.206859 -2.755873
C 1.810421 -1.446639 -2.718919
C 1.610350 -1.246929 -2.765583
C 1.556503 -1.038097 -2.779219
C 1.472987 -0.822008 -2.835648
C 1.427665 -0.787170 -2.741440
C 1.478272 -0.870206 -2.745945
C 1.541411 -0.914314 -2.703862
C 1.503433 -0.845200 -2.691087
C 1.603124 -1.103748 -2.559279
C 1.618220 -1.451608 -2.291191
C 1.541118 -1.678964 -1.955997
C 1.453245 -2.075925 -1.468138
C 1.329803 -2.586216 -0.767641
C 1.234299 -3.177375 -0.081115
C 1.209854 -3.732392 0.646941
C 1.135841 -3.800837 1.118536
C 1.254530 -3.784395 1.161429
C 1.450568 -3.751756 1.077094
C 1.653272 -3.594294 0.869829
C 1.883741 -3.196444 0.529546
C 2.035047 -2.554451 0.047593
C 2.221970 -1.916100 -0.463773
C 2.355825 -1.210814 -1.039295
C 2.354496 -0.431178 -1.418702
C 2.400048 0.242308 -1.752830
C 2.387643 0.849647 -1.988117
C 2.488219 0.936962 -2.117118
C 2.550224 1.000228 -2.179895
C 2.680950 1.029311 -2.094349
C 2.801651 0.832792 -1.979220
C 2.910164 0.731425 -1.851932
C 3.044951 0.600264 -1.845113
C 3.218611 0.587381 -1.859330
C 3.286705 0.830214 -1.731501
C 3.447224 0.748236 -1.717975
C 3.491189 0.701356 -1.731020
C 3.503576 0.610666 -1.604403
C 3.385194 0.480510 -1.414599
C 3.392621 0.275979 -1.242679
C 3.361109 -0.003194 -0.995150
C 3.383090 -0.123452 -0.949104
C 3.440794 -0.132219 -0.760847
C 3.452005 -0.262173 -0.687848
C 3.540194 -0.271509 -0.547661
C 3.695037 -0.295984 -0.454181
C 3.693655 -0.244993 -0.326212
C 3.634072 -0.224386 -0.202955
C 3.442228 -0.513631 0.012831
C 3.288909 -0.815197 0.267777
C 3.295596 -0.968899 0.482693
C 3.294557 -1.133267 0.464126
C 3.334600 -1.344384 0.442641
C 3.353295 -1.427188 0.508619
C 3.448628 -1.497319 0.600530
C 3.554532 -1.433604 0.638641
C 3.519088 -1.320183 0.660854
C 3.414960 -1.349928 0.629764
C 3.265896 -1.370901 0.855645
C 3.097906 -1.353322 0.981508
C 2.746010 -1.438389 1.178043
C 2.315908 -1.584388 1.351500
C 1.910714 -1.717815 1.626843
C 1.500288 -1.925967 1.911706
C 1.103884 -2.182435 2.297664
C 0.749746 -2.356892 2.491334
C 0.481693 -2.516721 2.695642
C 0.428589 -2.630091 2.787204
C 0.263762 -2.695681 2.926065
C 0.496268 -2.723924 2.841759
C 0.823440 -2.697640 2.788268
C 1.267502 -2.364518 2.648755
C 1.524007 -2.071328 2.522597
C 1.764647 -1.803387 2.511372
C 1.942606 -1.690180 2.578289
C 2.245747 -1.543230 2.517354
C 2.156476 -1.347519 2.544147
C 2.110764 -1.105156 2.501309
C 2.024588 -1.107753 2.660386
C 2.076310 -1.049379 2.738040
C 2.028661 -0.885011 2.642811
C 2.084722 -0.339604 2.249576
C 2.244173 0.187932 1.875008
C 2.497723 0.735836 1.435209
C 2.574488 1.294860 1.041443
C 2.631228 1.752082 0.537651
C 2.783651 2.079718 0.258269
C 2.864610 2.419355 -0.013865
C 2.848838 2.313961 0.047023
C 2.895472 2.242357 0.076599
C 2.727190 2.288976 0.141521
C 2.718237 2.334055 0.059093
C 2.638272 2.445056 -0.104539
C 2.522039 2.407063 0.052653
C 2.554929 2.378834 0.278964
C 2.692710 2.535459 0.235231
C 2.679552 2.513101 0.364495
C 2.800247 2.256840 0.675286
C 2.871361 1.916646 1.118078
C 3.024871 1.658804 1.562653
C 2.976737 1.746915 1.465513
C 2.824947 1.928656 1.161459
C 2.555465 2.134737 0.994638
C 2.293325 2.459516 0.689653
C 2.186040 2.512152 0.716569
C 2.132969 2.597545 0.794387
C 1.973807 2.639317 0.847049
C 1.885128 2.781107 0.823552
C 1.796578 2.786426 1.009852
C 1.770486 2.710093 1.351171
C 1.806716 2.687636 1.628479
C 1.750058 2.912779 1.582305
C 1.603011 3.081218 1.456778
C 1.490095 3.167415 1.400536
C 1.519288 3.170414 1.553189
C 1.651846 3.015288 1.773744
C 1.675188 2.813378 1.922114
C 1.747527 2.531911 2.168613
C 1.678655 2.288408 2.237108
C 1.643581 1.983413 2.381855
C 1.593028 1.702393 2.636811
C 1.181294 1.040504 2.904716
C 0.805924 0.469000 3.136026
C 0.604791 0.012725 3.283614
C 0.317935 -0.392030 3.425100
C 0.190927 -0.714479 3.631678
C 0.004126 -0.895454 3.757631
C -0.123794 -0.944282 3.755654
C 0.070059 -0.740449 3.714117
C 0.191446 -0.556988 3.683729
C 0.240731 -0.442856 3.631249
C 0.337986 -0.300872 3.642579
C 0.348341 -0.109318 3.661250
C 0.368809 0.093178 3.661015
C 0.352377 0.186198 3.630484
C 0.363799 0.355614 3.612366
C 0.408710 0.738068 3.482922
C 0.355111 1.275986 3.385996
C 0.293720 1.750484 3.214602
C 0.274018 1.941246 3.124191
C 0.288366 2.012258 2.990570
C 0.288448 2.168192 2.969252
C 0.132500 1.977044 2.980276
C -0.118022 1.652345 3.140322
C -0.259172 1.231954 3.313179
C -0.471122 0.745229 3.487921
C -0.563382 0.699503 3.469075
C -0.695347 0.870912 3.537836
C -1.242109 0.971952 3.328346
C -1.707983 1.393371 2.959004
C -1.626654 1.788869 2.744295
C -1.639132 2.292947 2.465510
C -1.447203 2.773169 2.115076
C -1.362162 3.004773 1.797593
C -1.253024 3.212891 1.360444
C -0.826045 3.462133 1.096163
C -0.303117 3.605531 0.990778
C -0.313301 3.708349 0.674721
C -0.269649 3.713656 0.449869
C -0.331639 3.812781 0.335316
C -0.488072 3.974414 0.287276
C -0.574036 3.686141 0.559845
C -0.702609 3.267601 1.041110
C -0.920614 2.935812 1.492725
C -1.214675 2.524989 1.966544
C -1.277855 2.017460 2.326310
C -1.454721 1.556060 2.673339
C -1.568895 1.099366 2.996903
C -1.831137 1.045399 3.087405
C -1.916274 1.211161 2.938865
C -1.886390 1.440730 2.576670
C -1.759864 1.818924 2.209170
C -1.857239 2.247547 1.913024
C -1.808390 2.576663 1.659243
C -1.846851 2.744728 1.529175
C -1.696877 2.729483 1.467523
C -1.645527 2.734311 1.460699
C -1.660208 2.542346 1.701533
C -1.643652 2.330693 1.860477
C -1.699390 2.319487 1.841901
C -1.798234 2.426670 1.661349
C -1.889866 2.547798 1.534955
C -2.070987 2.789252 1.347368
C -2.108345 2.837427 1.233768
C -2.222686 3.031129 1.008406
C -2.365441 3.260970 0.766565
