381
chr4 3D structure from Hi-C (resolution 500000bp)
C -4.292853 -0.579817 -1.155325
C -4.302980 -0.337011 -1.110770
C -4.277221 -0.081740 -1.069546
C -4.288085 0.036486 -0.985860
C -4.386189 0.219269 -0.912614
C -4.345468 0.243863 -0.755400
C -4.249015 0.228516 -0.568240
C -4.119680 -0.079064 -0.428259
C -4.071498 -0.331375 -0.257697
C -4.072018 -0.545874 -0.110947
C -4.022612 -0.637734 -0.089411
C -4.004692 -0.690109 -0.003686
C -3.984851 -0.779855 0.028930
C -4.049611 -0.762610 0.032794
C -4.091770 -0.726093 0.006878
C -4.079564 -1.028122 -0.122762
C -4.044946 -1.209802 -0.069445
C -3.971387 -1.417425 0.075658
C -3.863111 -1.442620 0.118039
C -3.776825 -1.564861 0.146702
C -3.572580 -1.886136 0.194137
C -3.406331 -2.098426 0.305992
C -3.265224 -2.034790 0.524996
C -3.112020 -2.129111 0.524040
C -3.079308 -2.246913 0.551245
C -3.016236 -2.417232 0.624971
C -2.999619 -2.454817 0.670831
C -3.078003 -2.337552 0.694427
C -3.167760 -2.048688 0.686476
C -3.226763 -1.893243 0.706642
C -3.245538 -1.908401 0.796014
C -3.216566 -1.842891 0.826250
C -3.185608 -1.714922 0.855071
C -3.098582 -1.689162 0.970627
C -2.932897 -1.853096 1.022685
C -2.800075 -2.136223 1.132736
C -2.634587 -2.360828 1.174316
C -2.566473 -2.412325 1.195317
C -2.496605 -2.527854 1.233506
C -2.408479 -2.773405 1.271420
C -2.372979 -3.044603 1.227903
C -2.415316 -2.982484 1.240470
C -2.430120 -2.832389 1.299075
C -2.403346 -2.775502 1.284559
C -2.313739 -2.827848 1.296779
C -2.311620 -2.727410 1.344482
C -2.420853 -2.453152 1.377204
C -2.520873 -2.036829 1.396715
C -2.610546 -1.772578 1.404177
C -2.747202 -1.534601 1.373017
C -2.868277 -1.244203 1.430143
C -2.955705 -1.054894 1.531236
C -2.896400 -1.118792 1.572696
C -2.708960 -1.401618 1.618764
C -2.480133 -1.718844 1.757814
C -2.302574 -2.027920 1.913314
C -2.028991 -2.368952 1.988460
C -1.934889 -2.589675 2.115817
C -1.868420 -2.683624 2.125790
C -1.859822 -2.670076 2.196035
C -1.887171 -2.562884 2.306376
C -1.887436 -2.500452 2.365664
C -1.833151 -2.445426 2.424895
C -1.817035 -2.422696 2.479929
C -1.676755 -2.463901 2.477231
C -1.554334 -2.492671 2.520827
C -1.326571 -2.788447 2.548727
C -1.260982 -2.755835 2.571401
C -1.318982 -2.602205 2.559210
C -1.543783 -2.238541 2.433522
C -1.761650 -1.896120 2.361507
C -1.962593 -1.599612 2.342454
C -2.223711 -1.156949 2.157562
C -2.683678 -0.413816 1.902391
C -2.974443 0.036868 1.623024
C -3.182797 0.453473 1.349609
C -3.254165 0.692229 1.172043
C -3.286281 0.938682 1.006257
C -3.335852 1.190220 0.791019
C -3.298833 1.159312 0.873037
C -3.085323 0.981515 0.996811
C -2.879311 0.809408 1.091188
C -2.674046 0.569767 1.286593
C -2.334666 0.094273 1.559283
C -2.069033 -0.297093 1.875041
C -1.860182 -0.638664 2.152397
C -1.728308 -0.805134 2.273056
C -1.618756 -0.963802 2.458661
C -1.432629 -1.273306 2.577052
C -1.324886 -1.483499 2.687801
C -1.403202 -1.399229 2.751745
C -1.489308 -1.307708 2.645055
C -1.599682 -1.150446 2.453829
C -1.724658 -0.963558 2.259374
C -1.902450 -0.731448 1.997316
C -2.016347 -1.017361 1.808956
C -2.461301 -0.829951 0.786301
C -1.873382 -1.496902 0.492035
C -1.220861 -2.186127 0.369310
C -0.484410 -2.916913 0.396226
C -0.367520 -2.979619 0.749225
C -0.130822 -3.091157 0.901314
C -0.156319 -2.408468 1.005671
C 0.136561 -2.173545 1.853531
C -0.501919 -1.244043 2.014209
C -1.114822 -0.397147 2.142139
C -1.667914 0.315500 2.213116
C -1.568925 0.363947 1.998582
C -1.723457 0.666588 1.949215
C -1.697811 0.699478 1.967165
C -1.627662 0.688489 1.960533
C -1.467644 0.633567 2.016142
C -1.220267 0.446783 2.114991
C -1.012072 0.284426 2.203115
C -0.727624 0.022270 2.288520
C -0.327029 -0.364979 2.439485
C -0.037573 -0.606357 2.563696
C 0.347407 -0.897756 2.791684
C 0.582404 -1.114252 2.849908
C 0.668299 -1.125970 2.818674
C 0.696625 -1.026788 2.846902
C 0.646274 -0.888667 2.842111
C 0.624337 -0.786582 2.859424
C 0.673256 -0.809927 2.837771
C 0.591340 -0.689982 2.844725
C 0.559836 -0.532590 2.896939
C 0.568532 -0.390207 2.958036
C 0.599930 -0.278107 2.991308
C 0.691108 -0.232050 3.028740
C 0.803362 -0.260511 2.985167
C 0.798079 -0.065528 3.031398
C 0.735257 0.066791 2.993410
C 0.575886 0.276796 2.865756
C 0.491940 0.438940 2.925643
C -0.197199 1.057649 2.222511
C -0.362895 1.296450 2.209184
C -0.493157 1.556956 2.248471
C -0.554708 1.650844 2.218423
C -0.686901 1.766383 2.059269
C -0.609227 1.730694 2.101115
C -0.598554 1.630838 1.962958
C 0.037807 1.115921 2.600072
C 0.153115 0.845034 2.465562
C -0.017744 0.942917 2.253342
C -0.160442 1.067882 2.146648
C -0.107409 1.105310 2.154059
C -0.162527 1.187604 2.120715
C -0.355846 1.368145 1.948274
C -0.620600 1.606806 1.701799
C -0.936016 1.993251 1.564343
C -1.031492 2.035466 1.457491
C -1.107619 2.030353 1.278414
C -1.159780 2.027823 1.198717
C -1.136334 2.014460 1.155078
C -1.114958 2.019071 1.054872
C -0.865640 1.874135 1.233532
C -0.551710 1.700670 1.440851
C -0.376620 1.678382 1.571426
C -0.211161 1.714876 1.726019
C -0.064142 1.612180 1.800130
C -0.043158 1.584023 1.777594
C 0.013573 1.637960 1.898177
C -0.194163 1.750992 1.683885
C -0.464389 1.893795 1.390644
C -0.399796 1.759233 1.357558
C -0.283355 1.485319 1.301068
C -0.133518 1.342270 1.304137
C 0.059523 1.143869 1.310538
C 0.181974 1.164188 1.321998
C 0.460841 1.075616 1.490787
C 0.573294 1.021511 1.509478
C 0.439028 1.188788 1.341404
C 0.436104 1.426136 1.422476
C 0.224393 1.740031 1.262112
C 0.060808 2.027838 1.160911
C 0.075846 1.968021 1.101889
C 0.178774 1.839497 1.065494
C 0.451539 1.781934 1.260705
C 0.849961 1.519894 1.509963
C 1.014159 1.417825 1.539968
C 1.410506 1.076211 1.742568
C 1.701347 0.850331 1.883743
C 1.967669 0.631715 2.012358
C 2.005888 0.713590 2.056935
C 2.039359 0.693320 2.024497
C 1.928993 0.863878 1.898645
C 1.869859 0.987292 1.790157
C 1.771345 1.258224 1.698543
C 1.765292 1.392237 1.625526
C 1.806793 1.485137 1.617852
C 1.865442 1.294249 1.580028
C 1.992211 1.178054 1.604222
C 2.173830 0.998957 1.690571
C 2.119956 1.018232 1.652903
C 1.993727 1.092211 1.607088
C 1.836462 1.196172 1.553067
C 1.548078 1.374094 1.333683
C 1.457494 1.682993 1.261435
C 1.240181 1.998071 1.109717
C 0.977813 2.363900 0.931902
C 1.081550 2.442733 0.927442
C 1.157863 2.438641 0.891078
C 0.984077 2.540623 0.692908
C 1.057990 2.530652 0.709488
C 1.129949 2.433057 0.683151
C 1.065977 2.523961 0.570097
C 0.998788 2.540026 0.455915
C 0.695553 2.613763 0.224396
C 0.543532 2.632772 0.097931
C 0.786871 2.442820 0.168858
C 0.953871 2.135679 0.215597
C 0.950826 2.014227 0.184585
C 0.993741 1.790464 0.200079
C 1.031389 1.634595 0.215512
C 1.256619 1.522250 0.301554
C 1.404426 1.436086 0.346138
C 1.220575 1.603617 0.246757
C 0.938873 1.957601 0.082827
C 0.950019 2.012067 0.061323
C 1.216613 1.922280 0.169905
C 1.463320 1.814689 0.243984
C 1.367219 1.835404 0.174198
C 1.259498 1.938660 0.046061
C 1.401388 1.894541 0.032294
C 1.347703 1.910694 -0.055734
C 1.350794 2.046616 -0.132250
C 1.278539 2.128558 -0.241143
C 1.303044 2.266386 -0.302808
C 1.554768 2.245618 -0.274595
C 1.890936 2.099300 -0.160707
C 2.206836 1.783697 -0.002653
C 2.662301 1.554955 0.158776
C 2.788428 1.400115 0.213196
C 2.811899 1.421350 0.191152
C 2.674006 1.496490 0.096370
C 2.604655 1.477843 0.047770
C 2.592365 1.360255 0.044796
C 2.570434 1.265549 0.038419
C 2.532158 1.117167 0.034315
C 2.290303 1.283873 -0.154290
C 2.082776 1.328851 -0.262366
C 1.995450 1.243527 -0.310285
C 1.822804 1.296254 -0.415245
C 1.556892 1.521532 -0.609493
C 1.454389 1.680571 -0.747835
C 1.491181 1.691412 -0.798406
C 1.688098 1.425079 -0.711831
C 1.987128 1.163949 -0.614415
C 2.313239 0.843079 -0.498891
C 2.666436 0.395925 -0.332639
C 2.975512 -0.017728 -0.170690
C 3.041231 -0.174434 -0.154656
C 2.758835 0.086380 -0.325859
C 2.424232 0.369523 -0.508292
C 2.089600 0.621100 -0.718242
C 1.922589 0.819976 -0.857478
C 1.889967 0.868853 -0.919828
C 1.826392 1.136990 -1.071964
C 1.866555 1.292371 -1.140674
C 2.068975 1.284592 -1.170530
C 2.404663 1.286550 -1.189367
C 2.674074 1.217430 -1.161303
C 2.842717 1.119223 -1.129444
C 2.853243 1.294447 -1.241876
C 2.915464 1.130848 -1.219290
C 2.877741 1.153823 -1.299837
C 2.948983 1.007695 -1.259152
C 2.931045 0.821539 -1.246160
C 2.978118 0.722020 -1.271572
C 2.992199 0.646433 -1.306867
C 2.938591 0.608117 -1.342207
C 2.901236 0.589833 -1.403354
C 2.817355 0.506047 -1.414245
C 2.571910 0.552431 -1.487860
C 2.392205 0.630851 -1.537730
C 1.892969 0.803733 -1.609842
C 1.476392 1.024259 -1.719406
C 1.201700 1.162227 -1.812132
C 0.899976 1.339508 -1.893911
C 0.734561 1.458012 -1.990491
C 0.587266 1.479782 -2.034452
C 0.671412 1.185170 -1.959513
C 1.050674 0.826179 -1.854377
C 1.093947 0.696158 -1.833858
C 1.317868 0.280700 -1.679059
C 1.551759 -0.111500 -1.553797
C 1.576873 -0.314127 -1.504951
C 1.530187 -0.341925 -1.539611
C 1.229425 0.014002 -1.704759
C 0.880979 0.299613 -1.893537
C 1.041921 0.052723 -1.845014
C 0.999211 0.112156 -1.895671
C 0.673413 0.469956 -2.046257
C 0.698675 0.483425 -2.062593
C 1.057691 0.180343 -1.930331
C 1.439843 -0.230204 -1.757556
C 1.810073 -0.594466 -1.584201
C 1.660357 -0.256603 -1.722378
C 1.359733 0.083780 -1.882549
C 1.351585 0.172943 -1.947945
C 1.123125 0.475859 -2.099319
C 0.710784 0.897721 -2.319247
C 0.242252 1.312510 -2.530591
C -0.160076 1.683143 -2.689374
C -0.265554 1.641621 -2.718289
C -0.115735 1.465236 -2.681598
C 0.073447 1.300651 -2.669933
C 0.303562 1.111797 -2.621874
C 0.509088 1.056679 -2.672722
C 0.852956 0.924789 -2.705615
C 1.264618 0.646987 -2.658926
C 1.662426 0.387511 -2.571850
C 1.908848 0.184967 -2.536159
C 2.000258 0.084430 -2.552813
C 1.872501 0.128386 -2.595243
C 1.781291 0.034413 -2.546463
C 1.819284 -0.136866 -2.488629
C 1.818367 -0.122396 -2.543143
C 1.832058 -0.092918 -2.611362
C 1.710948 0.076456 -2.765557
C 1.689029 0.144880 -2.826804
C 1.927934 -0.040881 -2.865051
C 2.177057 -0.138324 -2.861952
C 2.103810 -0.052294 -2.943016
C 1.916507 0.122749 -3.061134
C 1.869908 0.065546 -3.103867
C 1.764012 0.094514 -3.129220
C 1.551160 0.100334 -3.163469
C 1.516914 0.020996 -3.081216
C 1.429582 -0.067412 -3.176207
C 1.274711 -0.036290 -3.234885
C 1.351742 -0.254432 -3.218137
C 1.295810 -0.317745 -3.213365
C 1.262229 -0.422877 -3.206857
C 1.319937 -0.487159 -3.191621
C 0.979546 -0.261844 -3.316304
C 0.801322 -0.175272 -3.299450
C 0.860710 -0.336574 -3.274296
C 0.738623 -0.279870 -3.345225
C 0.691847 -0.365415 -3.284366
C 0.862081 -0.556857 -3.155127
C 1.060484 -0.823063 -3.030430
C 1.347013 -1.146147 -2.908357
C 1.335152 -1.172864 -2.849634
C 1.453147 -1.347485 -2.721116
C 1.548237 -1.456707 -2.604080
C 1.430002 -1.276354 -2.758461
C 1.404400 -1.283916 -2.827665
C 1.315509 -1.227175 -2.915587
C 1.107723 -1.073045 -3.029170
C 1.218743 -1.238108 -3.081153
C 1.097138 -1.130850 -3.190227
C 0.985365 -1.190618 -3.257250
C 1.061731 -1.429018 -3.174486
C 0.964616 -1.475219 -3.211866
C 0.851193 -1.488831 -3.261790
C 0.971237 -1.662401 -3.254758
C 0.971174 -1.708727 -3.240996
C 1.016241 -1.806156 -3.215207
C 1.125159 -1.937309 -3.083199
C 0.974591 -1.846155 -3.108284
C 0.857471 -1.762998 -3.116865
C 0.728385 -1.648030 -3.132421
C 0.526719 -1.483623 -3.169749
C 0.316096 -1.357174 -3.169695
C 0.019171 -1.073921 -3.213945
C -0.355338 -0.657635 -3.348359
C -0.558566 -0.325831 -3.394499
C -0.654768 -0.182312 -3.372747
C -0.652798 -0.257769 -3.312902
C -0.567840 -0.516991 -3.240269
C -0.354343 -0.813458 -3.162407
C -0.100624 -1.243334 -3.072864
C 0.093822 -1.739919 -3.028759
C 0.297102 -2.223664 -2.931279
C 0.409390 -2.591668 -2.934579
C 0.614455 -3.260357 -2.582960
C 0.702046 -3.769086 -2.267087
C 0.661534 -3.954625 -2.183969
C 0.632699 -4.192576 -2.067520
C 0.746726 -4.508080 -1.793596
