381
chr4 3D structure from Hi-C (resolution 500000bp)
C -4.288560 -0.109130 -1.091143
C -4.302360 0.078570 -1.036651
C -4.281192 0.265410 -0.982447
C -4.297176 0.364216 -0.893529
C -4.402200 0.554385 -0.833829
C -4.372757 0.524939 -0.757027
C -4.246640 0.443878 -0.580276
C -4.126345 0.103861 -0.510960
C -4.040628 -0.129381 -0.411205
C -4.013607 -0.312055 -0.310414
C -3.975738 -0.416649 -0.245052
C -3.948714 -0.478258 -0.126246
C -3.939766 -0.583680 -0.126674
C -4.008231 -0.594902 -0.119794
C -4.062124 -0.638626 -0.062783
C -4.111423 -0.920710 -0.148890
C -4.066072 -1.111374 -0.113232
C -4.003533 -1.305229 -0.042767
C -3.917028 -1.286618 0.067112
C -3.825614 -1.435856 0.117822
C -3.648110 -1.747163 0.168686
C -3.444391 -1.959687 0.190604
C -3.281291 -1.970887 0.382953
C -3.168988 -2.050254 0.421494
C -3.104361 -2.207144 0.417314
C -3.043002 -2.429798 0.420665
C -3.025527 -2.390749 0.512096
C -3.099535 -2.268871 0.568916
C -3.237009 -1.946072 0.634608
C -3.234581 -1.810348 0.639963
C -3.269371 -1.855379 0.703135
C -3.250271 -1.798025 0.738657
C -3.225190 -1.653912 0.702058
C -3.135380 -1.763142 0.676019
C -2.981627 -1.947277 0.708931
C -2.819808 -2.253817 0.721888
C -2.690857 -2.449345 0.755634
C -2.589760 -2.531880 0.748773
C -2.519980 -2.617160 0.798167
C -2.404867 -2.894102 0.900626
C -2.358935 -3.061803 0.917790
C -2.400219 -2.978720 0.976526
C -2.417351 -2.863750 1.030053
C -2.468301 -2.761117 1.078714
C -2.443099 -2.730769 1.112310
C -2.465687 -2.621790 1.166265
C -2.564328 -2.335346 1.178929
C -2.679462 -1.901817 1.274290
C -2.733336 -1.673963 1.264761
C -2.855388 -1.395122 1.249971
C -2.940904 -1.160368 1.288475
C -2.987018 -1.014555 1.397213
C -2.934854 -1.045152 1.453669
C -2.749781 -1.324400 1.488128
C -2.515352 -1.674971 1.554284
C -2.347767 -1.962991 1.633736
C -2.099317 -2.342116 1.753843
C -1.965773 -2.576357 1.834614
C -1.943483 -2.632126 1.897433
C -1.871429 -2.720392 1.939442
C -1.891525 -2.652158 2.078831
C -1.862422 -2.648650 2.095177
C -1.821159 -2.616936 2.137895
C -1.803021 -2.555826 2.188008
C -1.711911 -2.584819 2.204247
C -1.564865 -2.646449 2.197281
C -1.358400 -2.933103 2.179772
C -1.349189 -2.849155 2.166463
C -1.372677 -2.742908 2.153351
C -1.565229 -2.382662 2.117460
C -1.723725 -2.105343 2.142675
C -1.921236 -1.815196 2.127644
C -2.167490 -1.415379 1.981545
C -2.599401 -0.638691 1.827637
C -2.845594 -0.184110 1.608321
C -3.101245 0.352286 1.487106
C -3.195265 0.615196 1.313220
C -3.266576 0.916054 1.155500
C -3.269559 1.161001 1.000571
C -3.183860 1.110303 1.048746
C -2.984666 0.929940 1.112508
C -2.793577 0.739043 1.162816
C -2.596187 0.439927 1.279781
C -2.308793 0.010643 1.568571
C -2.078294 -0.410352 1.771726
C -1.866424 -0.819438 2.021465
C -1.756968 -1.020545 2.145545
C -1.584910 -1.317363 2.212226
C -1.425455 -1.601979 2.443392
C -1.287316 -1.816913 2.547707
C -1.311872 -1.779575 2.526394
C -1.388981 -1.648213 2.481959
C -1.515649 -1.380645 2.319404
C -1.645379 -1.108521 2.214594
C -1.898237 -0.725638 2.124738
C -1.920324 -1.042262 1.918616
C -2.312242 -1.081534 0.957058
C -1.752795 -1.753737 0.585695
C -1.127908 -2.479868 0.296576
C -0.472202 -3.287589 0.160420
C -0.381271 -3.348342 0.395968
C -0.176983 -3.471864 0.531519
C -0.235419 -2.814926 0.598563
C -0.011077 -2.334747 1.407112
C -0.609557 -1.416463 1.653335
C -1.181362 -0.572007 1.916796
C -1.671192 0.193898 2.124517
C -1.566721 0.198253 1.984014
C -1.657951 0.438677 1.990444
C -1.653638 0.511298 2.029085
C -1.590768 0.520119 2.086075
C -1.381573 0.390246 2.160747
C -1.113712 0.131535 2.174856
C -0.880781 -0.086191 2.163048
C -0.601607 -0.303515 2.279176
C -0.239337 -0.676137 2.310007
C 0.073142 -1.001233 2.345074
C 0.450091 -1.384686 2.470328
C 0.614627 -1.536818 2.514699
C 0.629527 -1.434419 2.602789
C 0.569158 -1.265056 2.709457
C 0.526680 -1.217478 2.597778
C 0.530207 -1.177222 2.628965
C 0.517561 -1.118234 2.695328
C 0.479156 -0.988438 2.750296
C 0.539406 -0.928272 2.787314
C 0.622120 -0.885843 2.787356
C 0.707627 -0.834704 2.832303
C 0.753832 -0.743646 2.883258
C 0.829377 -0.718368 2.872684
C 0.915071 -0.665420 2.835007
C 0.848200 -0.463913 2.820360
C 0.655606 -0.117211 2.770484
C 0.567777 0.059323 2.872621
C -0.092307 0.725562 2.143580
C -0.172435 0.993743 2.225977
C -0.254069 1.194230 2.279871
C -0.356298 1.367023 2.326542
C -0.509016 1.454228 2.114300
C -0.478523 1.331780 2.154730
C -0.493822 1.284614 2.063378
C 0.107449 0.681353 2.731203
C 0.165591 0.503736 2.624774
C -0.031913 0.661323 2.416923
C -0.178524 0.790827 2.272279
C -0.136764 0.825884 2.372177
C -0.221845 0.960854 2.297121
C -0.360459 1.147827 2.138485
C -0.619660 1.400727 1.885338
C -0.899645 1.680864 1.694885
C -0.971138 1.745581 1.649369
C -1.040178 1.773488 1.564793
C -1.097459 1.796059 1.431607
C -1.046011 1.722761 1.363543
C -1.074884 1.788931 1.261142
C -0.818585 1.678411 1.476426
C -0.519851 1.536116 1.671721
C -0.392327 1.506453 1.723821
C -0.250480 1.532150 1.824669
C -0.125010 1.531182 1.940914
C -0.039418 1.534276 1.963385
C 0.033784 1.480793 2.000333
C -0.129467 1.584502 1.782495
C -0.391118 1.733210 1.477434
C -0.258342 1.564067 1.477067
C -0.133117 1.290145 1.422065
C 0.034256 1.064842 1.415295
C 0.155979 0.924295 1.405260
C 0.246262 0.968578 1.471391
C 0.492087 0.768941 1.578976
C 0.581478 0.732081 1.606480
C 0.421923 0.983551 1.482692
C 0.400901 1.237018 1.570813
C 0.225351 1.563403 1.438016
C 0.091214 1.870979 1.414443
C 0.190360 1.794380 1.418478
C 0.309217 1.770590 1.430269
C 0.639788 1.642270 1.640218
C 0.999855 1.351269 1.857618
C 1.239562 1.200019 1.853028
C 1.597376 0.898073 2.033756
C 1.897420 0.588780 2.090512
C 2.087666 0.404258 2.087886
C 2.119691 0.512219 2.117256
C 2.117135 0.542784 2.076840
C 1.997099 0.730011 1.946207
C 1.862599 0.845824 1.850790
C 1.789634 0.972223 1.755498
C 1.755569 1.074303 1.724100
C 1.766980 0.994740 1.713710
C 1.850791 0.784817 1.694157
C 1.960231 0.605032 1.691027
C 2.127402 0.542676 1.793605
C 2.023017 0.583153 1.704347
C 1.886993 0.751241 1.683157
C 1.768551 0.930170 1.630339
C 1.549444 1.296064 1.526001
C 1.419459 1.587247 1.468925
C 1.291312 1.890060 1.369654
C 1.071588 2.098935 1.208168
C 1.217108 2.159805 1.266317
C 1.250347 2.157874 1.186122
C 1.043027 2.266442 1.014868
C 1.049308 2.249277 0.961173
C 1.148071 2.232414 0.949359
C 1.005238 2.363760 0.839735
C 0.917604 2.449914 0.743373
C 0.667694 2.602183 0.550975
C 0.516973 2.646140 0.416088
C 0.762130 2.455614 0.460992
C 1.015787 2.129041 0.513712
C 0.986287 1.915987 0.450474
C 1.105793 1.663742 0.468043
C 1.196134 1.509553 0.482292
C 1.419347 1.373055 0.566316
C 1.604358 1.281712 0.608932
C 1.447091 1.448424 0.515836
C 1.167232 1.820124 0.359370
C 1.208821 1.891204 0.342521
C 1.356104 1.699499 0.364656
C 1.595462 1.549156 0.422709
C 1.434770 1.535490 0.303809
C 1.303842 1.598257 0.230612
C 1.406232 1.548437 0.245303
C 1.343335 1.612285 0.166345
C 1.338386 1.744585 0.125679
C 1.367408 1.937641 0.085923
C 1.371571 2.068359 0.026195
C 1.646279 2.113830 0.069802
C 1.950662 1.976059 0.134442
C 2.271077 1.758730 0.204511
C 2.716757 1.438070 0.357668
C 2.835787 1.276990 0.364837
C 2.836103 1.328832 0.320917
C 2.668976 1.476861 0.226091
C 2.605380 1.507480 0.186513
C 2.615117 1.467222 0.132276
C 2.558545 1.662860 0.013254
C 2.496537 1.670315 -0.031632
C 2.274529 1.896880 -0.159357
C 2.065537 1.976919 -0.260391
C 2.006657 1.873166 -0.310272
C 1.820486 1.839156 -0.381179
C 1.608746 2.021317 -0.476565
C 1.482573 1.964321 -0.514600
C 1.489398 1.903594 -0.561300
C 1.662043 1.569397 -0.506695
C 1.920927 1.159824 -0.407574
C 2.168001 0.740009 -0.340676
C 2.498900 0.281179 -0.263253
C 2.756595 -0.165331 -0.186830
C 2.882207 -0.473006 -0.160310
C 2.641876 -0.213451 -0.289143
C 2.328253 0.131882 -0.447107
C 2.031741 0.490233 -0.615800
C 1.957272 0.742817 -0.725898
C 1.954233 0.868017 -0.784439
C 1.914480 1.061636 -0.833005
C 1.968814 1.148041 -0.861140
C 2.189849 1.039049 -0.854907
C 2.566312 0.984773 -0.882480
C 2.854674 0.891101 -0.895885
C 2.977431 0.868176 -0.930696
C 3.025560 0.908033 -0.976601
C 3.074127 0.829005 -1.043084
C 3.052381 0.756951 -1.083445
C 3.095556 0.620517 -1.122911
C 3.081395 0.366354 -1.083652
C 3.073040 0.105422 -1.043534
C 3.078990 -0.088927 -1.021486
C 3.028495 -0.100466 -1.094628
C 2.995823 -0.143382 -1.113066
C 2.875063 0.051880 -1.225929
C 2.644629 0.252626 -1.296713
C 2.404327 0.474142 -1.378174
C 2.005986 0.901931 -1.509759
C 1.620168 1.251013 -1.622149
C 1.300958 1.446138 -1.673810
C 1.000560 1.744115 -1.782157
C 0.895960 1.823307 -1.821898
C 0.826349 1.827645 -1.869941
C 0.875173 1.878373 -1.919396
C 1.071788 1.408284 -1.870958
C 1.126182 1.274509 -1.872500
C 1.235423 1.023661 -1.887756
C 1.477969 0.544540 -1.802401
C 1.414157 0.330183 -1.774827
C 1.308536 0.347789 -1.799857
C 1.014592 0.380700 -1.829196
C 0.767190 0.745553 -1.929323
C 0.841781 0.690146 -1.961079
C 0.890008 0.743028 -1.948917
C 0.569798 1.155020 -2.041560
C 0.690812 1.159438 -2.058538
C 0.965674 0.766011 -1.944774
C 1.297998 0.353414 -1.865461
C 1.612172 0.073875 -1.812277
C 1.564283 0.174650 -1.835653
C 1.317435 0.403584 -1.918165
C 1.262184 0.450446 -1.994148
C 0.946749 0.728926 -2.078356
C 0.569232 1.180823 -2.221325
C 0.166675 1.613209 -2.367002
C -0.178926 1.952282 -2.450501
C -0.266509 1.963238 -2.486137
C -0.106847 1.850864 -2.498512
C 0.127195 1.744426 -2.497965
C 0.382758 1.547499 -2.512713
C 0.594990 1.457683 -2.614979
C 0.878154 1.317922 -2.653748
C 1.228153 1.127060 -2.697281
C 1.528504 0.744127 -2.624831
C 1.702071 0.492218 -2.582017
C 1.811838 0.403793 -2.607936
C 1.683339 0.456443 -2.629668
C 1.603840 0.413199 -2.572002
C 1.753958 0.206586 -2.503597
C 1.810417 0.095528 -2.504938
C 1.868583 0.100918 -2.534451
C 1.831535 0.167671 -2.616764
C 1.842343 0.100845 -2.638177
C 2.087812 -0.164219 -2.632011
C 2.288576 -0.361767 -2.655001
C 2.140599 -0.292258 -2.741479
C 1.950794 -0.177565 -2.841603
C 1.910804 -0.183209 -2.886795
C 1.857496 -0.090859 -2.966617
C 1.601402 0.025020 -3.004870
C 1.585120 -0.027926 -2.992701
C 1.565298 -0.083300 -3.036232
C 1.406785 -0.040633 -3.132321
C 1.492694 -0.351627 -3.016248
C 1.444993 -0.402915 -3.022977
C 1.381209 -0.493986 -3.005233
C 1.407363 -0.509951 -3.036696
C 1.030569 -0.180344 -3.138133
C 0.838046 -0.046638 -3.122068
C 1.023535 -0.289902 -2.996573
C 0.914234 -0.107013 -3.140872
C 0.867091 -0.158895 -3.125277
C 0.868582 -0.237276 -3.114075
C 1.044065 -0.581370 -3.031625
C 1.278706 -0.947097 -2.962469
C 1.272069 -0.982759 -2.951575
C 1.237248 -1.005247 -2.979298
C 1.246286 -1.053627 -2.938405
C 1.129189 -0.930392 -3.030172
C 1.200632 -1.085464 -2.976825
C 1.161126 -1.092759 -2.962930
C 1.010731 -0.929640 -3.067929
C 1.172574 -1.181679 -3.077280
C 1.058419 -1.089337 -3.157291
C 1.143770 -1.209789 -3.167274
C 1.129700 -1.269050 -3.228520
C 1.048364 -1.223642 -3.359883
C 0.921595 -1.105475 -3.510395
C 0.981187 -1.165562 -3.539968
C 0.825820 -1.025594 -3.604552
C 0.842396 -1.058850 -3.591801
C 0.696432 -1.048474 -3.618863
C 0.557280 -0.983553 -3.618322
C 0.385313 -0.844011 -3.596809
C 0.250865 -0.738059 -3.556060
C 0.082845 -0.643339 -3.487839
C -0.070984 -0.514460 -3.434373
C -0.308310 -0.276349 -3.408378
C -0.557587 0.079523 -3.403063
C -0.670752 0.394964 -3.382244
C -0.727723 0.487525 -3.364581
C -0.741940 0.453129 -3.342602
C -0.632137 0.192719 -3.364811
C -0.474817 -0.169071 -3.351169
C -0.240880 -0.600969 -3.285952
C -0.090909 -1.066630 -3.298656
C 0.083602 -1.558722 -3.295277
C 0.213126 -1.971764 -3.277412
C 0.375922 -2.744834 -3.010443
C 0.351962 -3.270912 -2.847491
C 0.344977 -3.461341 -2.802233
C 0.307742 -3.688301 -2.793565
C 0.414923 -4.094937 -2.585798
