397
chr3 3D structure from Hi-C (resolution 500000bp)
C -3.679083 -1.698322 -1.104447
C -3.664689 -1.733614 -1.092410
C -3.593878 -1.877185 -0.934279
C -3.598330 -1.924896 -0.871637
C -3.693546 -2.045688 -0.946977
C -3.579822 -2.097164 -0.608461
C -3.360809 -2.235700 -0.248180
C -3.261445 -2.355090 0.073684
C -3.295167 -2.513200 0.194424
C -3.334549 -2.560098 0.317153
C -3.311297 -2.631142 0.447648
C -3.339832 -2.710935 0.534114
C -3.441437 -2.709963 0.479490
C -3.637189 -2.640272 0.429365
C -3.515230 -2.536450 0.559501
C -3.316940 -2.391193 0.970252
C -2.998973 -2.266536 1.355154
C -2.643619 -2.127602 1.796200
C -2.400469 -2.050853 2.271235
C -2.143045 -2.099625 2.705122
C -1.860565 -2.030147 3.095666
C -1.810901 -2.021243 3.266699
C -1.588415 -2.027111 3.422587
C -1.596211 -2.078409 3.490482
C -1.769049 -2.091768 3.507491
C -1.727392 -2.065027 3.494915
C -1.621558 -1.933971 3.514812
C -1.583676 -2.056773 3.486179
C -1.668042 -2.301672 3.424995
C -1.802974 -2.256287 3.200697
C -2.061439 -2.248598 2.976014
C -2.153244 -2.267065 2.699565
C -2.317061 -2.245139 2.434149
C -2.667157 -2.167101 2.007629
C -2.990250 -1.992001 1.517831
C -3.271927 -1.833142 1.001892
C -3.640185 -1.874784 0.776625
C -3.769505 -1.817487 0.573363
C -4.000558 -1.678805 0.237855
C -4.216099 -1.520731 -0.119918
C -4.306319 -1.442869 -0.347964
C -4.375414 -1.321618 -0.461581
C -4.351415 -1.142086 -0.538872
C -4.209054 -1.010729 -0.506982
C -4.015259 -0.893645 -0.435783
C -3.940248 -0.883697 -0.399019
C -3.894859 -0.787166 -0.313853
C -3.804450 -0.689631 -0.163829
C -3.801083 -0.698770 -0.026354
C -3.879922 -0.601974 0.019853
C -4.024912 -0.419501 -0.200034
C -4.275264 -0.307172 -0.335346
C -4.239510 -0.227132 -0.176080
C -4.266220 -0.309154 -0.034268
C -4.351045 -0.273723 0.019031
C -4.324651 -0.176163 0.068600
C -4.334557 -0.120874 0.176020
C -4.381052 -0.103758 0.327955
C -4.337981 -0.037660 0.423470
C -4.422714 -0.195024 0.579783
C -4.358387 -0.182956 0.800582
C -4.100120 -0.288004 1.093435
C -3.912667 -0.372222 1.392818
C -3.591221 -0.430627 1.773788
C -3.470010 -0.456249 2.055811
C -3.472672 -0.398510 2.155717
C -3.447843 -0.073295 2.011747
C -3.552535 0.198243 1.798180
C -3.798036 0.422518 1.605950
C -4.005913 0.660089 1.343855
C -4.099841 0.754167 1.251343
C -3.991338 0.735046 1.366376
C -3.753645 0.747683 1.564471
C -3.449880 0.562685 1.987589
C -3.191530 0.386535 2.432510
C -2.783911 0.252020 2.817840
C -2.512256 0.174272 3.239935
C -2.384682 0.177266 3.490456
C -2.365492 0.259539 3.579623
C -2.302339 0.299529 3.613310
C -2.363729 0.413065 3.647273
C -2.143345 0.385212 3.663958
C -1.990732 0.431024 3.749203
C -1.761853 0.375023 3.768561
C -1.462825 0.300383 3.893975
C -1.132997 0.203392 4.011906
C -0.960589 -0.024008 4.250547
C -0.644227 -0.117623 4.340725
C -0.426665 -0.171827 4.459399
C -0.292005 -0.242066 4.503983
C -0.142659 -0.317269 4.648447
C 0.085365 -0.368566 4.748286
C 0.360804 -0.485596 4.830801
C 0.614855 -0.593235 4.862411
C 0.742440 -0.853058 4.947723
C 0.823767 -1.115552 5.014200
C 0.983759 -1.322116 5.119910
C 1.101310 -1.177105 5.199024
C 1.038737 -0.685215 5.090649
C 0.836750 -0.243639 5.013580
C 0.738127 0.207206 4.980951
C 0.764943 0.727444 4.971942
C 0.772280 1.373471 4.942876
C 0.580618 1.963074 4.827232
C 0.322737 2.054998 4.599996
C -0.002594 1.893719 4.478167
C -0.215340 1.874581 4.287467
C -0.482119 1.991093 4.063288
C -0.759353 2.022314 3.756249
C -1.007971 2.058633 3.495682
C -1.093025 1.953778 3.392603
C -1.053812 2.001181 3.389328
C -0.815880 1.924753 3.444018
C -0.662274 1.821588 3.422989
C -0.549536 1.905801 3.414707
C -0.540965 2.080379 3.396387
C -0.611832 2.052256 3.298012
C -0.820196 2.098498 3.047232
C -0.999461 2.192623 2.793036
C -1.279559 2.276052 2.537330
C -1.484936 2.382848 2.358301
C -1.739162 2.307385 2.154523
C -1.999009 2.340048 1.990944
C -2.117122 2.590832 1.862707
C -2.147723 2.731738 1.892163
C -2.209088 2.693872 1.780540
C -2.383211 2.821151 1.599617
C -2.510210 2.953584 1.448206
C -2.516498 3.016693 1.347980
C -2.403377 2.985683 1.350914
C -2.408051 2.853360 1.393967
C -2.337783 2.834797 1.328627
C -2.345103 2.932039 1.368614
C -2.277119 3.013787 1.408289
C -2.237820 3.004466 1.381328
C -1.992808 2.993841 1.362150
C -1.982456 3.100541 1.237434
C -1.913904 3.265360 1.082734
C -2.031714 3.407724 0.915905
C -2.071198 3.422912 0.848580
C -1.861231 3.367164 0.890366
C -1.569593 3.333597 1.078069
C -1.569850 3.438033 1.209318
C -1.508810 3.326476 1.185216
C -1.603650 3.216068 1.084223
C -1.618108 3.167893 0.931552
C -1.599051 3.454580 0.802464
C -1.768965 3.626187 0.610698
C -1.927144 3.929754 0.385047
C -2.114710 4.003462 -0.018789
C -2.313102 4.027856 -0.236965
C -2.402670 3.974850 -0.385710
C -2.542294 3.924897 -0.498983
C -2.671410 3.705553 -0.641861
C -2.811636 3.437050 -0.841882
C -2.882801 3.313446 -1.115065
C -3.055741 3.122970 -1.277009
C -3.045066 3.035345 -1.426225
C -3.100117 2.953998 -1.595153
C -3.054518 2.817724 -1.670514
C -2.884245 2.621460 -1.642506
C -2.790777 2.795543 -1.771646
C -2.799852 2.710643 -1.905891
C -2.815613 2.556435 -2.117205
C -2.858234 2.470880 -2.326440
C -2.735754 2.569160 -2.350675
C -2.653919 2.591767 -2.435869
C -2.848972 2.619856 -2.803921
C -2.850279 2.522267 -2.815073
C -2.827538 2.502103 -2.919120
C -2.660964 2.695467 -2.912505
C -2.468264 2.768409 -2.716885
C -2.317948 2.832819 -2.606510
C -2.153142 2.892426 -2.429825
C -2.048907 2.898806 -2.516115
C -1.861409 2.916180 -2.597690
C -1.821611 2.845864 -2.670638
C -1.790907 2.672324 -2.856283
C -1.902893 2.431255 -3.361832
C -2.130512 1.954026 -3.862838
C -2.448172 1.260520 -4.354209
C -2.600701 0.654219 -4.450907
C -2.918867 0.035387 -4.728081
C -3.134367 -0.475796 -4.932895
C -2.896637 -0.353170 -4.968660
C -2.451839 0.076276 -4.417794
C -1.909808 0.648263 -3.969821
C -1.183283 1.610174 -3.370258
C -0.592435 2.398170 -3.047489
C -0.009603 3.146851 -2.660827
C 0.588336 3.967197 -2.233375
C 0.856320 4.288917 -1.769734
C 0.992125 4.353208 -1.634328
C 1.130934 4.322652 -1.413189
C 1.172143 4.169293 -1.392062
C 1.316392 4.163666 -1.272378
C 1.465177 4.058437 -1.094938
C 1.646741 3.869150 -0.767281
C 1.725006 3.607811 -0.654627
C 1.741207 3.633115 -0.707311
C 1.827764 3.607894 -0.615566
C 1.818225 3.544442 -0.884441
C 1.848734 3.536655 -1.026040
C 1.731177 3.612477 -1.329152
C 1.605457 3.607874 -1.815779
C 1.523272 3.596408 -2.091804
C 1.446009 3.400638 -2.314349
C 1.302128 3.313621 -2.757347
C 1.494548 3.360447 -2.635521
C 1.621209 3.405098 -2.393379
C 1.798136 3.437064 -2.287998
C 1.918142 3.352407 -2.237314
C 2.131389 3.368690 -2.129488
C 2.281973 3.215634 -1.893916
C 2.357709 3.066800 -1.790830
C 2.083169 2.886999 -1.965356
C 1.866449 2.779798 -2.414854
C 1.731538 2.571809 -2.657109
C 1.657349 2.514566 -2.777051
C 1.530858 2.383970 -2.963666
C 1.532227 2.403259 -3.097738
C 1.701339 2.488093 -2.711856
C 1.932692 2.531455 -2.207509
C 2.131768 2.379824 -1.573671
C 2.405518 2.376493 -0.851349
C 2.584103 2.360486 -0.300023
C 2.842040 2.315115 -0.019055
C 3.079940 2.371859 0.054886
C 3.101402 2.254003 -0.236776
C 3.155312 2.168553 -0.669593
C 3.268645 2.245702 -1.007600
C 3.267864 2.173704 -1.455991
C 3.279553 2.137037 -1.744535
C 3.261971 2.274893 -1.726200
C 3.179734 2.236330 -1.663403
C 3.215138 2.224157 -1.474879
C 3.297531 2.287137 -1.034831
C 3.436453 2.256640 -0.776152
C 3.505126 2.303216 -0.463766
C 3.636781 2.330943 -0.110392
C 3.583214 2.208771 0.279830
C 3.624044 2.158201 0.676635
C 3.559229 2.037996 1.092186
C 3.524450 1.797888 1.288081
C 3.418143 1.671604 1.723835
C 3.374502 1.605931 2.104433
C 3.311994 1.429526 2.356097
C 3.343423 1.333237 2.642994
C 3.390342 1.310328 2.891017
C 3.422294 1.205786 2.910099
C 3.417019 1.082877 3.003098
C 3.396306 0.917696 3.026651
C 3.487932 0.581472 3.113853
C 3.489812 0.348146 3.192908
C 3.428539 0.094363 3.140916
C 3.413895 -0.188714 3.169272
C 3.581662 -0.211611 3.109266
C 3.748106 -0.117374 2.953948
C 3.864625 -0.067839 2.791620
C 3.895684 0.122563 2.519770
C 3.911448 0.302024 2.248711
C 3.894193 0.431857 1.949085
C 3.947437 0.479216 1.629820
C 3.763459 0.410466 1.431678
C 3.579857 0.317094 1.372763
C 3.475223 0.214468 1.277959
C 3.335665 0.056328 1.238903
C 3.362786 -0.135687 1.229879
C 3.559643 -0.263031 1.151645
C 3.586391 -0.371219 1.094179
C 3.686964 -0.444591 1.109485
C 3.751365 -0.382099 0.886043
C 3.953156 -0.333393 0.722101
C 4.180616 -0.382438 0.607412
C 4.163958 -0.287702 0.538094
C 4.076908 -0.230451 0.521293
C 3.888931 -0.184775 0.364656
C 3.803432 -0.145394 0.246264
C 3.843384 -0.330742 0.278606
C 3.717201 -0.546071 0.351145
C 3.677256 -0.708223 0.398242
C 3.645705 -0.874111 0.511339
C 3.554813 -0.938927 0.344291
C 3.643426 -0.918986 0.172096
C 3.623392 -0.848566 -0.132745
C 3.410337 -0.726550 -0.530358
C 3.236241 -0.419341 -1.178455
C 2.855046 -0.134135 -1.828323
C 2.787133 0.005024 -2.457122
C 2.783095 0.088049 -2.847193
C 2.621070 0.117716 -3.190030
C 2.382689 0.180556 -3.592001
C 2.221517 0.198872 -3.843851
C 2.074096 0.071402 -3.955513
C 2.118804 0.015388 -3.925200
C 2.192720 -0.074163 -3.710171
C 2.290355 -0.334130 -3.357831
C 2.392099 -0.486547 -2.971667
C 2.777193 -0.750961 -2.521697
C 3.092457 -0.897620 -2.231349
C 3.246516 -0.937204 -2.103559
C 3.476827 -1.139398 -1.800384
C 3.455370 -1.182359 -1.876192
C 3.278751 -1.053096 -2.176619
C 3.129723 -0.979373 -2.459273
C 2.944432 -0.958748 -2.718390
C 2.737490 -0.989348 -3.026781
C 2.672269 -1.142462 -3.021617
C 2.516277 -1.149943 -3.195802
C 2.408968 -1.241857 -3.252906
C 2.538267 -1.458557 -3.072925
C 2.688839 -1.645688 -3.108889
C 2.504276 -1.617512 -3.167480
C 2.495498 -1.639163 -2.851174
C 2.442125 -1.650791 -2.623285
C 2.324366 -1.654653 -2.711986
C 2.357050 -1.715808 -2.634462
C 2.352131 -1.743040 -2.589192
C 2.303126 -1.829420 -2.516525
C 2.374532 -1.894378 -2.375968
C 2.244578 -1.923268 -2.527206
C 2.053463 -1.938196 -2.864621
C 1.905410 -1.905457 -2.990630
C 1.449425 -1.783111 -3.418692
C 1.040751 -1.676046 -3.748721
C 0.679390 -1.478443 -4.033238
C 0.292901 -1.495501 -4.359850
C 0.122917 -1.561180 -4.562493
C 0.084748 -1.529710 -4.505465
C 0.035776 -1.621497 -4.520692
C 0.061768 -1.729239 -4.443014
C 0.125121 -1.850736 -4.457132
C 0.250204 -2.066753 -4.267161
C 0.579960 -2.183646 -3.877800
C 0.850326 -2.397046 -3.596416
C 0.939056 -2.609325 -3.488925
C 1.196083 -2.765623 -3.102064
C 1.613872 -2.886576 -2.519622
C 1.876779 -2.988201 -2.068832
C 1.999701 -2.997676 -1.668890
C 2.134509 -3.111832 -1.401473
C 2.202400 -3.007166 -1.044974
C 2.266325 -2.976209 -0.800423
C 2.036268 -2.942714 -1.018052
C 1.631464 -2.971023 -1.452731
C 1.181517 -2.948968 -1.766041
C 0.883271 -3.016087 -2.239964
C 0.587521 -3.019826 -2.555118
C 0.203091 -3.114884 -2.986390
C -0.021091 -3.222946 -3.252785
C -0.052355 -3.372133 -3.225259
C 0.137347 -3.568066 -2.919292
C 0.192330 -3.669581 -2.888220
C 0.154697 -3.739600 -2.757341
C 0.235640 -3.813416 -2.592067
C 0.444887 -3.897798 -2.262200
C 0.651493 -3.967454 -1.962940
C 0.694029 -3.967507 -1.775777
C 0.526091 -3.977630 -1.888251
C 0.362971 -4.102045 -1.815597
C 0.372155 -4.166593 -1.653045
C 0.138168 -4.242606 -1.750482
C 0.046024 -4.352090 -1.699148
C 0.166131 -4.296577 -1.371357
C 0.466392 -4.310193 -0.941230
C 0.799276 -4.211140 -0.348444
C 1.296290 -4.040966 0.241661
C 1.676983 -3.885863 0.705548
C 1.986803 -3.859616 1.231188
C 2.194377 -3.722578 1.493078
C 2.122977 -3.786063 1.527345
C 1.911190 -3.794646 1.434317
C 1.765193 -3.791168 1.160715
C 1.630919 -3.897511 0.869094
C 1.370266 -4.046015 0.640417
C 1.342481 -4.031935 0.436781
C 1.273348 -4.013692 0.224186
C 1.189809 -4.020027 -0.005877
C 1.056644 -4.017340 -0.251688
C 1.003171 -3.911145 -0.342790
C 0.755889 -3.943540 -0.505067
C 0.664798 -3.962970 -0.635720
C 0.455480 -4.078293 -0.688239
C 0.243731 -4.150466 -0.706965
C 0.264944 -4.030472 -0.534619
C 0.428802 -3.969168 -0.183537
C 0.488639 -4.066648 0.167939
C 0.778447 -3.970231 0.711094
C 1.052417 -3.979231 1.285019
C 1.305629 -3.829406 1.804599
C 1.589332 -3.706416 2.293090
C 1.734447 -3.726076 2.650196
C 1.614954 -3.883953 2.820332
C 1.232451 -4.191259 2.762632
C 1.161132 -4.262298 2.803992
C 1.013341 -4.246335 2.757211
C 0.842526 -4.331518 2.604920
