397
chr3 3D structure from Hi-C (resolution 500000bp)
C -3.666831 -1.976911 -0.912315
C -3.712319 -2.033809 -0.810611
C -3.669810 -2.112367 -0.723970
C -3.639706 -2.184089 -0.617161
C -3.745132 -2.290655 -0.690958
C -3.579317 -2.327808 -0.344845
C -3.414689 -2.386174 -0.030847
C -3.303208 -2.547149 0.289390
C -3.258771 -2.714777 0.380056
C -3.236353 -2.850790 0.530685
C -3.233426 -2.894363 0.608080
C -3.302835 -2.990727 0.713302
C -3.453965 -2.991990 0.592990
C -3.593364 -2.952914 0.548278
C -3.479476 -2.791372 0.664257
C -3.284073 -2.710279 0.991224
C -2.951236 -2.605291 1.357387
C -2.619178 -2.506763 1.787421
C -2.347179 -2.376446 2.271517
C -2.107812 -2.383142 2.791634
C -1.831821 -2.324580 3.136667
C -1.787542 -2.340779 3.373798
C -1.700670 -2.264652 3.503225
C -1.731334 -2.243704 3.574654
C -1.894405 -2.144386 3.604805
C -1.803868 -2.159885 3.620222
C -1.599531 -2.086302 3.650230
C -1.572258 -2.277173 3.660819
C -1.631904 -2.531187 3.527239
C -1.630523 -2.439016 3.343728
C -1.894655 -2.445382 3.108197
C -2.014326 -2.492521 2.838788
C -2.270273 -2.431923 2.551605
C -2.693906 -2.412594 2.118921
C -3.044605 -2.080150 1.579023
C -3.367895 -1.784966 0.963410
C -3.797158 -1.811457 0.713565
C -3.981118 -1.661369 0.493677
C -4.181724 -1.585393 0.088724
C -4.353928 -1.521047 -0.293128
C -4.470029 -1.344626 -0.583146
C -4.537268 -1.257390 -0.687969
C -4.548079 -1.063051 -0.625377
C -4.381931 -0.978360 -0.591498
C -4.216786 -0.919932 -0.490129
C -4.212586 -0.844300 -0.322439
C -4.203628 -0.692506 -0.243149
C -4.102444 -0.606289 -0.044819
C -4.022721 -0.629164 0.165720
C -4.040494 -0.614372 0.094012
C -4.185385 -0.421360 -0.101713
C -4.349685 -0.269674 -0.323887
C -4.250040 -0.197624 -0.315328
C -4.296710 -0.162411 -0.201025
C -4.347359 -0.116577 -0.178169
C -4.352411 -0.030546 -0.123402
C -4.381921 0.005770 0.229055
C -4.440356 0.057577 0.356434
C -4.404650 0.002401 0.579504
C -4.480642 -0.109187 0.864605
C -4.377670 -0.174957 1.114039
C -4.192075 -0.281874 1.392218
C -3.983506 -0.327709 1.627854
C -3.660451 -0.373228 1.854936
C -3.552069 -0.461504 2.132266
C -3.582783 -0.339288 2.226467
C -3.567322 -0.042191 2.007865
C -3.659332 0.195605 1.806681
C -3.867295 0.365550 1.643002
C -4.060494 0.557097 1.489446
C -4.173283 0.653918 1.436646
C -4.056645 0.596211 1.632049
C -3.845230 0.597988 1.811060
C -3.609879 0.400447 2.275535
C -3.328845 0.251178 2.697177
C -2.891685 0.182916 3.078967
C -2.645716 0.095675 3.387645
C -2.443846 0.110773 3.640493
C -2.404440 0.291665 3.711238
C -2.293998 0.244144 3.813448
C -2.233534 0.333607 3.840473
C -2.028304 0.329946 3.891323
C -1.952776 0.301307 4.023552
C -1.711533 0.236929 4.055665
C -1.488973 0.152580 4.157623
C -1.186941 -0.012377 4.270752
C -0.999611 -0.132421 4.453497
C -0.732090 -0.192454 4.542278
C -0.532010 -0.284217 4.648310
C -0.327280 -0.352822 4.656854
C -0.148961 -0.393340 4.797720
C 0.137570 -0.507251 4.880413
C 0.369864 -0.708697 4.951233
C 0.619058 -0.866782 4.979553
C 0.874530 -1.129459 5.054884
C 1.051808 -1.225748 5.202904
C 1.191179 -1.063618 5.355534
C 1.233825 -0.922773 5.476631
C 1.017016 -0.527349 5.487492
C 0.905866 -0.023444 5.487003
C 0.847395 0.557987 5.422074
C 0.779249 1.176377 5.398965
C 0.733511 1.787455 5.236660
C 0.590910 2.105137 5.063672
C 0.359991 2.226882 4.777268
C 0.158430 2.234589 4.531341
C 0.035656 2.377777 4.228572
C -0.296207 2.408862 4.027570
C -0.562865 2.395793 3.713202
C -0.871110 2.181623 3.482498
C -1.001729 2.094190 3.384645
C -0.938775 2.076821 3.397365
C -0.758102 1.982971 3.480446
C -0.661477 1.825486 3.482689
C -0.537882 1.967533 3.437417
C -0.537574 2.097002 3.457824
C -0.585116 2.130678 3.390478
C -0.794228 2.142960 3.133218
C -1.069921 2.227735 2.895106
C -1.184882 2.382448 2.629341
C -1.379286 2.526868 2.512849
C -1.594651 2.476918 2.347643
C -1.919842 2.456175 2.215861
C -2.165493 2.691213 2.111786
C -2.257876 2.720730 2.136600
C -2.235534 2.711065 2.012843
C -2.562785 2.763603 1.824404
C -2.799513 2.835857 1.636927
C -2.903385 2.842689 1.531807
C -2.821557 2.793927 1.403860
C -2.728572 2.713192 1.324588
C -2.645234 2.823151 1.233062
C -2.706024 2.856597 1.145734
C -2.665933 2.921799 1.124097
C -2.579959 2.939805 1.086505
C -2.338429 2.877352 1.108553
C -2.286753 3.067256 1.042449
C -2.228907 3.234224 1.006311
C -2.183837 3.370397 0.983250
C -2.021352 3.562832 1.090570
C -1.728067 3.507162 1.209790
C -1.405431 3.450536 1.402794
C -1.358850 3.593314 1.470058
C -1.254876 3.467640 1.453780
C -1.301050 3.379373 1.332216
C -1.496902 3.200650 1.074140
C -1.631627 3.416508 0.892021
C -1.765560 3.697136 0.716153
C -2.227860 3.770356 0.328897
C -2.630647 3.671110 -0.146807
C -2.860508 3.673780 -0.401359
C -2.961442 3.662390 -0.558287
C -3.019974 3.730265 -0.690332
C -3.094584 3.606796 -0.805319
C -3.159118 3.514107 -0.930655
C -3.026989 3.650482 -1.010074
C -2.879071 3.797977 -1.047135
C -2.866046 3.748490 -1.121490
C -2.698298 3.862294 -1.210272
C -2.468455 3.910495 -1.228538
C -2.238859 3.749932 -1.209904
C -2.180622 3.696347 -1.465746
C -2.159963 3.586254 -1.636529
C -2.161427 3.567427 -1.780134
C -2.168121 3.661415 -1.963555
C -2.336767 3.444609 -2.089937
C -2.519876 3.178895 -2.225285
C -2.885365 2.928572 -2.640323
C -2.957739 2.800312 -2.625294
C -3.084879 2.616161 -2.720616
C -3.197412 2.340289 -2.811047
C -3.105798 2.186864 -2.735240
C -2.965972 2.136311 -2.763940
C -2.729172 2.194698 -2.731958
C -2.593847 2.230581 -2.849322
C -2.618463 2.211088 -2.987247
C -2.468021 2.234626 -3.100285
C -2.307269 2.299792 -3.252751
C -2.475205 1.990404 -3.669116
C -2.685416 1.682419 -4.005804
C -3.041961 1.010805 -4.331825
C -3.213261 0.415763 -4.357911
C -3.364282 -0.243475 -4.614167
C -3.513710 -0.756882 -4.824827
C -3.332711 -0.727771 -4.898083
C -2.823948 -0.358647 -4.551590
C -2.279311 0.018166 -4.378030
C -1.695223 0.794250 -4.311267
C -1.115413 1.595348 -4.174262
C -0.601568 2.273728 -3.953358
C -0.082599 2.917613 -3.857207
C 0.165997 3.103897 -3.747949
C 0.233160 3.273780 -3.703624
C 0.381158 3.480822 -3.260301
C 0.597470 3.564303 -2.733996
C 0.715307 3.653328 -2.428465
C 0.917419 3.682117 -2.096981
C 1.134216 3.782394 -1.508057
C 1.235979 3.674852 -1.053962
C 1.368294 3.733990 -0.884244
C 1.473652 3.699253 -0.825208
C 1.485585 3.753862 -1.019150
C 1.503560 3.696036 -1.217516
C 1.493392 3.902923 -1.377913
C 1.447842 3.985383 -1.648174
C 1.494809 4.038356 -1.885493
C 1.526744 3.891284 -2.073483
C 1.442174 3.886351 -2.378050
C 1.513238 3.943659 -2.249253
C 1.704311 4.058069 -2.015911
C 1.805522 3.855205 -2.172330
C 1.880783 3.690394 -2.249536
C 2.010024 3.820491 -1.909019
C 2.079697 3.674861 -1.644872
C 2.156468 3.491451 -1.603970
C 2.088139 3.190068 -1.900102
C 1.909112 2.994260 -2.355039
C 1.832633 2.968872 -2.449206
C 1.917799 2.927535 -2.471450
C 1.942869 2.734136 -2.787470
C 1.955716 2.766182 -2.870588
C 2.068769 2.883512 -2.430586
C 2.228212 2.928785 -1.910090
C 2.396543 2.820830 -1.239692
C 2.564268 2.791679 -0.539365
C 2.677413 2.668030 -0.164764
C 2.827640 2.654662 0.108935
C 3.056026 2.733066 0.188776
C 3.111149 2.602917 -0.141355
C 3.169500 2.591969 -0.482623
C 3.328544 2.649100 -0.790490
C 3.296413 2.564976 -1.267836
C 3.250003 2.553388 -1.476860
C 3.223878 2.495844 -1.702542
C 3.163509 2.362444 -1.749391
C 3.224560 2.326169 -1.573195
C 3.259209 2.394887 -1.164057
C 3.270042 2.512818 -0.774652
C 3.407892 2.584859 -0.381459
C 3.523115 2.662966 -0.046300
C 3.482871 2.595531 0.468905
C 3.499724 2.565683 0.906757
C 3.489820 2.502491 1.262574
C 3.453386 2.244379 1.481901
C 3.463690 2.001181 1.749167
C 3.529609 1.841599 2.031771
C 3.444769 1.517121 2.364196
C 3.550008 1.364451 2.620870
C 3.578185 1.254642 2.893164
C 3.569784 0.975731 2.954098
C 3.594740 0.780314 2.948742
C 3.546402 0.583920 3.051354
C 3.554265 0.347071 3.208121
C 3.580894 0.229074 3.287306
C 3.517464 -0.039646 3.238736
C 3.550842 -0.364401 3.212523
C 3.637064 -0.529561 3.235430
C 3.810514 -0.579590 3.191368
C 3.941140 -0.624568 3.049526
C 4.000021 -0.627728 2.813581
C 4.056848 -0.500792 2.499683
C 3.974015 -0.340673 2.248492
C 4.029863 -0.114057 1.964112
C 3.908240 0.040954 1.727888
C 3.786590 0.098990 1.582724
C 3.727528 0.148078 1.343487
C 3.611898 0.213601 1.221051
C 3.598191 0.278449 1.225966
C 3.828048 0.301633 1.122674
C 3.862093 0.308016 0.969780
C 4.002139 0.395087 0.901455
C 4.017764 0.463316 0.663037
C 4.198688 0.491118 0.499516
C 4.378730 0.387852 0.463412
C 4.435055 0.169742 0.386715
C 4.285643 0.042579 0.342467
C 4.073365 -0.047669 0.273925
C 3.976095 -0.171403 0.249107
C 3.965440 -0.356263 0.382206
C 3.801429 -0.596419 0.586886
C 3.770169 -0.748656 0.627610
C 3.678588 -0.812457 0.649479
C 3.645924 -0.808731 0.530445
C 3.775482 -0.895648 0.376593
C 3.758030 -0.868282 0.057021
C 3.560969 -0.682055 -0.415351
C 3.381152 -0.379882 -1.154458
C 3.172343 -0.096024 -1.798103
C 3.003833 0.060317 -2.417334
C 2.877297 0.144351 -2.897833
C 2.601173 0.242802 -3.298778
C 2.352447 0.303094 -3.745465
C 2.263906 0.174632 -4.028792
C 2.165191 0.033666 -4.129760
C 1.943799 -0.046213 -4.147538
C 2.088362 -0.157547 -3.885535
C 2.344301 -0.379967 -3.489696
C 2.495547 -0.517570 -3.099410
C 2.895738 -0.753292 -2.552731
C 3.137589 -0.841016 -2.235362
C 3.341471 -0.882742 -2.058649
C 3.636886 -1.040078 -1.771990
C 3.641364 -1.018622 -1.869486
C 3.416347 -0.890779 -2.145321
C 3.278792 -0.824413 -2.405339
C 2.952083 -0.754692 -2.808307
C 2.566265 -0.689849 -3.168493
C 2.271082 -0.664459 -3.280738
C 2.159782 -0.710899 -3.461010
C 2.098882 -0.851672 -3.492364
C 2.245991 -1.102572 -3.294787
C 2.434053 -1.280755 -3.341129
C 2.512586 -1.354794 -3.311347
C 2.764338 -1.464843 -2.981431
C 2.874381 -1.630317 -2.725810
C 2.777878 -1.648500 -2.796409
C 2.768551 -1.727784 -2.745047
C 2.753609 -1.749270 -2.766479
C 2.704952 -1.819010 -2.709101
C 2.526710 -1.876225 -2.626167
C 2.377296 -1.914304 -2.747802
C 2.067558 -1.987607 -3.008739
C 1.864081 -2.052566 -3.087330
C 1.364158 -2.018948 -3.500261
C 1.013803 -1.954858 -3.777183
C 0.569743 -1.937967 -4.016106
C 0.279722 -2.039612 -4.266240
C 0.043485 -2.077935 -4.487589
C 0.189030 -2.032664 -4.484165
C 0.141899 -1.960711 -4.591406
C 0.269320 -1.960126 -4.556021
C 0.238957 -2.080395 -4.622134
C 0.452830 -2.113327 -4.523286
C 0.763629 -2.153991 -4.239212
C 1.020228 -2.328863 -4.024928
C 1.139986 -2.535200 -3.883907
C 1.402206 -2.798008 -3.502250
C 1.777138 -2.944386 -2.866312
C 2.063271 -3.020670 -2.366177
C 2.182885 -3.077322 -1.939058
C 2.304564 -3.105315 -1.632643
C 2.382818 -3.079908 -1.220531
C 2.395579 -3.011615 -0.949245
C 2.156303 -2.950204 -1.127292
C 1.737836 -3.039008 -1.546038
C 1.340548 -3.034265 -1.934726
C 0.866161 -3.172196 -2.337352
C 0.585453 -3.216224 -2.663553
C 0.183509 -3.293291 -3.053656
C -0.186682 -3.432643 -3.337853
C -0.239882 -3.586235 -3.305829
C 0.003309 -3.678776 -3.083212
C 0.092098 -3.789619 -3.011579
C 0.228733 -3.868721 -2.866089
C 0.302058 -3.920217 -2.780053
C 0.599597 -3.966908 -2.514464
C 0.946128 -4.023973 -2.174385
C 1.081156 -4.030437 -2.001450
C 0.793341 -4.075032 -2.048912
C 0.544081 -4.192261 -1.946735
C 0.596255 -4.200401 -1.881305
C 0.481536 -4.375942 -1.834196
C 0.551719 -4.479841 -1.704487
C 0.671396 -4.435818 -1.460757
C 0.943329 -4.438014 -1.043044
C 1.388880 -4.351298 -0.479014
C 1.889748 -4.163622 0.075166
C 2.171684 -4.027662 0.619059
C 2.454048 -3.940378 1.120226
C 2.471669 -3.786940 1.388739
C 2.398083 -3.801009 1.482322
C 2.158181 -3.807477 1.402696
C 1.944540 -3.814448 1.202710
C 1.693224 -3.960962 1.001461
C 1.474462 -4.124158 0.749137
C 1.322809 -4.126194 0.541027
C 1.204976 -4.170015 0.332282
C 1.000052 -4.208971 0.043822
C 0.948841 -4.216601 -0.148712
C 0.895790 -4.115192 -0.283670
C 0.761983 -4.095384 -0.452559
C 0.749017 -4.072187 -0.520046
C 0.567951 -4.175178 -0.638791
C 0.435839 -4.246808 -0.727923
C 0.545237 -4.157220 -0.530709
C 0.651063 -4.069939 -0.221423
C 0.821428 -4.084108 0.144499
C 1.236833 -3.933979 0.659783
C 1.393548 -3.914111 1.253284
C 1.745252 -3.733111 1.815787
C 1.924561 -3.658966 2.376315
C 2.012479 -3.730351 2.719677
C 1.905098 -3.901076 2.952611
C 1.386671 -4.296345 2.847543
C 1.175086 -4.440230 2.882809
C 1.043892 -4.484163 2.735554
C 0.727932 -4.649827 2.603559
