271
chr11 3D structure from Hi-C (resolution 500000bp)
C -3.122083 3.270204 -0.403519
C -3.204884 3.054444 -0.314280
C -3.136705 2.982942 -0.536147
C -3.059468 2.881573 -0.672459
C -3.046214 2.641327 -0.751386
C -3.046675 2.270550 -0.837645
C -2.966755 1.806748 -1.017576
C -2.876563 1.311352 -1.155620
C -2.752450 0.950841 -1.381451
C -2.819860 0.653688 -1.352213
C -2.908599 0.401160 -1.430353
C -2.921180 0.155605 -1.536352
C -2.982444 0.150010 -1.639551
C -2.959113 0.253173 -1.582456
C -2.884854 0.471969 -1.615130
C -2.854491 0.746280 -1.600300
C -2.690593 0.827895 -1.604416
C -2.641530 0.830770 -1.457230
C -2.684774 0.879460 -1.262843
C -2.542162 0.814901 -1.115932
C -2.514867 0.797261 -1.044721
C -2.534193 0.622126 -0.972596
C -2.709331 0.332138 -0.764875
C -2.807882 0.098937 -0.621097
C -2.728787 -0.115754 -0.662781
C -2.702907 -0.355690 -0.653274
C -2.912222 -0.611444 -0.524593
C -3.084749 -0.860594 -0.408620
C -3.144256 -1.040027 -0.324820
C -3.085560 -1.264301 -0.261261
C -3.093706 -1.357385 -0.297822
C -3.215905 -1.219597 -0.173585
C -3.184818 -1.070083 -0.151146
C -3.034628 -0.779863 -0.248897
C -2.783581 -0.572605 -0.457835
C -2.785798 -0.418684 -0.434903
C -2.724567 -0.240483 -0.518516
C -2.675806 -0.208987 -0.502520
C -2.507569 -0.494695 -0.568419
C -2.455369 -0.879061 -0.508822
C -2.365535 -1.322509 -0.431265
C -2.496596 -1.711582 -0.164358
C -2.440730 -1.942830 -0.221770
C -2.323574 -2.219145 -0.294781
C -2.277108 -2.499088 -0.239169
C -2.289779 -2.683670 -0.126048
C -2.189758 -2.792240 -0.172541
C -2.141171 -2.945449 -0.186139
C -1.971125 -2.910409 -0.412667
C -1.826956 -2.916389 -0.490597
C -1.909363 -2.904129 -0.543780
C -1.907187 -2.825062 -0.672577
C -1.932741 -2.675111 -0.916015
C -2.056190 -2.471234 -1.248631
C -2.105921 -2.463342 -1.449929
C -2.107455 -2.574164 -1.463180
C -2.107211 -2.710595 -1.509708
C -1.971500 -2.647969 -1.657609
C -1.849494 -2.724641 -1.650487
C -1.724098 -2.755059 -1.685574
C -1.589257 -2.751230 -1.711426
C -1.500268 -2.463661 -1.861553
C -1.486307 -2.034675 -2.177090
C -1.500669 -1.554491 -2.432594
C -1.489334 -1.159974 -2.543599
C -1.512623 -0.671507 -2.752304
C -1.542910 -0.384408 -2.860810
C -1.462393 -0.126656 -2.777011
C -1.448808 -0.056579 -2.813924
C -1.391831 -0.175662 -2.733160
C -1.276415 -0.442809 -2.566770
C -1.118493 -1.028392 -2.317925
C -0.967448 -1.594546 -2.147378
C -0.808684 -1.967901 -2.123338
C -0.618115 -2.483136 -2.064195
C -0.398036 -2.919568 -1.872030
C -0.233734 -3.250692 -1.673240
C -0.173040 -3.488772 -1.646763
C -0.087446 -3.416061 -1.725021
C 0.021746 -3.349710 -1.879138
C 0.055844 -3.269992 -1.811774
C -0.031338 -3.054246 -1.897967
C -0.050650 -2.796386 -2.015804
C -0.127202 -2.548711 -2.154138
C -0.133369 -2.158381 -2.188416
C -0.212158 -1.733419 -2.325757
C -0.381953 -1.206369 -2.304496
C -0.415667 -0.800486 -2.344321
C -0.500025 -0.323451 -2.301332
C -0.613579 0.198231 -2.432914
C -0.639294 0.631402 -2.606953
C -0.551752 0.811106 -2.851709
C -0.456856 0.838170 -3.008741
C -0.234565 0.539836 -3.177033
C 0.110500 0.230292 -3.360022
C 0.470632 -0.260939 -3.534982
C 0.794066 -0.824839 -3.523031
C 1.043205 -1.384261 -3.313316
C 1.242036 -1.755298 -3.274223
C 1.756272 -1.889233 -3.200901
C 1.035341 -1.724462 -2.336677
C 1.375719 -1.369447 -2.169225
C 1.787829 -0.932518 -2.025008
C 2.248246 -0.494216 -1.847366
C 1.617242 -0.449444 -1.094841
C 1.869474 -0.205454 -1.119334
C 1.652619 -0.438718 -1.005858
C 2.583516 -0.721371 -1.718452
C 2.195120 -1.135759 -1.611761
C 1.878103 -1.600331 -1.508211
C 1.557706 -1.885269 -1.560932
C 2.180794 -1.672152 -2.212809
C 1.881363 -1.636735 -1.928954
C 1.791711 -1.394518 -1.840663
C 1.644302 -1.048983 -1.742481
C 1.678406 -0.658317 -1.794646
C 1.589883 -0.206646 -1.907166
C 1.533248 0.104032 -2.002876
C 1.629961 0.426923 -2.118206
C 1.550627 0.744803 -2.259287
C 1.377609 1.201043 -2.344506
C 1.303810 1.539143 -2.397643
C 1.245431 1.835704 -2.396045
C 1.219886 2.084399 -2.340011
C 1.259429 2.306232 -2.266737
C 1.269098 2.537151 -2.236012
C 1.428695 2.625820 -2.231279
C 1.605955 2.715618 -2.295958
C 1.696415 2.755634 -2.443486
C 1.493384 2.934590 -2.420105
C 1.260258 3.139655 -2.490761
C 0.951929 3.344525 -2.474957
C 0.784763 3.446247 -2.502760
C 0.632420 3.573296 -2.317389
C 0.436271 3.609443 -2.079479
C 0.400641 3.676086 -1.814425
C 0.471032 3.610638 -1.625620
C 0.523438 3.550922 -1.391694
C 0.536085 3.497855 -1.125104
C 0.617736 3.423532 -0.817127
C 0.630323 3.419871 -0.713301
C 0.639107 3.496988 -0.612662
C 0.479046 3.517884 -0.514994
C 0.325851 3.594589 -0.513455
C 0.441974 3.542321 -0.525460
C 0.565517 3.484860 -0.538371
C 0.643365 3.418199 -0.512369
C 0.840558 3.329861 -0.443638
C 1.083780 3.189849 -0.388294
C 1.386586 3.096648 -0.313030
C 1.711674 2.853344 -0.250335
C 1.841842 2.724857 -0.105783
C 1.973354 2.585788 -0.015707
C 1.970002 2.431048 -0.018169
C 1.835217 2.080665 0.058941
C 1.730581 1.725316 0.109175
C 1.752477 1.205526 0.110468
C 1.858942 0.794565 0.136762
C 1.978529 0.354788 0.056518
C 2.164768 -0.096291 0.015243
C 2.213059 -0.514385 0.088407
C 2.413785 -0.829826 0.119969
C 2.618193 -0.955368 0.111029
C 2.639262 -0.873730 0.143638
C 2.604054 -0.846641 0.282665
C 2.569301 -0.881332 0.408482
C 2.544445 -0.887459 0.528919
C 2.777061 -0.942674 0.541498
C 2.873843 -0.738071 0.541664
C 2.747601 -0.625431 0.549566
C 2.736280 -0.695773 0.629561
C 2.872685 -0.721024 0.577630
C 2.928114 -0.725610 0.652104
C 2.889882 -0.561272 0.630586
C 2.744310 -0.610096 0.654246
C 2.717969 -0.963217 0.690367
C 2.872835 -1.403702 0.747147
C 2.872100 -1.563575 0.834647
C 2.668294 -1.916741 0.940838
C 2.503176 -2.160346 0.997469
C 2.322789 -2.443069 1.123108
C 2.116390 -2.447167 1.222250
C 1.880867 -2.411940 1.302301
C 1.698449 -2.356908 1.424842
C 1.699909 -2.106763 1.429580
C 1.509057 -1.968461 1.530762
C 1.477255 -1.581037 1.547545
C 1.231838 -1.518567 1.658386
C 1.329972 -1.259852 1.730664
C 1.331769 -0.966402 1.830882
C 1.196936 -1.054358 1.940892
C 1.035496 -1.424405 2.067548
C 1.122546 -1.488804 2.089729
C 0.999444 -1.769488 2.171056
C 1.233097 -1.841453 2.193080
C 1.171140 -2.123354 2.261254
C 1.084959 -2.344466 2.285664
C 0.985667 -2.288203 2.381425
C 0.854355 -2.176611 2.500187
C 0.744917 -2.097929 2.608600
C 0.779245 -1.998495 2.642408
C 0.726661 -1.780665 2.639444
C 0.638809 -1.555977 2.544344
C 0.635684 -1.525205 2.673739
C 0.681616 -1.375911 2.681873
C 0.796605 -1.272183 2.646239
C 0.939650 -1.155284 2.694100
C 1.056524 -1.114397 2.789730
C 1.239140 -1.212074 2.809954
C 1.349176 -1.255590 2.937327
C 1.518268 -1.222305 2.927536
C 1.624621 -1.107059 2.802939
C 1.830300 -0.857579 2.754023
C 2.075410 -0.439357 2.589262
C 2.093990 -0.137920 2.443338
C 2.047891 0.071825 2.519936
C 2.156283 0.303617 2.577566
C 2.262326 0.668393 2.514871
C 2.345404 0.853964 2.653850
C 2.171518 0.849665 2.671278
C 1.983872 0.849453 2.646240
C 1.925038 1.009713 2.693463
C 1.743104 1.111215 2.599414
C 1.491722 1.127697 2.519472
C 1.198152 1.154771 2.429688
C 1.066416 1.150207 2.305542
C 1.019689 1.248604 2.396951
C 0.874670 1.256907 2.476447
C 0.733910 1.274119 2.439607
C 0.674743 1.417657 2.380287
C 0.643955 1.619208 2.291776
C 0.532763 1.865482 2.241709
C 0.399755 2.195401 2.114710
C 0.227498 2.527636 1.835130
C 0.017806 2.786571 1.682621
C -0.150130 2.955082 1.564862
C -0.232621 3.012957 1.495723
C -0.333071 3.089882 1.517937
C -0.416236 3.045583 1.570739
C -0.535756 3.026770 1.667815
C -0.533942 2.865650 1.856108
C -0.418141 2.604696 2.114557
C -0.378653 2.357306 2.260923
C -0.436018 2.274578 2.341639
C -0.518307 1.964829 2.534468
C -0.540417 1.671564 2.767834
C -0.590189 1.540510 2.914036
C -0.661648 1.436828 2.882764
C -0.770074 1.402219 2.772875
C -0.848579 1.379675 2.844542
C -0.835705 1.199658 2.980198
C -0.798054 1.105904 2.915150
C -0.770304 0.917600 2.869086
C -0.656126 0.664882 2.775627
C -0.575285 0.554491 2.817406
C -0.632919 0.289498 2.950878
C -0.690373 0.057998 3.027656
C -0.791088 0.124850 2.971516
C -0.804580 0.214253 2.912289
C -0.774901 0.349770 2.877125
C -0.874421 0.402815 2.930594
C -1.004835 0.280726 2.953827
C -0.957330 0.326365 2.908846
C -1.001220 0.442647 2.870779
C -1.038351 0.375529 2.910548
C -1.192175 0.482420 2.884739
C -1.400672 0.536001 2.821108
C -1.670578 0.681299 2.825363
C -1.755079 0.782887 2.814044
C -1.932926 0.954107 2.759550
C -2.005427 1.050788 2.686672
