271
chr11 3D structure from Hi-C (resolution 500000bp)
C 4.532657 -0.887362 1.868555
C 4.404568 -0.982550 1.849157
C 4.340918 -1.188169 1.726685
C 4.238129 -1.264396 1.666972
C 3.999978 -1.378087 1.677947
C 3.720666 -1.717346 1.417374
C 3.212102 -2.061227 1.216919
C 2.725905 -2.371584 0.986193
C 2.351646 -2.613149 0.830582
C 2.013997 -2.788010 0.856375
C 1.829785 -2.979750 0.868532
C 1.615204 -3.157743 0.802414
C 1.577615 -3.282909 0.782629
C 1.681006 -3.148975 0.832224
C 1.842206 -2.929724 1.027849
C 2.017755 -2.792637 1.182691
C 2.062669 -2.600694 1.212069
C 1.949609 -2.534787 1.171125
C 2.013602 -2.418339 1.330903
C 1.895297 -2.191625 1.486176
C 1.793927 -2.192168 1.537625
C 1.609978 -2.295430 1.483200
C 1.399203 -2.542054 1.437738
C 1.218767 -2.709052 1.419667
C 0.987273 -2.754443 1.460594
C 0.762391 -2.894140 1.270848
C 0.591590 -3.238934 1.082620
C 0.474802 -3.488787 0.989901
C 0.320549 -3.673842 0.883274
C 0.171921 -3.731832 0.658133
C 0.148605 -3.691595 0.740643
C 0.361597 -3.624570 0.836360
C 0.409559 -3.459916 1.066050
C 0.610773 -3.077903 1.333684
C 0.661577 -2.711572 1.472305
C 0.750150 -2.509538 1.653421
C 0.798674 -2.245435 1.987730
C 0.683790 -2.274275 1.846304
C 0.333977 -2.344514 1.640041
C 0.041476 -2.550496 1.374695
C -0.407055 -2.794948 1.204397
C -0.695582 -3.144696 0.969177
C -0.909308 -3.296056 0.815725
C -1.267645 -3.389294 0.607533
C -1.538375 -3.434161 0.483607
C -1.663273 -3.514596 0.405122
C -1.777030 -3.496095 0.413483
C -1.928819 -3.520659 0.335942
C -1.965508 -3.350761 0.431289
C -2.012200 -3.195787 0.469427
C -2.013922 -3.222856 0.550873
C -1.931165 -3.135147 0.744187
C -1.855027 -3.088586 0.961594
C -2.003561 -3.009245 0.973618
C -2.109291 -2.941221 0.977167
C -2.246777 -2.940400 1.086012
C -2.377651 -2.991378 1.160587
C -2.268177 -2.909901 1.279943
C -2.258243 -2.900397 1.426125
C -2.229712 -2.800078 1.623871
C -1.963318 -2.632409 2.060418
C -1.616896 -2.467400 2.402147
C -1.304909 -2.237472 2.781166
C -0.913491 -2.014786 3.089092
C -0.579858 -1.800758 3.219756
C -0.307381 -1.523645 3.286008
C -0.098512 -1.407928 3.341945
C 0.089882 -1.259204 3.258173
C 0.161780 -1.145424 3.312308
C 0.150521 -1.125950 3.165174
C -0.126173 -1.195024 2.910235
C -0.764069 -1.301665 2.631084
C -1.221128 -1.382691 2.560479
C -1.731663 -1.401405 2.425938
C -2.300565 -1.501987 2.316561
C -2.736197 -1.486894 2.263203
C -3.118466 -1.461467 2.158352
C -3.328275 -1.355588 2.283768
C -3.239792 -1.227577 2.419867
C -3.179492 -1.097076 2.559951
C -3.095616 -1.041878 2.470489
C -2.971006 -0.966001 2.419100
C -2.807333 -1.000191 2.361047
C -2.554750 -0.962166 2.416788
C -2.190532 -0.897679 2.377460
C -1.812858 -0.801915 2.489421
C -1.337921 -0.787288 2.353826
C -0.825792 -0.618212 2.479549
C -0.191215 -0.517684 2.578972
C 0.439762 -0.343391 2.688593
C 0.893282 -0.244116 2.914803
C 1.166588 -0.170267 3.155971
C 1.170908 -0.037826 3.325149
C 0.690678 0.135523 3.440942
C 0.044398 0.361430 3.506601
C -0.800029 0.334890 3.294507
C -1.699352 0.304521 3.111543
C -2.382151 0.298646 2.804864
C -3.168254 0.444672 2.516249
C -3.012621 -0.331793 1.582272
C -2.950217 0.002981 1.686272
C -2.767918 0.322520 1.718074
C -2.474230 0.977295 1.966042
C -2.144881 1.692451 1.965926
C -1.996408 2.400159 1.891433
C -1.834428 2.842134 1.807991
C -2.375365 3.812865 2.549340
C -2.576876 3.570844 2.251869
C -2.658029 3.177409 2.008217
C -2.807348 2.802749 1.850888
C -2.935294 2.357798 1.909617
C -2.798280 1.816353 1.915528
C -2.444367 1.379501 1.877741
C -2.230315 1.333239 1.753626
C -1.798251 1.314252 1.687729
C -1.411111 1.479647 1.818594
C -1.004729 1.570979 1.931624
C -0.631729 1.676333 2.015509
C -0.388049 1.900804 2.100667
C 0.027904 1.916474 2.268935
C 0.620232 1.908365 2.363171
C 0.957461 2.027139 2.476780
C 1.309934 2.024551 2.514918
C 1.690132 1.982593 2.488308
C 2.027659 1.945839 2.540247
C 2.250525 1.942846 2.655986
C 2.116600 2.217937 2.724372
C 1.913136 2.465705 2.827790
C 1.819280 2.697125 2.888090
C 1.708350 2.998410 2.777869
C 1.584554 3.315748 2.766070
C 1.562031 3.535780 2.649009
C 1.533085 3.729338 2.491469
C 1.684135 3.737194 2.280114
C 1.937658 3.559901 2.058831
C 2.163149 3.367747 1.894863
C 2.459241 3.017890 1.760487
C 2.741579 2.731552 1.597870
C 2.943620 2.454568 1.320340
C 3.126825 2.146696 1.186331
C 3.288695 1.953937 1.190643
C 3.280817 2.125830 1.103937
C 3.264566 2.145165 0.996734
C 3.213008 2.350080 0.885391
C 3.074339 2.480069 0.858134
C 2.924239 2.603997 0.850295
C 2.821665 2.720160 0.740708
C 2.559907 2.969755 0.506701
C 2.356980 3.036191 0.327720
C 2.164118 3.199985 0.130919
C 1.913489 3.164407 0.095569
C 1.819803 3.119447 -0.021033
C 1.590060 3.202334 -0.129120
C 1.359196 3.255683 -0.211869
C 1.138773 3.007437 -0.312216
C 0.876543 2.682089 -0.378994
C 0.502480 2.347116 -0.397795
C 0.024556 2.187189 -0.471404
C -0.480704 2.197904 -0.500890
C -1.030076 2.065915 -0.515363
C -1.451619 1.833104 -0.606609
C -1.869220 1.778832 -0.659383
C -1.993297 1.947342 -0.745756
C -1.954850 2.069063 -0.757630
C -1.876066 2.133004 -0.802591
C -1.885071 2.080155 -0.861951
C -1.746004 2.203976 -0.980818
C -1.778252 2.519148 -0.945536
C -1.651904 2.773017 -0.920408
C -1.548670 2.687475 -0.827217
C -1.625484 2.686386 -0.917304
C -1.778738 2.739447 -1.022824
C -1.882739 2.676697 -1.094690
C -1.851624 2.545317 -1.139466
C -1.961034 2.261321 -1.229166
C -2.300378 1.979938 -1.288851
C -2.805662 1.920723 -1.438612
C -3.049826 1.740384 -1.510133
C -3.248374 1.432362 -1.597108
C -3.365933 1.219821 -1.692971
C -3.480359 0.966332 -1.728107
C -3.404844 0.836564 -1.813645
C -3.185689 0.818990 -1.958927
C -2.909705 0.895217 -2.088542
C -2.629116 0.996301 -2.183477
C -2.263607 1.285988 -2.287161
C -1.878067 1.486806 -2.363973
C -1.633703 1.771848 -2.488992
C -1.352743 1.970347 -2.532773
C -1.084666 2.007829 -2.566557
C -1.119397 1.930467 -2.664050
C -1.323270 1.893163 -2.729972
C -1.560142 1.521069 -2.704338
C -1.760554 1.244827 -2.704419
C -2.022050 0.885417 -2.713742
C -2.336355 0.622140 -2.808994
C -2.605278 0.339066 -2.804079
C -2.701660 -0.023208 -2.795555
C -2.634012 -0.139238 -2.846810
C -2.510549 -0.042927 -2.947456
C -2.402340 0.009275 -3.034859
C -2.144648 0.040518 -3.094648
C -1.852450 0.033753 -2.987253
C -1.718901 -0.064620 -3.120522
C -1.520996 -0.077972 -3.148529
C -1.459733 -0.210342 -3.099430
C -1.417798 -0.465833 -3.128699
C -1.472402 -0.664033 -3.138465
C -1.608753 -0.791597 -3.193255
C -1.657825 -0.849506 -3.335571
C -1.749893 -0.878624 -3.281154
C -1.686994 -0.815346 -3.183883
C -1.553115 -0.982900 -3.223241
C -1.288701 -1.178178 -3.229105
C -1.064829 -0.928752 -3.259142
C -0.924139 -1.121146 -3.263342
C -0.833500 -1.355631 -3.313148
C -0.408789 -1.507255 -3.369147
C -0.201212 -1.727778 -3.458044
C -0.077705 -1.556891 -3.427799
C 0.057657 -0.867605 -3.284095
C 0.258996 -0.630289 -3.247078
C 0.528721 -0.202562 -3.144582
C 0.731702 0.266498 -3.001405
C 0.777012 0.812012 -2.863566
C 0.812396 1.212921 -2.773646
C 0.899321 1.428009 -2.882507
C 0.975094 1.329542 -2.912127
C 1.102505 1.235593 -2.794901
C 1.237556 1.282559 -2.727019
C 1.431307 1.318628 -2.611472
C 1.728223 1.418258 -2.469134
C 2.124792 1.524971 -2.246163
C 2.595639 1.550926 -1.790097
C 2.946633 1.590808 -1.530995
C 3.169765 1.622164 -1.434905
C 3.317386 1.570018 -1.299423
C 3.447439 1.481770 -1.272166
C 3.505076 1.245866 -1.288316
C 3.552520 1.110443 -1.362105
C 3.438268 0.881525 -1.562179
C 3.315186 0.569882 -1.787162
C 3.135274 0.339465 -1.875364
C 3.054563 0.285719 -1.958967
C 2.939147 0.046473 -2.137644
C 2.677732 0.049344 -2.448136
C 2.506800 0.037736 -2.692898
C 2.315603 0.179377 -2.815375
C 2.235049 0.342759 -2.795548
C 2.266963 0.363834 -2.852291
C 2.123266 0.354627 -3.011948
C 1.937062 0.408340 -3.104439
C 1.769189 0.218315 -3.085348
C 1.485105 0.134007 -2.999423
C 1.382517 -0.060142 -2.989404
C 1.163639 -0.215493 -3.203358
C 0.972056 -0.382054 -3.360794
C 0.994152 -0.439233 -3.341373
C 1.073274 -0.463869 -3.192306
C 1.215310 -0.425210 -3.094988
C 1.373891 -0.539945 -3.128479
C 1.392367 -0.620145 -3.116045
C 1.485851 -0.725388 -2.941312
C 1.657202 -0.783936 -2.862013
C 1.679375 -0.977349 -2.798702
C 1.819551 -1.118002 -2.770597
C 1.917752 -1.259957 -2.686421
C 2.155119 -1.490729 -2.576119
C 2.300777 -1.541041 -2.536630
C 2.419444 -1.620957 -2.509596
C 2.447544 -1.720372 -2.376714
