291
chr8 3D structure from Hi-C (resolution 500000bp)
C -3.195175 2.032825 -0.148272
C -3.148460 2.257017 -0.160252
C -3.110011 2.212913 -0.360394
C -3.002199 2.065409 -0.565491
C -2.824993 2.017272 -0.754973
C -2.710090 1.976275 -0.971260
C -2.594861 1.684612 -1.331573
C -2.599893 1.361834 -1.586096
C -2.522864 0.970699 -1.797028
C -2.385731 0.633222 -1.798843
C -2.298125 0.329684 -1.650149
C -2.494000 0.259244 -1.381200
C -2.681967 0.430987 -0.938619
C -2.709953 -0.023246 -0.537558
C -2.560882 -0.437946 -0.282738
C -2.525892 -0.706712 -0.051474
C -2.707497 -0.876348 0.190561
C -2.925948 -0.912653 0.332683
C -2.759686 -1.117419 0.353719
C -2.600872 -1.658643 0.242425
C -2.575151 -1.577361 0.193597
C -2.877040 -1.155839 0.259329
C -2.930894 -0.990198 0.112023
C -2.745841 -0.792084 -0.149461
C -2.583940 -0.616640 -0.460040
C -2.623348 -0.380845 -0.685943
C -2.658534 -0.005627 -0.985574
C -2.705811 0.414435 -1.338346
C -2.442460 0.352690 -1.760701
C -2.497763 0.584730 -1.872000
C -2.605473 0.642551 -1.951208
C -2.592181 0.544739 -1.928683
C -2.437469 0.348470 -1.922282
C -2.267045 0.130969 -1.862413
C -2.226216 -0.132806 -1.768023
C -2.265837 -0.341373 -1.575242
C -2.132713 -0.698229 -1.431785
C -2.117044 -0.902225 -1.252506
C -2.232860 -0.968714 -1.189857
C -2.359114 -1.009351 -1.118127
C -2.432656 -1.208021 -0.984319
C -2.388672 -1.493200 -0.750859
C -2.282013 -1.750925 -0.567536
C -2.198416 -1.913419 -0.468028
C -2.097259 -1.993626 -0.454186
C -2.126693 -2.014043 -0.347197
C -2.223168 -1.909737 -0.283395
C -2.314885 -1.838107 -0.308431
C -2.358165 -1.718691 -0.564187
C -2.392726 -1.622292 -0.715131
C -2.391740 -1.539196 -0.820496
C -2.279888 -1.597896 -0.787142
C -2.086247 -1.799559 -0.714798
C -1.810651 -2.123859 -0.590638
C -1.606226 -2.319000 -0.366301
C -1.425714 -2.545960 -0.010927
C -1.284786 -2.712839 0.173362
C -1.238366 -2.834164 0.248697
C -1.209678 -2.894522 0.121594
C -1.161354 -2.783181 -0.201526
C -1.175838 -2.460092 -0.647787
C -1.146996 -2.164218 -1.103558
C -1.211204 -1.837233 -1.588985
C -1.238624 -1.655194 -1.934255
C -1.285272 -1.471141 -2.258607
C -1.387969 -1.069640 -2.488604
C -1.433904 -0.727725 -2.568363
C -1.423240 -0.668073 -2.578023
C -1.515780 -0.506906 -2.682311
C -1.517584 -0.295151 -2.771697
C -1.566448 -0.049448 -2.971852
C -1.540159 -0.102376 -2.892628
C -1.521374 -0.486161 -2.686261
C -1.388161 -0.987870 -2.282929
C -1.290480 -1.334113 -2.007924
C -1.112362 -1.942981 -1.529488
C -0.917788 -2.508709 -1.209979
C -0.834646 -2.605148 -1.006102
C -0.783880 -2.570281 -1.011608
C -0.700363 -2.421481 -0.998646
C -0.714174 -2.408508 -1.105600
C -0.741993 -2.496871 -1.034971
C -0.769283 -2.404887 -1.177881
C -0.848372 -2.284979 -1.393537
C -1.045606 -1.797605 -1.399985
C -1.223414 -1.062259 -1.217908
C -1.365023 -0.308296 -1.147289
C -1.461596 0.659799 -1.240401
C -1.521864 1.642737 -1.499983
C -1.578620 2.463760 -1.807625
C -1.569704 3.068354 -1.893543
C -1.263107 2.600678 -2.102517
C -0.923745 1.683809 -2.257883
C -0.623930 0.958089 -2.453084
C -0.374208 0.386316 -2.661497
C -0.145293 -0.105262 -2.634017
C 0.055556 -0.332792 -2.608339
C 0.222820 -0.420907 -2.664408
C 0.310289 -0.156892 -2.685228
C 0.349271 0.319920 -2.861607
C 0.446624 0.443010 -3.012374
C 0.546521 0.470459 -3.038019
C 0.666184 0.384985 -3.152513
C 0.744616 0.297265 -3.176650
C 0.803883 -0.159916 -2.989199
C 0.901556 -0.553846 -2.821763
C 0.980948 -0.747049 -2.769363
C 0.993698 -0.853580 -2.639999
C 0.962146 -1.177091 -2.322064
C 0.935579 -1.222518 -2.118984
C 0.957498 -1.299811 -1.946501
C 1.035163 -1.167164 -1.936428
C 1.117073 -1.161710 -1.897410
C 1.111245 -1.336349 -1.564543
C 1.181676 -1.547653 -1.379929
C 1.349625 -1.573545 -1.522922
C 1.471854 -1.590703 -1.605678
C 1.604203 -1.820671 -1.607076
C 1.610824 -2.020872 -1.358820
C 1.604041 -2.087312 -1.241777
C 1.675321 -2.019038 -1.343302
C 1.839481 -1.751236 -1.506082
C 1.786800 -1.420635 -1.500202
C 1.829390 -1.494509 -1.416429
C 1.934086 -1.322390 -1.435172
C 1.977737 -1.024553 -1.638015
C 2.019921 -1.089394 -1.559676
C 2.055185 -1.020585 -1.565260
C 1.929065 -1.316975 -1.235141
C 2.004748 -1.612342 -0.979101
C 2.001848 -1.791294 -0.700552
C 1.936319 -2.038197 -0.432100
C 2.045150 -2.190583 -0.304721
C 2.106578 -1.870516 -0.425682
C 2.162591 -1.677836 -0.560343
C 2.163755 -1.210567 -0.789920
C 2.195321 -1.068025 -0.804680
C 2.250973 -0.954401 -0.856730
C 2.267912 -0.726959 -0.935828
C 2.157008 -0.542234 -0.905792
C 2.138066 -0.623074 -0.787648
C 2.125823 -0.756820 -0.555314
C 2.273396 -0.953964 -0.410614
C 2.201810 -0.942660 -0.417763
C 2.227416 -0.898850 -0.431432
C 2.302312 -0.775933 -0.469115
C 2.413445 -0.642800 -0.584217
C 2.474545 -0.423147 -0.718584
C 2.554595 -0.162704 -0.890662
C 2.518976 0.131540 -1.066681
C 2.611051 0.502284 -1.371948
C 2.534470 0.971438 -1.713348
C 2.464915 1.128106 -1.736831
C 2.476911 1.209955 -1.684693
C 2.538797 1.183410 -1.529313
C 2.572077 1.152005 -1.422365
C 2.591060 0.958440 -1.147374
C 2.700770 0.553077 -0.680940
C 2.847185 0.288694 -0.316435
C 2.920356 0.067494 -0.125778
C 2.894012 0.013453 -0.021437
C 2.719975 0.270529 -0.158512
C 2.612531 0.393971 -0.166797
C 2.423943 0.820396 -0.440295
C 2.152963 1.398666 -0.782372
C 1.854639 1.812212 -1.083852
C 1.689224 2.163163 -1.307352
C 1.495822 2.196945 -1.331318
C 1.233035 2.263147 -1.277580
C 1.044671 2.273508 -1.247194
C 1.064058 2.064162 -1.005350
C 0.957185 2.133694 -1.018849
C 0.969650 2.071490 -0.862213
C 0.982136 2.221030 -0.828300
C 1.073714 2.478098 -0.853415
C 1.303883 2.355069 -0.770674
C 1.570756 2.180693 -0.575830
C 1.615706 2.261164 -0.556008
C 1.898631 1.979164 -0.287735
C 2.165662 1.891406 -0.137229
C 1.986169 1.958175 -0.092033
C 1.798048 2.040978 -0.025758
C 1.816965 2.173949 0.079051
C 1.672870 2.271241 0.050856
C 1.756814 1.998065 0.211710
C 1.642964 1.666591 0.373145
C 1.477049 1.249076 0.603295
C 1.637305 0.595252 0.915931
C 1.740795 0.189980 1.063184
C 1.727028 -0.241445 1.220211
C 1.810398 -0.499043 1.430157
C 1.716572 -0.559940 1.513249
C 1.687437 -0.532328 1.550976
C 1.583325 -0.601125 1.537713
C 1.506681 -0.784048 1.622943
C 1.588279 -1.150687 1.778818
C 1.547750 -1.438972 1.906402
C 1.328274 -1.738006 2.025591
C 1.215920 -1.949308 2.098339
C 1.109331 -2.065587 2.151135
C 1.151334 -2.049322 2.222974
C 1.179376 -2.029970 2.196575
C 1.088476 -1.972236 2.222924
C 1.102348 -1.751956 2.136958
C 1.256906 -1.332683 1.925159
C 1.468257 -1.040975 1.864307
C 1.689845 -0.734014 1.794702
C 1.835029 -0.262934 1.636925
C 2.006236 0.337178 1.538202
C 2.152536 0.748135 1.433809
C 2.231123 0.973088 1.463728
C 2.257911 1.173064 1.493242
C 2.182498 1.432626 1.427611
C 2.021692 1.562426 1.352618
C 1.880522 1.571598 1.353119
C 1.738203 1.406193 1.379321
C 1.724237 1.443244 1.487307
C 1.449960 1.767965 1.293651
C 1.118290 1.998062 1.187235
C 0.834809 2.194765 1.096379
C 0.767497 2.379041 1.065290
C 0.646322 2.536689 1.006115
C 0.543831 2.874916 0.944791
C 0.396238 3.041487 0.801704
C 0.574975 2.943042 0.941611
C 0.740747 2.799650 1.053154
C 0.884612 2.673832 1.172328
C 0.941910 2.581769 1.330590
C 0.837753 2.623223 1.439603
C 0.839063 2.534559 1.553300
C 0.888131 2.245391 1.716240
C 0.812939 2.190664 1.840713
C 0.850070 1.995080 2.041242
C 0.857432 1.747237 2.220549
C 0.894969 1.434170 2.329578
C 1.012635 1.189664 2.422209
C 1.076791 0.923276 2.548102
C 1.008684 1.046195 2.562868
C 1.040233 0.920161 2.583793
C 0.920953 1.056706 2.503586
C 0.779640 1.230290 2.436269
C 0.594364 1.541003 2.324442
C 0.602272 1.341756 2.412158
C 0.522299 1.183573 2.463208
C 0.441008 0.937712 2.639120
C 0.361382 0.707497 2.670393
C 0.354470 0.327829 2.796829
C 0.377225 -0.041979 2.870597
C 0.399926 -0.310253 2.955993
C 0.294326 -0.161503 2.878983
C 0.116469 0.024440 2.868316
C 0.074716 -0.049701 2.772665
C -0.066163 -0.104898 2.842891
C -0.126964 -0.077702 2.766661
C -0.481362 0.208444 2.781829
C -0.569580 0.284484 2.828503
C -0.607977 0.216449 2.936859
C -0.533521 0.064558 2.893128
C -0.607835 0.338749 2.875717
C -0.633752 0.662349 2.776395
C -0.684671 0.900440 2.773298
C -0.497001 0.867679 2.714156
C -0.576759 0.875243 2.703441
C -0.619215 0.811673 2.605199
C -0.667119 0.855517 2.565408
C -0.684663 0.790010 2.511683
C -0.647426 0.635112 2.481954
C -0.698900 0.691478 2.416597
C -0.714900 0.823259 2.362181
C -0.813037 1.017565 2.279238
C -0.990935 1.322195 2.217867
C -1.093687 1.642908 2.099295
C -1.125267 1.843653 2.003285
C -1.275928 2.048325 1.945152
C -1.281209 1.976155 1.944819
C -1.274705 1.776394 1.950049
C -1.240094 1.530994 1.992561
C -1.118520 1.077265 2.081276
C -1.126972 0.520771 2.261389
C -1.179692 -0.051430 2.432917
C -1.196359 -0.469438 2.608916
C -1.317699 -0.757598 2.748246
C -1.435892 -1.006852 2.851927
C -1.600282 -1.255827 2.905702
C -1.979303 -1.127836 2.883351
C -2.260326 -0.939357 2.849949
C -2.517103 -0.722742 2.795177
C -2.832948 -0.469915 2.636217
C -3.001183 -0.405773 2.565614
C -3.217985 -0.261290 2.495182
C -3.388282 0.025585 2.401927
