291
chr8 3D structure from Hi-C (resolution 500000bp)
C -3.554614 1.766432 0.243064
C -3.491163 2.063114 0.250123
C -3.495703 1.998511 0.046995
C -3.456697 1.834256 -0.158243
C -3.271773 1.873493 -0.323994
C -3.173214 1.912270 -0.506192
C -3.130013 1.553810 -0.829969
C -3.156936 1.218985 -1.084430
C -3.077370 0.859287 -1.354897
C -2.917380 0.560660 -1.374228
C -2.732785 0.283529 -1.259026
C -2.936386 0.170623 -1.018959
C -3.071518 0.314008 -0.629515
C -3.003528 -0.084511 -0.342457
C -2.708188 -0.555642 -0.132303
C -2.639297 -0.859723 0.087601
C -2.794866 -0.981579 0.294182
C -3.016524 -1.024386 0.453689
C -2.771096 -1.228385 0.457421
C -2.520762 -1.851161 0.331425
C -2.468912 -1.811990 0.303620
C -2.880339 -1.415876 0.430836
C -2.979920 -1.267039 0.334079
C -2.817583 -1.104635 0.076255
C -2.685958 -0.890907 -0.254040
C -2.723970 -0.536742 -0.553928
C -2.784795 -0.016567 -0.900217
C -2.926273 0.368703 -1.253826
C -2.737851 0.359724 -1.703934
C -2.789627 0.611545 -1.836333
C -2.874187 0.762429 -1.923842
C -2.821468 0.681536 -1.929950
C -2.737807 0.453604 -1.823967
C -2.627762 0.173242 -1.746932
C -2.480213 -0.071767 -1.702063
C -2.459889 -0.247027 -1.572928
C -2.333903 -0.619049 -1.487250
C -2.292523 -0.950249 -1.259786
C -2.422387 -1.120836 -1.124762
C -2.536557 -1.256073 -1.094380
C -2.567223 -1.495617 -0.901270
C -2.474106 -1.752299 -0.641482
C -2.250964 -2.062737 -0.480355
C -2.119683 -2.238479 -0.351776
C -1.961609 -2.327491 -0.353975
C -1.899591 -2.430061 -0.311760
C -1.957512 -2.466768 -0.211568
C -1.995059 -2.483040 -0.288021
C -2.070128 -2.443735 -0.487677
C -2.153956 -2.361194 -0.617590
C -2.140070 -2.279304 -0.735891
C -2.099061 -2.311812 -0.780256
C -1.893370 -2.389691 -0.708798
C -1.567821 -2.578649 -0.661279
C -1.326126 -2.713298 -0.515486
C -1.120508 -2.867022 -0.232248
C -0.933270 -3.045419 -0.062132
C -0.859764 -3.181840 0.005500
C -0.814250 -3.292170 0.015794
C -0.874505 -3.205644 -0.286266
C -1.039080 -2.870334 -0.645832
C -1.149203 -2.500893 -1.010900
C -1.282734 -2.148258 -1.436993
C -1.414323 -1.883200 -1.800091
C -1.542895 -1.728420 -2.064933
C -1.677736 -1.308526 -2.403395
C -1.732894 -0.944529 -2.516714
C -1.690542 -0.841850 -2.556137
C -1.794888 -0.713068 -2.691293
C -1.863033 -0.467624 -2.794607
C -1.939948 -0.292489 -2.948680
C -1.855979 -0.249525 -2.929277
C -1.758032 -0.616819 -2.753448
C -1.560186 -1.145833 -2.443328
C -1.399623 -1.555391 -2.165108
C -1.171690 -2.015580 -2.097825
C -1.010285 -2.454125 -2.046026
C -0.887248 -2.492425 -1.915711
C -0.949379 -2.385268 -1.880633
C -0.915374 -2.194158 -1.839615
C -0.948895 -2.094243 -1.880995
C -0.892490 -2.146703 -1.865155
C -0.845226 -2.183952 -1.656466
C -0.962070 -1.585575 -1.633112
C -1.174260 -1.097127 -1.579171
C -1.308032 -0.448986 -1.339775
C -1.497925 0.312997 -1.164804
C -1.665428 1.292972 -1.130864
C -1.925482 2.347109 -1.241445
C -2.167673 3.255794 -1.395124
C -2.090684 3.283813 -1.443304
C -1.762147 2.791806 -1.676994
C -1.406691 2.055094 -2.057453
C -1.091257 1.488949 -2.422736
C -0.830663 0.977514 -2.778919
C -0.493439 0.435232 -2.915987
C -0.180397 0.153050 -2.994448
C 0.013997 0.116186 -3.089151
C 0.075497 0.510501 -3.064892
C 0.149994 0.795163 -3.127222
C 0.212157 0.910759 -3.211272
C 0.353598 0.917291 -3.224884
C 0.443528 0.954028 -3.312958
C 0.553473 0.812915 -3.349119
C 0.700081 0.242912 -3.141370
C 0.827044 -0.324947 -2.985127
C 0.878263 -0.516936 -2.927706
C 1.002180 -0.819406 -2.819069
C 1.056138 -1.190396 -2.556923
C 1.014623 -1.345732 -2.345164
C 0.998586 -1.435149 -2.159257
C 1.041921 -1.288222 -2.127016
C 1.048356 -1.126387 -2.165337
C 1.110069 -1.290995 -1.857705
C 1.156495 -1.336237 -1.831705
C 1.251422 -1.309987 -2.005032
C 1.423227 -1.397911 -2.079538
C 1.590473 -1.544289 -2.089949
C 1.611801 -1.702822 -1.938422
C 1.746714 -1.854908 -1.717647
C 1.804234 -1.711950 -1.831410
C 1.924566 -1.575357 -1.898896
C 1.889995 -1.309300 -1.754863
C 1.922412 -1.302595 -1.686532
C 2.008750 -1.138358 -1.765121
C 2.082761 -0.854812 -1.958679
C 2.135733 -0.870345 -1.892218
C 2.177181 -0.836688 -1.899041
C 2.134917 -1.166523 -1.518861
C 2.207613 -1.518498 -1.306490
C 2.243558 -1.746422 -1.057270
C 2.157227 -2.052735 -0.720860
C 2.263101 -2.190155 -0.540306
C 2.253985 -1.894934 -0.657827
C 2.333533 -1.810790 -0.712976
C 2.299585 -1.318711 -0.944474
C 2.329917 -1.133869 -0.975697
C 2.383503 -0.962458 -1.018484
C 2.420838 -0.684817 -1.117519
C 2.336515 -0.539651 -1.134719
C 2.273902 -0.642462 -0.984670
C 2.206222 -0.673802 -0.800111
C 2.366088 -0.840562 -0.603040
C 2.410922 -0.832509 -0.566089
C 2.431222 -0.816773 -0.526964
C 2.475532 -0.651903 -0.582545
C 2.433566 -0.400399 -0.724136
C 2.563343 -0.102362 -0.934123
C 2.774181 -0.040226 -0.983032
C 2.784344 0.231639 -1.116971
C 2.888701 0.618647 -1.273492
C 2.822401 1.103659 -1.622375
C 2.710975 1.214498 -1.599544
C 2.781737 1.282074 -1.492953
C 2.800020 1.245972 -1.364847
C 2.668095 1.422297 -1.404983
C 2.627652 1.335382 -1.233240
C 2.685767 1.022165 -1.000092
C 2.838162 0.778022 -0.631379
C 3.021614 0.626395 -0.472323
C 3.021850 0.476907 -0.364618
C 2.906996 0.690675 -0.423957
C 2.816495 0.835558 -0.367992
C 2.593037 1.145636 -0.637725
C 2.227286 1.626682 -0.923687
C 1.904735 2.038963 -1.201010
C 1.665606 2.311730 -1.380984
C 1.457795 2.420621 -1.428968
C 1.125669 2.524341 -1.472029
C 0.938745 2.466442 -1.504730
C 0.950943 2.320033 -1.270884
C 0.799186 2.406688 -1.242491
C 0.740865 2.372049 -1.082541
C 0.583404 2.581531 -1.091901
C 0.572829 2.832687 -1.097388
C 0.801178 2.713986 -0.964003
C 1.074074 2.564794 -0.764188
C 1.152758 2.570693 -0.702656
C 1.430204 2.392417 -0.488022
C 1.651518 2.404281 -0.404995
C 1.706026 2.454844 -0.249791
C 1.633220 2.509909 -0.154590
C 1.451190 2.623791 -0.077828
C 1.306174 2.801735 -0.057522
C 1.271321 2.754722 0.047305
C 1.292343 2.328857 0.245085
C 1.269736 1.708340 0.444237
C 1.452639 1.067412 0.649285
C 1.594321 0.628790 0.787932
C 1.805474 0.072922 1.004872
C 1.979405 -0.281133 1.157701
C 2.035000 -0.498539 1.298200
C 2.001891 -0.524381 1.308825
C 1.932809 -0.504597 1.362824
C 1.857852 -0.746142 1.514629
C 1.870908 -1.147019 1.674985
C 1.857707 -1.390624 1.752471
C 1.744983 -1.719961 1.867606
C 1.712485 -2.028242 1.920920
C 1.610131 -2.195004 1.995712
C 1.599582 -2.250565 2.043640
C 1.693955 -2.191988 2.024290
C 1.741176 -2.090907 2.072575
C 1.803042 -1.807017 2.029073
C 1.830639 -1.356647 1.902672
C 1.961475 -0.974221 1.908773
C 2.135614 -0.556559 1.887947
C 2.239470 -0.047228 1.804493
C 2.336483 0.434782 1.717980
C 2.432592 0.857906 1.615737
C 2.482972 1.078527 1.649866
C 2.500086 1.255474 1.657515
C 2.419424 1.493703 1.563499
C 2.295587 1.542294 1.477671
C 2.232076 1.531561 1.472802
C 2.029992 1.473530 1.434497
C 1.944054 1.587050 1.471174
C 1.668004 1.901211 1.334934
C 1.342725 2.156627 1.266974
C 1.123682 2.330123 1.315399
C 1.067832 2.539806 1.323741
C 0.929069 2.702319 1.285954
C 0.783962 3.001758 1.276741
C 0.652931 3.076258 1.274716
C 0.724238 2.987756 1.409693
C 0.833639 2.827002 1.532279
C 0.868517 2.688482 1.562235
C 0.820634 2.610214 1.724944
C 0.660053 2.651872 1.844573
C 0.718396 2.533535 1.986214
C 0.787656 2.295217 2.084197
C 0.835078 2.121431 2.233773
C 0.812912 1.939090 2.371046
C 0.856814 1.707909 2.530562
C 0.927031 1.487340 2.590833
C 1.068209 1.220496 2.663214
C 1.132175 0.955006 2.790640
C 1.097957 0.919592 2.823189
C 1.054257 0.863640 2.807246
C 0.920461 0.995131 2.719209
C 0.776186 1.148229 2.625245
C 0.588967 1.364545 2.581688
C 0.610710 1.147161 2.650530
C 0.528997 0.890620 2.617571
C 0.371112 0.601054 2.742996
C 0.325974 0.331074 2.705870
C 0.418289 -0.143747 2.822180
C 0.461382 -0.579872 2.889375
C 0.534170 -0.883150 2.920487
C 0.426927 -0.796101 2.877520
C 0.326827 -0.545877 2.941418
C 0.359676 -0.470748 2.863709
C 0.350180 -0.484176 2.978641
C 0.314230 -0.400694 2.967388
C -0.072982 -0.127671 3.051028
C -0.165631 -0.077325 3.134698
C -0.194896 -0.170645 3.206430
C -0.201368 -0.318204 3.113860
C -0.278064 -0.215219 3.145576
C -0.430371 0.082281 3.085560
C -0.590081 0.287237 3.052491
C -0.368932 0.316814 3.023243
C -0.492607 0.361954 3.011586
C -0.553347 0.390792 2.907222
C -0.607010 0.495576 2.869395
C -0.665572 0.616982 2.800400
C -0.648921 0.515386 2.711203
C -0.623524 0.585111 2.724369
C -0.710225 0.683349 2.645612
C -0.795465 0.873837 2.556974
C -0.989130 1.205606 2.540734
C -1.135523 1.485665 2.465331
C -1.193755 1.657387 2.387329
C -1.340798 1.871160 2.362406
C -1.360622 1.835401 2.295532
C -1.314247 1.650374 2.289058
C -1.258956 1.345296 2.336707
C -1.136356 0.918092 2.380616
C -1.086098 0.347408 2.531255
C -1.097282 -0.276800 2.670477
C -1.133665 -0.745028 2.826373
C -1.254682 -1.093392 2.957894
C -1.368361 -1.367666 3.036172
C -1.585967 -1.574771 3.047312
C -1.962098 -1.601601 3.061298
C -2.269542 -1.476942 3.022207
C -2.573816 -1.180771 2.968810
C -2.872271 -0.818234 2.817113
C -3.044325 -0.737388 2.772165
C -3.287428 -0.567626 2.704435
C -3.438702 -0.272927 2.631175
