229
chr13 3D structure from Hi-C (resolution 500000bp)
C 4.943940 -0.428566 2.058953
C 5.006038 -0.611293 1.718623
C 5.032659 -0.798844 1.378972
C 5.026156 -0.973597 1.028673
C 5.055157 -1.255598 0.344920
C 5.046088 -1.414903 -0.345969
C 5.019962 -1.407314 -0.909235
C 4.994225 -1.234768 -1.292961
C 4.742210 -0.521568 -1.080787
C 4.419221 0.301531 -0.711190
C 4.057465 1.158143 -0.143383
C 3.723551 1.934299 0.609604
C 3.467240 2.528550 1.458914
C 3.269041 2.924017 2.272209
C 3.118151 3.151999 2.957444
C 3.251060 2.871842 3.054346
C 3.522095 2.505663 2.983415
C 3.901415 2.090911 2.700773
C 4.296585 1.696069 2.217910
C 4.611810 1.388580 1.578994
C 4.756229 1.145558 0.665779
C 4.764640 0.956061 -0.306024
C 4.646307 0.864774 -1.245061
C 4.453500 0.908358 -2.057119
C 4.256692 1.071724 -2.662231
C 4.107068 1.285670 -3.027501
C 4.016034 1.503989 -3.147270
C 4.041802 1.757744 -2.851808
C 4.129076 2.043902 -2.313184
C 4.237234 2.319694 -1.631277
C 4.299540 2.589631 -0.982913
C 4.287934 2.845207 -0.503305
C 4.213539 3.078743 -0.274467
C 4.053371 3.298394 -0.296424
C 3.711464 3.511274 -0.535414
C 3.207864 3.624727 -0.785789
C 2.615452 3.673865 -0.856808
C 2.010526 3.675053 -1.010169
C 1.504124 3.731161 -0.930574
C 0.962212 3.723583 -0.781256
C 0.490167 3.680545 -0.595532
C 0.212265 3.633563 -0.341581
C 0.146738 3.675630 -0.279125
C 0.093076 3.616197 -0.355444
C 0.028730 3.569348 -0.193856
C -0.115094 3.419696 -0.119061
C -0.285966 3.394062 0.075581
C -0.469366 3.398569 0.220629
C -0.583010 3.473654 0.521116
C -0.791224 3.363988 0.651324
C -0.918688 3.474405 0.660194
C -1.007780 3.458938 0.659986
C -1.071059 3.479201 0.495212
C -1.124379 3.470706 0.336284
C -1.123095 3.461227 0.119354
C -1.071767 3.315122 -0.269764
C -1.205660 3.340667 -0.220925
C -1.343139 3.242941 -0.209967
C -1.388886 3.265553 -0.403432
C -1.333778 3.148278 -0.592716
C -1.238263 3.003431 -0.916656
C -1.277556 2.869515 -1.026798
C -1.480304 2.910883 -1.182170
C -1.303787 2.956725 -1.544775
C -1.200518 2.946575 -1.806480
C -1.053500 2.779864 -2.122973
C -0.912069 2.804098 -2.387836
C -0.840094 2.770620 -2.626674
C -0.708603 2.681493 -2.739055
C -0.631393 2.449778 -2.759813
C -0.782032 2.224507 -2.744746
C -0.721744 1.941879 -2.741853
C -0.619498 1.838069 -2.804082
C -0.612880 1.695142 -2.828929
C -0.786794 1.591627 -2.677630
C -0.930318 1.505473 -2.440267
C -1.152847 1.535060 -2.343104
C -1.303752 1.577703 -2.154869
C -1.543387 1.738662 -1.993272
C -2.006491 1.890494 -1.376986
C -2.399520 2.024736 -0.670252
C -2.625155 2.176203 -0.210509
C -2.825869 2.301404 -0.059243
C -2.853190 2.309459 0.296098
C -2.903822 2.203156 0.370657
C -3.004541 2.175860 0.485912
C -2.944387 2.055795 0.501387
C -3.059470 1.952740 0.350451
C -3.052028 1.805339 0.333841
C -3.126171 1.687291 0.320180
C -3.226190 1.520922 0.252534
C -3.358613 1.365951 0.149573
C -3.405331 1.202135 -0.133192
C -3.493632 1.135093 -0.391727
C -3.458135 0.938815 -0.558144
C -3.552770 0.879708 -0.508493
C -3.656844 0.852702 -0.421015
C -3.731754 0.817135 -0.297616
C -3.750493 0.929976 -0.218698
C -3.822701 0.907670 0.030440
C -3.873517 0.777873 0.095629
C -3.951928 0.672456 -0.108067
C -3.764800 0.491943 -0.432513
C -3.484597 0.279606 -0.867861
C -3.175771 0.197552 -1.510997
C -2.861540 -0.019272 -1.948616
C -2.566615 -0.129354 -2.388431
C -2.231012 -0.314969 -2.741033
C -1.921596 -0.512050 -2.949879
C -1.673516 -0.635451 -3.291816
C -1.421320 -0.610362 -3.588637
C -1.340520 -0.777816 -3.595737
C -1.133676 -0.856273 -3.573299
C -0.882548 -0.919778 -3.588411
C -0.739802 -0.829063 -3.673109
C -0.599565 -0.668823 -3.596424
C -0.628421 -0.566555 -3.422211
C -0.756442 -0.630892 -3.009099
C -0.696733 -0.565975 -2.805440
C -0.613807 -0.534237 -2.639075
C -0.565089 -0.661180 -2.486395
C -0.563035 -0.754441 -2.227781
C -0.347840 -0.926427 -2.295074
C 0.027119 -1.121335 -2.494859
C 0.511805 -1.268812 -2.756784
C 0.849196 -1.273562 -3.027191
C 0.945643 -1.444296 -3.112741
C 1.133858 -1.476586 -3.217329
C 1.433359 -1.553010 -3.405046
C 1.616820 -1.607259 -3.250882
C 1.463351 -1.714915 -3.015010
C 1.355162 -1.855576 -2.915663
C 1.401536 -2.151533 -2.720687
C 1.353271 -2.322320 -2.725411
C 1.127739 -2.500058 -2.632123
C 0.791812 -2.737956 -2.592860
C 0.376569 -3.001625 -2.580626
C 0.161877 -3.293173 -2.564350
C -0.299217 -3.424396 -2.384643
C -0.785470 -3.434365 -2.170985
C -1.260487 -3.412358 -1.971858
C -1.556319 -3.377464 -1.796868
C -1.899996 -3.290464 -1.522014
C -2.162380 -3.083174 -1.267079
C -2.453853 -2.789701 -1.097338
C -2.585063 -2.652448 -0.885551
C -2.653982 -2.599778 -0.814915
C -2.662985 -2.522130 -0.530712
C -2.751878 -2.370490 -0.257064
C -2.560810 -2.386215 -0.231061
C -2.511771 -2.324351 -0.128016
C -2.538357 -2.209811 0.192656
C -2.448280 -2.117318 0.298450
C -2.384423 -2.084502 0.463290
C -2.323084 -2.166797 0.505494
C -2.254279 -2.248144 0.591374
C -2.315515 -2.357069 0.835340
C -2.229448 -2.369012 0.882389
C -1.930506 -2.696662 0.836277
C -1.734484 -3.037314 0.858754
C -1.695902 -3.260699 0.862060
C -1.438537 -3.367389 0.826077
C -1.054627 -3.577561 0.568980
C -0.749692 -3.643411 0.358666
C -0.511793 -3.964663 0.337744
C -0.251498 -4.016681 0.204426
C -0.102663 -3.866281 0.126868
C 0.184541 -3.788978 0.051955
C 0.388705 -3.649886 -0.009359
C 0.568713 -3.546334 0.040384
C 0.815229 -3.441151 0.114214
C 1.154091 -3.328424 0.086983
C 1.410043 -3.115057 0.262250
C 1.655256 -3.055530 0.250700
C 1.909061 -2.978729 0.412521
C 2.121256 -3.027698 0.612202
C 2.166652 -3.091071 0.822030
C 2.036079 -2.954221 0.892456
C 1.818802 -2.909872 1.073600
C 1.547109 -2.955061 1.139569
C 1.377619 -2.731812 1.337070
C 1.183641 -2.637613 1.418679
C 1.121472 -2.531109 1.505155
C 1.082230 -2.316666 1.539006
C 1.312175 -2.215092 1.740225
C 1.391153 -1.936067 1.846361
C 1.222237 -1.734607 1.834949
C 0.975469 -1.589406 1.861262
C 0.606167 -1.539672 1.960095
C 0.297027 -1.413439 1.891440
C -0.001848 -1.485178 2.066524
C -0.653825 -1.449979 2.160063
C -1.137852 -1.432862 2.217999
C -1.329492 -1.244279 2.365226
C -1.424842 -1.214941 2.498240
C -1.524949 -0.965776 2.601990
C -1.761081 -0.787476 2.911411
C -1.909991 -0.553607 3.015959
C -1.802666 -0.555110 3.050982
C -1.652813 -0.627158 3.135402
C -1.534074 -0.846181 3.204515
C -1.368566 -1.074868 3.279458
C -1.183749 -1.208767 3.223376
C -0.985994 -1.270430 3.162639
C -0.608424 -1.461930 3.203948
C -0.258927 -1.626790 3.306721
C -0.102287 -1.728050 3.363955
C 0.125803 -1.782416 3.404630
C 0.282831 -1.823993 3.483222
C 0.416231 -1.856000 3.668815
C 0.654004 -1.952549 3.786990
C 0.637710 -1.893411 3.676538
C 0.682784 -1.674565 3.634130
C 0.777005 -1.451806 3.684433
C 0.769426 -1.244994 3.658583
C 0.741899 -0.925448 3.540713
C 0.767055 -0.752578 3.407207
C 0.555481 -0.495772 3.378809
C 0.248612 -0.136276 3.433810
C -0.005436 0.127945 3.389086
C -0.008592 0.386265 3.401487
C 0.173799 0.696214 3.592326
C -0.022828 0.879562 3.657033
C -0.198305 1.138564 3.816311
C -0.144337 1.460016 3.888583
C -0.014926 1.726798 4.003729
C 0.057924 1.853855 4.133586
C -0.095697 1.997308 4.153826
C -0.538204 2.124807 4.040402
