229
chr13 3D structure from Hi-C (resolution 500000bp)
C -2.288803 -1.567234 -4.319776
C -2.028849 -1.395805 -4.460782
C -1.723551 -1.001699 -4.578978
C -1.429033 -0.643127 -4.653632
C -0.825654 -0.215428 -4.810314
C -0.186889 0.176870 -4.929787
C 0.400149 0.473425 -4.997585
C 0.896979 0.611189 -5.021053
C 1.258210 0.610748 -5.018597
C 0.653660 0.728807 -4.620673
C -0.074529 0.729964 -4.178742
C -0.933067 0.612641 -3.752911
C -1.872389 0.436501 -3.374491
C -2.834591 0.270405 -3.034549
C -3.743740 0.118862 -2.720210
C -4.506202 -0.113776 -2.417521
C -4.314164 -0.796320 -2.525797
C -3.958824 -1.490210 -2.732611
C -3.464525 -2.093143 -2.979057
C -2.870082 -2.577406 -3.213972
C -2.188668 -2.956065 -3.424000
C -1.426542 -3.203626 -3.618864
C -0.670943 -3.270600 -3.822478
C -0.056065 -3.167766 -4.037316
C 0.343880 -2.934776 -4.248035
C 0.553656 -2.566970 -4.443458
C 0.486654 -2.025385 -4.600946
C 0.195158 -1.439257 -4.714868
C -0.328886 -0.902293 -4.769901
C -1.019186 -0.444494 -4.722106
C -1.718080 0.005176 -4.578707
C -2.291165 0.488299 -4.392002
C -2.703473 0.919456 -4.223522
C -2.792093 1.242635 -4.096093
C -2.643004 1.586507 -3.969185
C -2.216090 1.904479 -3.691704
C -1.931777 2.229469 -3.232541
C -1.663757 2.529270 -2.732039
C -1.498642 2.764670 -2.341968
C -1.380757 2.934935 -1.852644
C -1.184011 2.927719 -1.451509
C -1.140960 2.888612 -1.164343
C -1.347758 2.875389 -1.098621
C -1.285044 2.924595 -1.182635
C -1.230911 2.957233 -1.151705
C -1.150806 2.938388 -0.996066
C -1.075929 3.018755 -0.999129
C -1.168582 3.132189 -0.900765
C -1.179153 3.244296 -0.882322
C -1.089783 3.267227 -0.669599
C -0.974474 3.327851 -0.630685
C -0.919816 3.348368 -0.627541
C -0.770520 3.428480 -0.712325
C -0.686898 3.441569 -0.554866
C -0.631337 3.452383 -0.469883
C -0.536451 3.356989 -0.314481
C -0.489249 3.480785 -0.225808
C -0.476585 3.521849 0.006376
C -0.283439 3.544423 0.093157
C -0.086281 3.455771 0.142756
C 0.176813 3.344748 -0.055871
C 0.407858 3.303732 -0.038215
C 0.510339 3.500711 0.044360
C 0.778600 3.521928 0.013434
C 0.925687 3.430658 -0.015072
C 1.148213 3.310887 -0.340715
C 1.321187 3.319238 -0.572413
C 1.490642 3.335876 -0.627565
C 1.627788 3.252887 -0.724438
C 1.708360 2.936470 -0.823247
C 1.683144 2.771918 -0.861903
C 1.782570 2.591893 -0.937032
C 1.930956 2.589991 -0.837263
C 2.104935 2.529905 -0.673588
C 2.085110 2.451743 -0.441409
C 1.907995 2.397857 -0.260976
C 1.598668 2.556070 0.034896
C 1.206389 2.558100 0.324388
C 0.829250 2.696111 0.627518
C 0.167715 2.764847 1.073617
C -0.516868 2.815087 1.485116
C -0.991285 2.828458 1.797605
C -1.171400 2.832637 2.017546
C -1.156642 2.742102 2.168714
C -0.954694 2.783595 2.239494
C -0.840749 2.743998 2.255272
C -0.626005 2.694308 2.278347
C -0.444614 2.646641 2.358329
C -0.321872 2.573128 2.389586
C -0.250761 2.624008 2.482226
C -0.081930 2.611680 2.546457
C 0.215794 2.467040 2.586225
C 0.530955 2.440198 2.637536
C 0.693917 2.398683 2.680318
C 0.918214 2.314090 2.589902
C 1.143278 2.319425 2.653894
C 1.337373 2.378280 2.639433
C 1.447379 2.299167 2.706125
C 1.324329 2.371452 2.706921
C 1.122493 2.314172 2.859770
C 1.066078 2.211907 2.903188
C 1.284693 2.265514 2.894914
C 1.331981 2.138110 2.588602
C 1.397023 1.847170 2.031112
C 1.572584 1.672410 1.282999
C 1.675445 1.350393 0.648026
C 1.893232 1.085849 -0.150405
C 2.116307 0.861503 -0.727782
C 2.168410 0.557818 -1.326277
C 2.408421 0.446296 -1.776329
C 2.688549 0.437561 -1.876129
C 2.822533 0.434311 -1.778935
C 2.965535 0.474730 -1.637251
C 3.137009 0.554122 -1.471594
C 3.269041 0.613265 -1.367760
C 3.274625 0.662301 -1.148699
C 3.227069 0.695576 -0.747988
C 3.051051 0.734259 -0.393272
C 2.907029 0.647820 -0.188748
C 2.923972 0.636580 0.027432
C 2.833657 0.490092 0.212012
C 2.719453 0.390296 0.355815
C 2.835110 0.244498 0.456849
C 2.972941 -0.006917 0.101051
C 3.081397 -0.388492 -0.250848
C 3.203367 -0.667636 -0.597554
C 3.164224 -0.937709 -0.745380
C 3.284326 -1.047868 -0.967963
C 3.442873 -1.222305 -1.170503
C 3.449194 -1.443153 -1.298976
C 3.365584 -1.487625 -1.027038
C 3.465737 -1.444335 -0.800950
C 3.444451 -1.565516 -0.674062
C 3.503577 -1.679490 -0.513192
C 3.468878 -1.643631 -0.148400
C 3.511255 -1.657898 0.163487
C 3.503866 -1.520609 0.598044
C 3.666084 -1.503191 0.860670
C 3.563828 -1.592454 1.166444
C 3.509236 -1.372380 1.684043
C 3.344997 -1.275635 2.108660
C 3.214249 -1.327233 2.300336
C 2.946459 -1.293694 2.596277
C 2.640843 -1.280833 2.651788
C 2.252084 -1.274725 2.875575
C 2.060168 -1.081423 3.084903
C 1.912088 -1.162521 3.133852
C 1.686064 -1.007024 3.124135
C 1.453081 -0.951879 3.217512
C 1.456891 -0.915197 3.053372
C 1.317810 -0.963826 3.019625
C 1.113813 -0.865748 3.061954
C 0.904311 -0.913837 2.979132
C 0.820010 -0.813371 2.922366
C 0.808092 -1.027823 2.878821
C 0.784899 -1.081762 2.871879
C 0.639357 -1.285277 2.932891
C 0.704573 -1.343771 2.804492
C 0.888284 -1.691348 2.526386
C 1.046131 -2.049898 2.370714
C 1.141404 -2.415658 2.215873
C 1.290438 -2.606508 1.902214
C 1.457626 -2.906476 1.519042
C 1.580950 -3.051503 1.178635
C 1.634750 -3.370307 0.911472
C 1.699395 -3.488635 0.524597
C 1.652506 -3.341533 0.304271
C 1.557132 -3.282685 0.133140
C 1.427766 -3.163263 -0.027744
C 1.260095 -3.119745 -0.202705
C 1.046942 -3.134780 -0.350663
C 0.840577 -3.153557 -0.449556
C 0.491158 -3.121548 -0.464939
C 0.261290 -3.240398 -0.558451
C 0.048406 -3.273499 -0.743463
C -0.113387 -3.460635 -0.789942
C -0.247533 -3.573372 -0.709179
C -0.291905 -3.459278 -0.552114
C -0.319322 -3.431043 -0.341454
C -0.332387 -3.437970 0.024687
C -0.319557 -3.424164 0.310800
C -0.346493 -3.374519 0.610041
C -0.478407 -3.349288 0.841325
C -0.596437 -3.253985 1.041071
C -0.820399 -3.408101 1.018974
C -0.934244 -3.324519 1.224077
C -0.995197 -3.028695 1.231053
C -1.164548 -2.670635 1.365478
C -1.321389 -2.372684 1.523962
C -1.251334 -2.064154 1.583394
C -1.261763 -1.945627 1.730382
C -1.232357 -1.589585 2.146565
C -1.366068 -1.313658 2.276954
C -1.525530 -1.208300 2.392404
C -1.607982 -1.125257 2.480429
C -1.674362 -1.001557 2.686941
C -1.878117 -0.870683 2.919508
C -1.990830 -0.604481 2.986681
C -1.996136 -0.684649 2.908394
C -2.029404 -0.829740 2.818794
C -1.985621 -1.015463 2.768787
C -1.972371 -1.354426 2.661416
C -2.000643 -1.448230 2.489410
C -2.028882 -1.604997 2.258671
C -2.201172 -1.919552 2.047778
C -2.475802 -2.003270 1.755545
C -2.594509 -2.026835 1.548979
C -2.772847 -2.054024 1.353011
C -2.915520 -2.092598 1.085690
C -2.940245 -2.359381 0.921744
C -3.096698 -2.416544 0.900287
C -2.984413 -2.361900 0.738407
C -2.845502 -2.438802 0.610410
C -2.932436 -2.265991 0.634011
C -2.801638 -2.169352 0.599001
C -2.729715 -1.898499 0.633280
C -2.736971 -1.618258 0.669807
C -2.708212 -1.345129 0.723760
C -2.811993 -0.978596 0.962411
C -2.853832 -0.564071 1.150357
C -2.917034 -0.467057 0.966163
C -3.304977 -0.243248 0.857194
C -3.429082 -0.046041 0.964608
C -3.597215 0.218297 1.054048
C -3.778715 0.376693 0.943973
C -3.987937 0.580375 0.801204
C -4.181997 0.679151 0.753744
C -4.239715 0.899284 0.957711
C -4.059174 1.073499 1.244995
