277
chr9 3D structure from Hi-C (resolution 500000bp)
C -3.346311 -0.112403 -0.089909
C -3.364660 -0.292045 0.023262
C -3.285594 -0.425215 0.045175
C -3.331611 -0.469234 0.047019
C -3.244010 -0.700481 -0.035166
C -3.385482 -0.738938 -0.006414
C -3.489657 -0.782441 0.193610
C -3.582207 -0.817922 0.267177
C -3.686158 -0.680758 0.343230
C -3.852595 -0.575074 0.388327
C -3.877658 -0.522596 0.458903
C -3.893304 -0.586530 0.371180
C -3.942063 -0.743507 0.212898
C -3.909528 -0.919067 -0.145133
C -3.790883 -1.050741 -0.506498
C -3.696675 -1.338772 -0.967473
C -3.587627 -1.566899 -1.329559
C -3.489191 -1.864935 -1.687323
C -3.284311 -2.025804 -1.980076
C -3.066135 -2.134579 -2.196871
C -2.907060 -2.284656 -2.359982
C -2.810301 -2.434440 -2.451095
C -2.729670 -2.483569 -2.376354
C -2.647534 -2.578547 -2.379880
C -2.600377 -2.622351 -2.358401
C -2.707494 -2.605704 -2.134596
C -2.754577 -2.566159 -1.832499
C -2.778085 -2.462910 -1.500546
C -2.816897 -2.383409 -1.264743
C -2.673212 -2.312682 -1.223213
C -2.623002 -2.254843 -1.139539
C -2.525878 -2.299245 -1.179572
C -2.372199 -2.345374 -1.266976
C -2.417699 -2.422769 -1.242492
C -2.348480 -2.517819 -1.265599
C -2.353453 -2.511310 -1.012641
C -2.501034 -2.641183 -0.782540
C -2.575685 -2.680780 -0.437169
C -2.781178 -2.496255 0.034095
C -2.966307 -2.437369 0.343890
C -2.912008 -2.422892 0.418923
C -2.945457 -2.503101 0.431492
C -2.795784 -2.762960 0.097022
C -2.548075 -2.861386 -0.249733
C -2.298952 -3.040982 -0.591509
C -1.977830 -3.312468 -1.059751
C -1.677193 -3.542466 -1.382227
C -1.429529 -3.668307 -1.680013
C -1.225703 -3.728052 -1.868733
C -1.132205 -3.725763 -1.896897
C -1.225726 -3.653926 -1.582974
C -1.363720 -3.485005 -1.339315
C -1.440449 -3.402259 -1.067107
C -1.569539 -3.410129 -0.929627
C -1.726875 -3.443409 -0.729684
C -1.790665 -3.506567 -0.598828
C -1.831338 -3.546693 -0.394567
C -1.823081 -3.734536 -0.466787
C -1.853588 -3.972234 -0.542737
C -1.982925 -4.038758 -0.426386
C -2.013423 -4.040385 -0.283440
C -2.038576 -3.916739 -0.069383
C -2.098058 -3.683345 0.200201
C -2.278917 -3.201624 0.493396
C -2.511986 -2.617584 0.876992
C -2.608232 -1.919765 1.206428
C -2.636083 -1.323457 1.360752
C -2.762200 -0.701085 1.599960
C -2.878314 -0.125345 1.719136
C -3.001896 0.300315 1.876506
C -2.965065 0.354070 1.903035
C -2.884492 0.373837 1.910938
C -2.835502 0.133810 1.857092
C -2.772873 -0.107661 1.803468
C -2.645504 -0.222355 1.214896
C -2.474521 -0.506277 0.344230
C -2.325088 -0.552638 -0.729788
C -2.085861 -0.526911 -1.900953
C -1.459833 -0.978240 -2.738770
C -1.168103 -1.091303 -3.653912
C -0.849386 -1.182821 -4.673607
C -0.558810 -1.543001 -4.854766
C -0.054478 -1.850621 -4.853645
C 0.499143 -2.226291 -4.836032
C 0.642392 -2.004781 -4.837848
C 0.432789 -1.230078 -5.174825
C 0.583617 -0.567538 -5.302449
C 0.788790 0.146731 -5.234553
C 1.101596 1.083539 -5.397544
C 1.252337 2.124551 -5.342127
C 1.339186 3.191483 -5.039815
C 1.588489 3.771196 -4.566307
C 1.662640 4.250417 -4.177889
C 1.536049 4.503077 -3.993885
C 1.209426 4.612566 -3.922218
C 0.619504 4.647890 -3.915770
C -0.152420 4.658992 -3.931853
C -0.899179 4.643063 -3.962474
C -1.461019 4.617803 -3.980832
C -1.701245 4.609382 -3.975191
C -1.559838 4.667225 -3.911135
C -1.154167 4.778559 -3.772276
C -0.338175 4.883439 -3.486790
C 0.663971 4.895046 -3.237170
C 1.746251 4.705196 -3.108718
C 2.790954 4.350997 -3.085672
C 3.652975 3.932322 -3.128100
C 4.178775 3.604466 -3.145715
C 3.395514 3.537435 -3.036501
C 2.254460 3.519773 -2.985764
C 0.938492 3.523634 -2.897066
C -0.509362 3.556011 -2.821693
C -1.969738 3.612398 -2.820971
C -3.287921 3.666546 -2.883825
C -4.291952 3.656903 -3.048334
C -3.986336 3.380571 -3.428891
C -3.013704 3.067957 -3.858424
C -1.907244 2.731128 -4.363686
C -0.850754 2.335769 -4.897738
C 0.078586 1.954413 -5.356036
C 0.887680 1.531675 -5.557819
C 0.826920 1.417482 -5.571702
C 0.624100 1.252167 -5.262845
C 0.862999 0.691338 -5.157164
C 0.987987 0.041533 -4.902743
C 1.137760 -0.544992 -4.565605
C 1.119875 -0.842328 -4.527941
C 1.288762 -1.018661 -4.491020
C 2.222243 -1.366906 -4.462366
C 3.211914 -1.556894 -4.645677
C 3.277156 -1.296064 -4.554902
C 3.471957 -0.900722 -4.556557
C 3.805604 -0.451236 -4.534258
C 4.180731 -0.520194 -3.918803
C 3.783478 -0.534617 -2.892311
C 3.359022 -0.807201 -1.851856
C 2.917926 -1.152590 -1.003757
C 2.269877 -1.604240 -0.105197
C 1.714403 -2.059689 0.549511
C 1.131121 -2.548084 1.183884
C 0.643590 -2.627617 1.628502
C 0.791941 -2.807132 1.646027
C 0.910255 -2.853906 1.581325
C 1.014071 -2.985403 1.645897
C 1.284876 -3.066931 1.383299
C 1.400468 -3.092251 1.229803
C 1.421041 -2.986044 1.244034
C 1.547334 -2.948857 1.119979
C 1.696731 -2.929898 0.839036
C 1.678501 -2.780424 0.699466
C 1.666137 -2.571725 0.683009
C 1.520026 -2.294249 0.831531
C 1.482742 -2.126098 1.019394
C 1.491271 -2.017824 0.960563
C 1.633602 -2.086047 0.962202
C 1.770338 -2.115996 1.034922
C 1.945160 -2.158977 1.045625
C 2.126208 -2.356428 0.890190
C 2.400857 -2.570975 0.630638
C 2.596390 -2.696260 0.431654
C 2.766348 -2.819249 0.321361
C 2.845365 -2.827337 0.254881
C 2.893584 -2.824888 0.224766
C 2.884178 -2.873362 0.290700
C 2.617465 -2.657493 0.599197
C 2.405666 -2.445910 1.031707
C 2.065773 -2.176271 1.438734
C 1.818287 -2.020844 1.824115
C 1.409903 -1.792417 2.253723
C 1.011087 -1.533886 2.643246
C 0.895569 -1.406075 2.884647
C 0.877845 -1.352391 2.976415
C 0.826786 -1.311938 3.062982
C 0.941746 -1.374262 3.140656
C 0.937606 -1.367907 3.189854
C 0.932502 -1.290250 3.141914
C 0.847764 -1.172804 3.191955
C 0.640565 -1.022191 3.308536
C 0.517754 -0.874230 3.351957
C 0.342377 -0.713364 3.399807
C 0.202288 -0.525663 3.474178
C -0.090412 -0.205417 3.535179
C -0.228162 -0.007658 3.626741
C -0.260933 0.155892 3.630176
C -0.266590 0.320765 3.587323
C -0.266538 0.494190 3.690737
C -0.367021 0.672277 3.674522
C -0.496882 0.825546 3.695047
C -0.367966 0.861456 3.709160
C -0.205005 0.874919 3.717230
C -0.009544 0.795670 3.804216
C 0.029054 0.753177 3.858391
C 0.011867 0.751510 3.696418
C 0.180520 0.709172 3.611508
C 0.355772 0.601642 3.489811
C 0.441713 0.513359 3.376753
C 0.538805 0.375476 3.337654
C 0.613218 0.255424 3.143575
C 0.981903 -0.002169 2.889482
C 1.695659 -0.158645 2.652095
C 2.071099 -0.456746 2.444029
C 2.473123 -0.647074 2.080996
C 2.931042 -0.917911 1.749703
C 3.385791 -1.105395 1.405118
C 3.723919 -1.275393 1.071619
C 3.853134 -1.221693 0.920764
C 3.582168 -1.307971 1.015105
C 3.473996 -1.173589 1.133991
C 3.365241 -1.053016 1.381194
C 3.299585 -0.933154 1.490188
C 3.118300 -0.803648 1.520665
C 2.896590 -0.591486 1.747232
C 2.747316 -0.483610 1.843175
C 2.783105 -0.377724 1.785780
C 2.783239 -0.341960 1.735746
C 2.572602 -0.233543 1.710683
C 2.313930 -0.057231 1.776712
C 2.195576 0.126006 1.967007
C 2.204849 0.264977 2.057888
C 2.183375 0.514709 2.145636
C 1.992298 0.753418 2.308992
C 1.875568 1.027373 2.449743
C 1.967810 1.147479 2.482908
C 2.009496 1.292379 2.547632
C 1.937145 1.371367 2.450866
C 1.863357 1.442075 2.349046
C 1.762521 1.410572 2.232783
C 1.777449 1.318158 1.971483
C 1.958777 1.144029 1.622434
C 2.031077 1.029268 1.432722
C 2.089481 0.902926 1.322627
C 2.268934 0.804600 1.247944
C 2.436776 0.710573 1.094606
C 2.674525 0.676829 0.987099
C 2.905842 0.657068 0.939343
C 2.966398 0.661828 0.955937
C 2.917773 0.725175 0.956992
C 2.881871 0.763046 0.915851
C 2.600139 0.924002 0.997561
C 2.295448 1.110995 1.229370
C 1.967727 1.260985 1.439989
C 1.513370 1.435932 1.625514
C 1.183734 1.673621 1.819502
C 0.904682 1.888576 2.099181
C 0.606980 2.109136 2.352851
C 0.437996 2.211056 2.499446
C 0.238264 2.303351 2.543379
C 0.011359 2.446825 2.665043
C -0.151807 2.586022 2.819762
C -0.176399 2.714269 2.893517
C -0.286566 2.831854 2.833455
C -0.447445 2.964193 2.783407
C -0.559786 3.180138 2.724886
C -0.670057 3.386728 2.635639
C -0.814314 3.563705 2.505242
C -0.862166 3.759085 2.375464
C -1.188735 3.867753 2.376543
C -1.196625 4.015944 2.339045
C -1.133254 4.117475 2.262012
C -1.060345 4.191702 2.198197
C -0.833094 4.164924 2.165212
C -0.573287 4.169495 2.159186
C -0.375032 4.157553 2.147471
C -0.114049 4.254276 2.045944
C -0.006623 4.324173 1.980976
C 0.140471 4.407458 1.867229
C 0.364186 4.385183 1.782257
C 0.454529 4.439518 1.693558
C 0.466703 4.451699 1.581491
C 0.345953 4.541179 1.467061
C 0.139733 4.616751 1.349583
C -0.061321 4.661013 1.188942
C -0.267410 4.599519 1.154688
C -0.421052 4.777207 0.975778
C -0.630764 4.843738 0.904849
C -0.842420 4.931124 0.818424
C -0.898413 4.954933 0.722287
