277
chr9 3D structure from Hi-C (resolution 500000bp)
C 2.088620 2.815528 0.341113
C 2.014833 2.899103 0.359196
C 1.954384 2.958659 0.291527
C 1.864129 3.092786 0.404673
C 1.639858 3.236269 0.431537
C 1.595136 3.374238 0.469581
C 1.642073 3.480325 0.736222
C 1.635690 3.511331 0.857820
C 1.756825 3.500755 1.013751
C 1.843144 3.528194 1.219718
C 1.937168 3.462405 1.242826
C 1.943009 3.497959 1.123836
C 1.981047 3.571985 0.915018
C 1.872428 3.653917 0.443344
C 1.791005 3.779045 0.010981
C 1.642054 3.895539 -0.465466
C 1.548758 3.988063 -0.872534
C 1.378645 4.102633 -1.335356
C 1.203540 4.105590 -1.696985
C 0.983453 4.141603 -1.872146
C 0.736813 4.169268 -1.994269
C 0.592668 4.197100 -2.060048
C 0.387910 4.251844 -2.004823
C 0.154921 4.318970 -1.973522
C 0.021885 4.338388 -1.872827
C 0.021429 4.396957 -1.625978
C 0.021620 4.365858 -1.384535
C 0.076789 4.318007 -1.047500
C 0.035631 4.264873 -0.770888
C -0.110678 4.168792 -0.630469
C -0.224936 4.139293 -0.501075
C -0.325638 4.200595 -0.506300
C -0.477577 4.198519 -0.525205
C -0.659604 4.174870 -0.590113
C -0.874199 4.161304 -0.638683
C -0.867019 4.131975 -0.478802
C -0.838297 4.211162 -0.415824
C -0.786223 4.160141 -0.263742
C -0.611250 4.047140 0.135696
C -0.474410 4.009578 0.369782
C -0.415722 4.001139 0.495485
C -0.381392 4.003829 0.375505
C -0.683779 3.991184 -0.066167
C -0.855873 3.916226 -0.388048
C -1.056770 3.806016 -0.776895
C -1.383283 3.786403 -1.279860
C -1.614649 3.724835 -1.766434
C -1.743946 3.663892 -2.129623
C -1.818786 3.628973 -2.276142
C -1.710673 3.605483 -2.304001
C -1.548568 3.482032 -2.114046
C -1.297826 3.449325 -1.938635
C -1.050796 3.300780 -1.880913
C -0.896412 3.183041 -1.856135
C -0.739258 3.126013 -1.879607
C -0.580059 3.016007 -1.943617
C -0.403295 2.904508 -2.054934
C -0.232926 2.925414 -2.340343
C -0.077523 2.937605 -2.643218
C 0.043000 2.917005 -2.769557
C 0.167840 2.911406 -2.766304
C 0.330928 2.842027 -2.626547
C 0.520825 2.813948 -2.316599
C 0.694751 2.774222 -1.658747
C 0.976360 2.654767 -0.959611
C 1.180251 2.474801 -0.293724
C 1.425195 2.295151 0.247805
C 1.722325 2.076719 0.781751
C 2.006203 1.901972 1.302780
C 2.221585 1.778114 1.729419
C 2.277307 1.685481 1.731113
C 2.203226 1.691935 1.837368
C 2.057674 1.752974 1.763175
C 1.815140 1.833120 1.594492
C 1.777349 1.938389 1.075632
C 1.399945 1.934303 0.111756
C 1.391335 1.819845 -0.958503
C 1.531953 1.553900 -2.052143
C 0.857518 1.313001 -3.028860
C 0.237435 1.141132 -3.849998
C -0.172695 0.967401 -4.663608
C -0.582818 0.953690 -4.986769
C -0.763513 0.947997 -5.098186
C -0.516097 1.042611 -5.005635
C -0.120255 1.176384 -4.717192
C 1.128211 1.232970 -4.585718
C 2.442068 1.237929 -4.289467
C 3.689833 1.307330 -3.697753
C 4.774641 1.173626 -3.140458
C 5.932594 1.020301 -2.435854
C 6.306471 0.704840 -1.959508
C 6.451979 0.382304 -1.637092
C 6.481118 -0.033944 -1.457848
C 6.392797 -0.599513 -1.415621
C 6.169656 -1.318505 -1.528849
C 5.810633 -2.111207 -1.750680
C 5.309775 -2.919057 -1.961082
C 4.644160 -3.710364 -2.076935
C 3.853992 -4.445649 -2.128950
C 2.963981 -5.076746 -2.169773
C 2.008811 -5.548756 -2.248650
C 1.111273 -5.841209 -2.389001
C 0.406351 -5.974805 -2.592326
C 0.500919 -5.705051 -2.830667
C 0.879945 -5.231516 -3.072573
C 1.495942 -4.579184 -3.302417
C 2.262293 -3.807154 -3.546898
C 3.091285 -3.023006 -3.818466
C 3.865158 -2.341701 -4.075989
C 4.466527 -1.813650 -4.291950
C 4.307201 -1.673786 -4.506202
C 3.914451 -1.731086 -4.748503
C 3.310174 -2.044838 -4.958689
C 2.663905 -2.590488 -5.031766
C 2.167886 -3.254611 -4.907469
C 1.899378 -3.842470 -4.678006
C 1.775546 -4.244053 -4.474738
C 1.677330 -4.493061 -4.347123
C 1.178646 -4.591436 -4.271388
C 0.849329 -4.553320 -4.270957
C 0.458971 -4.200352 -4.335654
C 0.473957 -3.655120 -4.679087
C 0.297788 -2.868003 -4.930844
C -0.493963 -2.830465 -4.988437
C -1.347430 -2.410172 -4.944661
C -1.709236 -1.914647 -4.801697
C -1.972483 -1.611370 -4.856402
C -2.151972 -1.640057 -4.833059
C -2.280325 -1.511690 -4.831617
C -2.322255 -1.699351 -4.991934
C -2.122925 -1.236441 -5.220776
C -1.691997 -1.350656 -5.503564
C -1.225198 -1.630194 -5.796199
C -1.366419 -1.605583 -5.321310
C -1.038190 -1.119879 -4.437714
C -1.423197 -0.758368 -3.298393
C -1.793178 -0.589400 -2.411148
C -2.052269 -0.208491 -1.339837
C -2.411276 0.271510 -0.357161
C -2.786502 0.817623 0.535537
C -2.585146 1.239262 1.057673
C -2.847688 1.334568 1.080074
C -2.975484 1.309582 0.934957
C -3.297694 1.447529 1.055594
C -3.437124 1.347006 0.817419
C -3.544770 1.325297 0.689898
C -3.489382 1.254112 0.716380
C -3.525627 1.140794 0.592980
C -3.654153 1.002521 0.434510
C -3.573638 0.771074 0.396163
C -3.321601 0.682913 0.389160
C -3.023624 0.648263 0.538975
C -2.849989 0.564942 0.701781
C -2.804530 0.429181 0.734740
C -2.872153 0.350081 0.609584
C -2.883145 0.265625 0.540520
C -3.031759 0.266391 0.478695
C -3.294993 0.144444 0.279841
C -3.627844 0.070502 0.003993
C -3.833232 -0.005106 -0.250249
C -4.001007 -0.071708 -0.404423
C -4.056861 -0.110597 -0.502083
C -4.065649 -0.159991 -0.589260
C -4.050588 -0.174085 -0.529418
C -3.719610 -0.024545 -0.077040
C -3.345915 0.072978 0.377203
C -3.009424 0.150911 0.833148
C -2.783430 0.305487 1.232859
C -2.465764 0.399431 1.797696
C -2.173687 0.493579 2.319117
C -2.032605 0.513007 2.553512
C -2.115937 0.426289 2.578987
C -2.143038 0.356247 2.672004
C -2.249854 0.314200 2.758300
C -2.245541 0.295567 2.803609
C -2.159896 0.281305 2.804449
C -1.925675 0.296893 2.841264
C -1.679355 0.405028 2.975128
C -1.442513 0.475883 3.112400
C -1.248957 0.509532 3.227564
C -1.014254 0.500314 3.305211
C -0.609020 0.501330 3.451917
C -0.351763 0.470859 3.588547
C -0.243649 0.434044 3.614182
C -0.209593 0.255704 3.690802
C -0.097240 0.166167 3.780241
C 0.078537 0.070519 3.800374
C 0.238325 -0.006387 3.876047
C 0.147660 -0.041688 3.904913
C 0.058023 -0.089589 3.895501
C -0.057328 -0.114067 4.013346
C -0.034264 -0.142026 4.033005
C -0.042082 -0.245412 3.915808
C -0.180201 -0.365259 3.836770
C -0.283129 -0.400587 3.614493
C -0.328970 -0.499938 3.439107
C -0.515358 -0.564671 3.351655
C -0.754589 -0.628870 3.160697
C -1.188772 -0.671856 2.863899
C -1.755379 -1.026854 2.428676
C -2.193472 -1.042629 2.065599
C -2.664067 -1.190757 1.723708
C -3.140331 -1.410515 1.330163
C -3.549458 -1.655364 0.836496
C -3.864091 -1.832039 0.488523
C -3.855874 -1.978765 0.331541
C -3.736473 -1.715122 0.527243
C -3.582647 -1.735362 0.717852
C -3.415028 -1.722365 0.973471
C -3.323650 -1.705983 1.141091
C -3.149895 -1.650307 1.326786
C -2.895877 -1.666663 1.562885
C -2.776151 -1.642318 1.666039
C -2.688214 -1.748975 1.559232
C -2.633454 -1.836148 1.521764
C -2.431697 -1.850311 1.592362
C -2.200552 -1.825283 1.740496
C -1.971872 -1.766263 1.930067
C -1.882671 -1.859626 1.997102
C -1.761564 -1.925993 2.193279
C -1.517052 -1.965899 2.506410
C -1.272682 -2.016573 2.672280
C -1.207414 -2.061722 2.705178
C -1.092554 -2.128036 2.746935
C -1.036382 -2.255969 2.705101
C -0.883400 -2.230812 2.607882
C -0.767631 -2.248218 2.481687
C -0.808569 -2.240971 2.208978
C -1.041389 -2.292878 1.871773
C -1.164888 -2.336250 1.614923
C -1.220771 -2.296711 1.423742
C -1.327402 -2.231095 1.206627
C -1.539718 -2.278209 1.047685
C -1.709982 -2.376869 0.895386
C -1.808575 -2.412203 0.716973
C -1.763792 -2.428670 0.713543
C -1.685601 -2.426677 0.668818
C -1.663900 -2.462529 0.662562
C -1.374396 -2.393597 0.860224
C -0.994685 -2.266598 1.122309
C -0.634018 -2.165307 1.356617
C -0.309879 -2.095699 1.694865
C 0.027921 -2.012647 1.931418
C 0.360332 -1.944272 2.323334
C 0.735200 -1.759919 2.639922
C 0.852156 -1.763599 2.836656
C 1.024085 -1.710856 2.947317
C 1.273007 -1.575790 3.130076
C 1.491513 -1.457745 3.283847
C 1.576496 -1.501668 3.390918
C 1.726049 -1.522261 3.411764
C 1.855123 -1.620242 3.451308
C 2.132037 -1.703409 3.469945
C 2.419935 -1.751840 3.420434
C 2.666166 -1.784026 3.310007
C 2.905963 -1.843126 3.261275
C 3.187182 -1.823071 3.256206
C 3.301613 -1.930336 3.199375
C 3.284767 -2.086486 3.107295
C 3.330345 -2.094013 2.989709
C 3.219169 -2.116179 2.946336
C 3.021889 -2.314898 2.932008
C 2.886311 -2.496007 2.880888
C 2.886149 -2.602963 2.826653
C 2.897828 -2.697421 2.743938
C 2.923789 -2.822060 2.645985
C 2.718979 -3.047423 2.592335
C 2.576200 -3.328492 2.514984
C 2.552505 -3.409228 2.399892
C 2.660644 -3.479866 2.320104
C 2.794688 -3.456356 2.221469
C 2.976351 -3.321171 2.148321
C 3.075612 -3.188642 2.078139
C 3.260438 -3.282556 1.893955
C 3.478512 -3.184528 1.829714
C 3.696473 -3.123096 1.786491
C 3.766401 -3.047273 1.685196
