381
chr4 3D structure from Hi-C (resolution 500000bp)
C -1.671080 0.876474 -3.641739
C -1.589389 0.762863 -3.648517
C -1.538960 0.619355 -3.690316
C -1.426695 0.556321 -3.700010
C -1.294426 0.479371 -3.755155
C -1.092680 0.473457 -3.732090
C -0.871553 0.535830 -3.663153
C -0.721090 0.774087 -3.543580
C -0.584649 0.959037 -3.471856
C -0.403262 1.147180 -3.393898
C -0.348502 1.232107 -3.346518
C -0.246270 1.284097 -3.301546
C -0.232607 1.358445 -3.299403
C -0.189238 1.338661 -3.352080
C -0.164117 1.326370 -3.366334
C -0.347648 1.446172 -3.355401
C -0.303620 1.533899 -3.318473
C -0.149324 1.656305 -3.153336
C -0.088168 1.723848 -3.046383
C -0.007151 1.791378 -2.945959
C -0.033252 2.037905 -2.740417
C -0.015779 2.212471 -2.563575
C 0.220144 2.304190 -2.401196
C 0.128055 2.492823 -2.268054
C -0.002558 2.660061 -2.301801
C -0.026270 2.802015 -2.244624
C -0.056315 2.861390 -2.217122
C 0.037361 2.817463 -2.236401
C 0.162178 2.671044 -2.298139
C 0.279344 2.560851 -2.335648
C 0.446304 2.536141 -2.303584
C 0.550623 2.559387 -2.247233
C 0.617709 2.557624 -2.283206
C 0.728781 2.601659 -2.170243
C 0.738556 2.707839 -2.033159
C 0.636218 2.955966 -1.844549
C 0.492351 3.160952 -1.668490
C 0.450753 3.232688 -1.559365
C 0.487677 3.282502 -1.434339
C 0.526954 3.355992 -1.217138
C 0.483176 3.497489 -1.091603
C 0.548881 3.436735 -1.086788
C 0.680241 3.404442 -1.046920
C 0.787384 3.398742 -0.999261
C 0.802121 3.443065 -0.876574
C 0.914236 3.362537 -0.956074
C 0.968662 3.217386 -1.143920
C 1.028776 2.957336 -1.333606
C 1.061730 2.842629 -1.438522
C 1.158487 2.518194 -1.708995
C 1.323734 2.310596 -1.877579
C 1.507406 2.118336 -2.010671
C 1.523206 2.112136 -1.864666
C 1.545587 2.207131 -1.615284
C 1.558737 2.455833 -1.286180
C 1.616921 2.651104 -1.042908
C 1.569705 2.976523 -0.616378
C 1.579439 3.105153 -0.432118
C 1.550561 3.172294 -0.324161
C 1.574976 3.181597 -0.283562
C 1.650507 3.171209 -0.277959
C 1.733282 3.086808 -0.299107
C 1.784003 3.029438 -0.233475
C 1.828123 2.996627 -0.171400
C 1.774050 3.051649 0.062070
C 1.794513 3.071071 0.212148
C 1.768807 3.167655 0.563951
C 1.807173 3.078099 0.570848
C 1.851376 2.959193 0.445350
C 1.811751 2.710070 0.159814
C 1.845595 2.439236 -0.202402
C 1.902040 2.141503 -0.565743
C 1.828085 1.810115 -1.027537
C 1.728309 1.373929 -1.727089
C 1.519025 1.107344 -2.053508
C 1.261869 0.731421 -2.420316
C 1.057694 0.452742 -2.679478
C 0.937369 0.204286 -2.845181
C 0.773403 -0.024222 -3.094831
C 0.819319 -0.029329 -3.055129
C 0.984460 -0.002420 -2.993351
C 1.205760 0.067872 -2.937612
C 1.502940 0.289429 -2.710022
C 1.839398 0.756529 -2.013559
C 2.076644 1.160930 -1.486842
C 2.403872 1.467625 -1.066610
C 2.616821 1.666077 -0.805487
C 2.753325 1.874230 -0.550253
C 2.818625 2.138977 -0.183752
C 2.860931 2.353384 0.145042
C 2.889659 2.201966 -0.182634
C 2.881776 1.995467 -0.545842
C 2.825278 1.848869 -0.830117
C 2.562921 1.574542 -1.074231
C 2.363914 1.330598 -1.372692
C 1.874941 0.773642 -1.973770
C 1.245196 0.107364 -2.567649
C 0.564640 -0.411153 -2.926997
C -0.120735 -0.838289 -3.194229
C -0.814791 -1.202011 -3.401340
C -0.840408 -1.389259 -3.632432
C -0.674649 -1.396259 -3.433748
C -0.289064 -1.251122 -3.155515
C 0.251517 -1.047357 -3.034003
C 0.792588 -0.770272 -2.846745
C 1.480413 -0.538360 -2.593693
C 2.245317 -0.350960 -2.287721
C 2.399671 -0.231861 -1.937756
C 2.313616 -0.361602 -1.974325
C 2.303254 -0.394863 -1.929584
C 2.264430 -0.404651 -1.775641
C 2.325677 -0.413263 -1.603527
C 2.428440 -0.393519 -1.401051
C 2.402998 -0.293309 -1.229205
C 2.550515 -0.215582 -1.043601
C 2.752952 -0.134361 -0.798405
C 2.875983 -0.106472 -0.588108
C 3.032086 0.011956 -0.296313
C 3.184434 0.058678 -0.093204
C 3.189569 0.057063 -0.030412
C 3.284558 0.095729 0.149166
C 3.289167 0.098919 0.243008
C 3.191497 0.169376 0.324609
C 3.211867 0.324054 0.518420
C 3.249067 0.235070 0.507090
C 3.251077 0.247170 0.600882
C 3.206329 0.231425 0.773167
C 3.087523 0.115801 0.769448
C 3.042844 0.100012 0.885873
C 3.022972 0.055737 0.979609
C 2.997170 -0.135518 0.926016
C 2.920454 -0.177083 0.924518
C 2.728850 -0.319896 0.720250
C 2.659660 -0.061124 0.925709
C 2.499167 0.350628 1.264874
C 2.453841 0.290885 1.214024
C 2.461531 0.158145 1.109946
C 2.416740 0.385747 1.337431
C 2.506545 0.327629 1.203803
C 2.624224 0.564262 1.539359
C 2.591862 0.366178 1.305876
C 2.768951 0.086486 1.155107
C 2.773026 0.232618 1.352793
C 2.652818 0.099932 1.003679
C 2.607335 -0.278133 0.470105
C 2.443609 -0.333519 0.452682
C 2.403737 -0.684152 0.001338
C 2.292349 -0.889687 -0.314800
C 2.009533 -1.285568 -0.970027
C 1.765494 -1.646376 -1.599722
C 1.569266 -1.649246 -1.581152
C 1.409521 -1.668596 -1.656897
C 1.268664 -1.762298 -1.873961
C 1.140153 -1.820919 -1.930632
C 1.076650 -2.022523 -2.082468
C 1.315524 -2.060942 -1.883819
C 1.551623 -2.091904 -1.698811
C 1.689054 -2.192365 -1.708973
C 1.873486 -2.337411 -1.639272
C 1.944296 -2.411255 -1.492647
C 1.936039 -2.473287 -1.430628
C 1.997434 -2.412708 -1.283976
C 1.752538 -2.422708 -1.436076
C 1.437501 -2.470835 -1.671315
C 1.407601 -2.402355 -1.512351
C 1.461007 -2.339841 -1.304161
C 1.585895 -2.242925 -1.046727
C 1.633132 -2.090044 -0.788690
C 1.672619 -2.034506 -0.591113
C 1.878016 -1.986481 -0.234464
C 1.824917 -2.052775 -0.187241
C 1.740536 -2.065592 -0.222763
C 1.586820 -2.003167 -0.220554
C 1.381191 -2.054065 -0.388356
C 1.361594 -2.246186 -0.518899
C 1.309630 -2.286891 -0.529517
C 1.329002 -2.265204 -0.371477
C 1.676038 -2.156553 0.137055
C 1.936839 -2.054653 0.551475
C 1.967707 -2.034875 0.781420
C 2.195633 -1.797525 1.248948
C 2.316219 -1.479840 1.679259
C 2.451505 -1.423015 2.001950
C 2.405225 -1.382540 1.999228
C 2.321809 -1.314396 2.061636
C 2.190665 -1.409408 1.963668
C 2.089534 -1.420448 1.913529
C 1.911455 -1.547905 1.815685
C 1.823060 -1.745304 1.779504
C 1.775606 -1.523191 1.906131
C 1.738605 -1.428262 2.116296
C 1.745584 -1.401157 2.206841
C 1.774944 -1.264208 2.433974
C 1.824259 -1.429293 2.386308
C 1.818566 -1.472509 2.255793
C 1.757249 -1.525706 2.028056
C 1.602174 -1.872755 1.638631
C 1.549457 -2.155190 1.373881
C 1.391330 -2.349576 1.110708
C 1.183812 -2.690408 0.610722
C 1.088460 -2.687098 0.562320
C 0.946470 -2.776594 0.435006
C 0.623459 -2.871554 0.144469
C 0.565944 -2.979009 0.084730
C 0.504025 -2.955449 0.136970
C 0.351285 -3.057187 -0.096288
C 0.242253 -3.017290 -0.091723
C 0.034926 -3.004014 -0.353269
C -0.057469 -3.060733 -0.482156
C -0.024069 -3.129283 -0.451125
C -0.013698 -3.078102 -0.221755
C -0.125941 -3.174660 -0.233552
C -0.136730 -3.222194 -0.076098
C -0.161133 -3.251602 0.002260
C -0.086704 -3.245012 0.253003
C -0.033798 -3.316241 0.508819
C -0.002063 -3.221434 0.612208
C -0.145145 -3.181636 0.361350
C -0.282730 -3.140869 0.291482
C -0.316447 -3.118426 0.422620
C -0.317950 -3.079033 0.566269
C -0.435094 -3.073244 0.491889
C -0.595546 -2.989263 0.304682
C -0.666254 -2.978873 0.411326
C -0.721073 -2.927470 0.380436
C -0.596611 -2.765860 0.513542
C -0.476465 -2.553357 0.686955
C -0.431661 -2.394292 0.806330
C -0.315251 -2.303169 1.067567
C -0.171346 -2.247692 1.479348
C -0.030987 -2.111614 1.762773
C 0.059498 -2.105688 2.163406
C 0.035043 -2.183826 2.288600
C -0.049678 -2.294588 2.303952
C -0.162193 -2.378427 2.205732
C -0.228231 -2.369357 2.187733
C -0.284313 -2.233764 2.133975
C -0.173378 -2.012483 2.276420
C -0.184573 -1.888656 2.231626
C -0.267011 -1.790497 2.040193
C -0.331598 -1.682556 1.868861
C -0.368181 -1.644264 1.977405
C -0.478899 -1.687669 1.839190
C -0.550462 -1.656019 1.695600
C -0.663169 -1.704172 1.589038
C -0.646613 -1.686533 1.714134
C -0.618532 -1.600419 1.987439
C -0.498321 -1.418185 2.256273
C -0.398972 -1.276078 2.418571
C -0.183406 -0.992210 2.769152
C -0.066216 -0.901358 3.035472
C -0.138372 -0.918037 3.082634
C -0.310657 -0.979329 2.987480
C -0.422937 -1.065601 2.615134
C -0.664685 -1.220943 2.353325
C -0.711319 -1.100998 2.260097
C -0.761775 -1.022603 2.277079
C -0.861653 -0.950632 2.298167
C -0.799708 -0.818513 2.353352
C -0.615914 -0.476104 2.469867
C -0.395363 -0.038030 2.880867
C -0.187414 0.286103 3.096140
C -0.198488 0.305987 3.140202
C -0.305824 0.299920 3.140277
C -0.290346 0.342322 3.180874
C -0.485320 0.212602 3.093844
C -0.668940 -0.017700 3.046966
C -0.947950 -0.319885 2.972017
C -1.005827 -0.291667 3.061069
C -1.033047 -0.192737 3.154900
C -1.171123 -0.339544 3.041299
C -1.290387 -0.448151 2.852064
C -1.418453 -0.605245 2.753024
C -1.485019 -0.654290 2.492815
C -1.504535 -0.699057 2.212206
C -1.695032 -1.021376 1.625266
C -1.841660 -1.295656 1.129963
C -1.944601 -1.455550 0.784909
C -2.102900 -1.625113 0.464428
C -2.205273 -1.683991 0.166928
C -2.271531 -1.788890 -0.118116
C -2.374309 -1.884841 -0.220466
C -2.129916 -1.410446 0.327037
C -2.245406 -1.483685 0.260082
C -2.297562 -1.473201 0.063388
C -2.010842 -0.948062 0.499364
C -2.051291 -0.814160 0.292450
C -2.137105 -0.731265 0.289876
C -2.136549 -0.697917 0.110837
C -2.490699 -1.120518 -0.415303
C -2.525610 -1.016627 -0.297465
C -2.554900 -0.955212 -0.011891
C -2.907819 -1.409627 -0.506084
C -2.832265 -1.407659 -0.165059
C -2.825517 -1.361943 0.125429
C -2.828829 -1.244098 0.526589
C -2.863177 -1.213735 0.826141
C -2.777660 -1.182402 0.882171
C -2.759024 -1.107725 0.757530
C -2.649672 -1.038102 0.839734
C -2.646266 -1.035489 0.679603
C -2.647604 -1.016984 0.433117
C -2.689733 -1.035632 0.037036
C -2.641414 -1.010323 -0.318556
C -2.665361 -0.938638 -0.403947
C -2.693506 -0.898297 -0.330519
C -2.759733 -0.832100 -0.178943
C -2.848200 -0.764572 0.025483
C -2.954176 -0.715682 0.143576
C -2.955866 -0.648024 0.493267
C -3.055621 -0.503937 0.879535
C -3.052990 -0.390115 1.234587
C -2.978037 -0.290431 1.477255
C -2.937289 -0.191288 1.630256
C -2.964781 -0.111702 1.654838
C -2.890765 -0.068729 1.751471
C -2.825747 0.094819 1.921808
C -2.731964 0.167993 1.999393
C -2.671375 0.237330 2.007872
C -2.628246 0.383180 2.078641
C -2.509121 0.570948 2.208219
C -2.317702 0.824823 2.369623
C -2.119020 1.029784 2.588894
C -2.090396 1.108723 2.511506
C -2.000312 1.121056 2.431440
C -1.871080 1.343509 2.466001
C -1.851159 1.268677 2.320940
C -1.942285 1.136379 2.072662
C -1.853977 1.128748 2.020750
C -1.858423 1.223552 2.003920
C -2.021264 1.104457 1.758303
C -1.976313 1.351223 1.837300
C -1.970095 1.402560 1.786614
C -1.915110 1.649641 1.840289
C -1.888689 1.723103 1.857001
C -2.132858 1.509105 1.476212
C -2.261842 1.324769 1.236896
C -2.110102 1.516456 1.364101
C -2.177860 1.442587 1.287205
C -2.219049 1.522307 1.199859
C -2.183495 1.607798 1.196145
C -2.196854 1.766600 1.205953
C -2.043260 2.031232 1.477286
C -2.135810 2.103421 1.410985
C -2.098066 2.182160 1.419817
C -2.182284 2.176062 1.352982
C -2.330665 1.919670 1.263186
C -2.494006 1.818443 1.189261
C -2.518036 1.918739 1.096020
C -2.623785 1.788033 1.019887
C -2.552603 1.890277 1.139503
C -2.691467 1.756968 1.046121
C -2.700609 1.803093 0.942161
C -2.682723 2.010836 0.865654
C -2.679455 2.053467 0.759185
C -2.748827 1.855918 0.727369
C -2.711314 1.951910 0.672369
C -2.718397 1.873295 0.610836
C -2.670232 1.869116 0.563263
C -2.720425 1.815256 0.526292
C -2.797957 1.655598 0.449246
C -2.874117 1.490221 0.332874
C -2.922435 1.411385 0.193477
C -3.007386 1.257057 0.035709
C -3.040653 1.176654 -0.112567
C -3.090226 1.047705 -0.320771
C -3.025862 0.808696 -0.492864
C -3.000350 0.602085 -0.642454
C -2.960117 0.488347 -0.693625
C -2.906763 0.485799 -0.678579
C -2.929218 0.638974 -0.771927
C -2.959470 0.785517 -0.850107
C -2.967715 1.026430 -0.830614
C -3.012256 1.361374 -0.832264
C -3.027511 1.653808 -0.843059
C -3.006807 1.944742 -0.833851
C -2.504847 2.310754 -0.392077
C -2.456388 1.991726 -0.718570
C -2.327322 2.048850 -0.669484
C -2.200859 2.024882 -0.639383
C -2.002345 1.932110 -0.569606
