381
chr4 3D structure from Hi-C (resolution 500000bp)
C -3.889052 0.616689 -0.845760
C -3.875763 0.503382 -0.763466
C -3.899610 0.425682 -0.669699
C -3.882479 0.300919 -0.629141
C -3.917999 0.201015 -0.565834
C -3.835863 0.112735 -0.612593
C -3.701805 -0.069215 -0.699023
C -3.571001 -0.175805 -0.866272
C -3.464830 -0.296147 -1.002550
C -3.333900 -0.410475 -1.145671
C -3.269519 -0.455253 -1.208897
C -3.169176 -0.582773 -1.281320
C -3.149145 -0.618058 -1.395757
C -3.168095 -0.669188 -1.441781
C -3.117110 -0.711701 -1.536316
C -3.124447 -0.522955 -1.714044
C -3.054143 -0.537405 -1.803549
C -2.855571 -0.607408 -1.915854
C -2.734644 -0.705555 -1.902986
C -2.618715 -0.774653 -1.943116
C -2.421182 -0.789714 -2.099705
C -2.223425 -0.804737 -2.235546
C -2.029219 -0.998600 -2.296331
C -1.962244 -0.951734 -2.470512
C -1.949384 -0.858113 -2.691998
C -1.866565 -0.833786 -2.863209
C -1.801246 -0.852436 -2.917503
C -1.827071 -0.920581 -2.862818
C -1.956779 -1.013297 -2.694586
C -1.986878 -1.097943 -2.565762
C -1.890550 -1.186372 -2.556822
C -1.848993 -1.277632 -2.524129
C -1.911561 -1.189245 -2.534286
C -1.797170 -1.192190 -2.569186
C -1.585852 -1.183895 -2.691487
C -1.292669 -1.074643 -2.939452
C -1.006258 -1.001024 -3.150874
C -0.898985 -0.994541 -3.183298
C -0.765732 -1.025077 -3.189713
C -0.515512 -1.141400 -3.244650
C -0.421082 -1.111871 -3.335826
C -0.433218 -1.157449 -3.270044
C -0.519396 -1.229914 -3.228213
C -0.520504 -1.280165 -3.189523
C -0.431301 -1.323008 -3.228943
C -0.488456 -1.379161 -3.218614
C -0.671463 -1.472908 -3.091649
C -0.874244 -1.566998 -2.815306
C -1.055337 -1.607619 -2.652133
C -1.209690 -1.714098 -2.405765
C -1.470042 -1.850661 -2.177874
C -1.576676 -1.978501 -1.992738
C -1.515931 -2.039023 -1.872719
C -1.282833 -2.042133 -1.909971
C -0.925921 -2.075352 -2.127702
C -0.577828 -2.084877 -2.303471
C -0.163290 -2.064820 -2.510133
C 0.047510 -2.065267 -2.629888
C 0.099445 -2.077465 -2.629481
C 0.151925 -2.083977 -2.669881
C 0.186934 -2.089429 -2.664973
C 0.173788 -2.121317 -2.594740
C 0.145099 -2.192058 -2.505176
C 0.166466 -2.249617 -2.451143
C 0.443948 -2.205677 -2.493483
C 0.550128 -2.253763 -2.479129
C 0.890703 -2.072019 -2.631997
C 0.867949 -2.097942 -2.543520
C 0.747892 -2.161290 -2.438541
C 0.509242 -2.119096 -2.266340
C 0.201821 -2.187665 -2.041995
C -0.178091 -2.238437 -1.817091
C -0.537500 -2.127501 -1.632830
C -1.180542 -2.203664 -1.186834
C -1.554249 -2.097685 -0.937600
C -1.965954 -1.941963 -0.682973
C -2.285067 -1.789833 -0.482236
C -2.506337 -1.657210 -0.273032
C -2.711801 -1.574527 -0.072389
C -2.708491 -1.595776 -0.007638
C -2.587839 -1.746960 -0.070931
C -2.432179 -1.933189 -0.160635
C -2.180182 -2.109241 -0.307751
C -1.417922 -2.299767 -0.654379
C -0.803543 -2.433118 -0.959903
C -0.274603 -2.555218 -1.267334
C 0.165621 -2.690666 -1.498719
C 0.517899 -2.727747 -1.681724
C 0.916705 -2.734145 -1.844285
C 1.149472 -2.836655 -1.921594
C 0.880774 -2.905068 -1.843255
C 0.568142 -2.975766 -1.719552
C 0.124122 -3.021371 -1.512481
C -0.251036 -2.854780 -1.270442
C -0.674840 -2.776983 -1.042257
C -0.510211 -2.547827 -1.215974
C -0.116490 -2.117939 -1.462526
C -0.681108 -1.525311 -1.036235
C -1.196536 -0.912715 -0.662737
C -0.393865 -0.661624 -0.880511
C -0.668546 -0.529506 -0.687024
C -0.473746 -0.623055 -0.659785
C -1.057738 -0.758790 -0.180930
C -1.796424 -1.073387 0.347324
C -1.435226 -1.544920 0.167356
C -1.027579 -2.118320 -0.034597
C -1.608801 -2.427525 0.292074
C -1.151176 -2.672732 0.146640
C -1.212557 -2.612126 0.260794
C -1.143276 -2.661253 0.309022
C -0.966835 -2.617397 0.318253
C -0.739414 -2.653617 0.356804
C -0.459832 -2.688169 0.340990
C -0.292304 -2.593126 0.311874
C -0.103838 -2.643245 0.329156
C 0.222851 -2.721509 0.249716
C 0.550500 -2.716352 0.178494
C 0.879239 -2.752620 0.100300
C 1.056150 -2.841100 0.064138
C 1.174806 -2.828307 0.041839
C 1.393529 -2.861194 -0.029462
C 1.528325 -2.814981 -0.098709
C 1.572154 -2.734307 -0.117942
C 1.678430 -2.749144 -0.145765
C 1.751139 -2.735180 -0.160157
C 1.852463 -2.706781 -0.155535
C 1.887011 -2.629022 -0.105915
C 1.752670 -2.543206 0.052476
C 1.704950 -2.520325 0.209673
C 1.677555 -2.515900 0.370204
C 1.522823 -2.507179 0.540412
C 1.360456 -2.473901 0.716905
C 1.029868 -2.336245 0.846798
C 1.214566 -2.308087 0.760671
C 0.421068 -1.784279 0.815396
C 0.220796 -1.814108 0.924528
C 0.120255 -1.834931 0.984951
C 0.007741 -1.922951 1.095375
C -0.118536 -2.007930 1.236702
C -0.050894 -2.229907 1.292824
C -0.464117 -2.296161 1.557110
C 0.239325 -2.983545 1.643027
C 0.132095 -3.036568 1.724306
C -0.115428 -3.011408 1.803898
C -0.323736 -2.849993 1.801620
C -0.418981 -2.738246 1.774386
C -0.611958 -2.607326 1.786465
C -0.779440 -2.431655 1.801031
C -1.210462 -2.124941 1.828945
C -1.391231 -1.858138 1.766279
C -1.457170 -1.645406 1.710632
C -1.506643 -1.557381 1.683476
C -1.735925 -1.466870 1.721904
C -1.753907 -1.347238 1.761247
C -1.970792 -1.308150 1.870647
C -1.858517 -1.380622 1.971169
C -1.749808 -1.446570 2.070216
C -1.789359 -1.451308 2.219372
C -1.818205 -1.441886 2.403080
C -1.679334 -1.446498 2.496060
C -1.596379 -1.448336 2.544587
C -1.380947 -1.491189 2.548553
C -1.450000 -1.337100 2.501839
C -1.634205 -1.139930 2.462644
C -1.374981 -1.223461 2.390667
C -1.060230 -1.322307 2.364917
C -0.800243 -1.420957 2.324654
C -0.624795 -1.372614 2.247015
C -0.549507 -1.305671 2.240496
C -0.185845 -1.458149 2.230635
C -0.171834 -1.413381 2.270779
C -0.328531 -1.262606 2.281119
C -0.343184 -1.120842 2.153091
C -0.500588 -0.946194 2.143701
C -0.609877 -0.941820 2.336613
C -0.528058 -0.983949 2.282560
C -0.399067 -0.994618 2.316643
C 0.192200 -1.233779 2.350412
C 0.735528 -1.390750 2.136857
C 1.014256 -1.460080 2.145471
C 1.588200 -1.537425 1.853241
C 2.103943 -1.568216 1.509142
C 2.534700 -1.557123 1.332488
C 2.687001 -1.446081 1.165174
C 2.798576 -1.355767 1.003282
C 2.640472 -1.291579 1.241262
C 2.496664 -1.182873 1.245833
C 2.288404 -1.096319 1.436028
C 2.174950 -1.126489 1.581797
C 2.174112 -1.139812 1.705720
C 2.238759 -1.154000 1.764117
C 2.221742 -1.205092 1.817440
C 2.361963 -1.221502 1.776312
C 2.418267 -1.251431 1.871766
C 2.279183 -1.260038 1.978724
C 2.044893 -1.131266 2.109010
C 1.637977 -1.031376 2.273706
C 1.343886 -0.945814 2.488435
C 1.153042 -0.815713 2.634759
C 0.649609 -0.640710 2.818106
C 0.591919 -0.528990 2.808837
C 0.551093 -0.398401 2.825299
C 0.244401 -0.240921 2.872997
C 0.298646 -0.129040 2.953690
C 0.405745 -0.101603 2.878748
C 0.046195 0.072475 2.881319
C -0.013657 0.197576 2.801999
C -0.381764 0.334106 2.790188
C -0.583103 0.426434 2.829191
C -0.370820 0.410452 2.919814
C -0.094464 0.352657 2.756758
C -0.026398 0.350422 2.714490
C 0.106104 0.352769 2.790628
C 0.251948 0.353651 2.863403
C 0.487690 0.286212 2.876454
C 0.622372 0.312699 2.935448
C 0.500585 0.349778 2.808021
C 0.107987 0.472949 2.858919
C 0.037768 0.576855 2.915475
C 0.446557 0.515728 2.797526
C 0.698470 0.461491 2.769236
C 0.598315 0.584585 2.759075
C 0.523766 0.641153 2.698085
C 0.593518 0.704535 2.723389
C 0.472333 0.788653 2.685136
C 0.410039 0.818089 2.657488
C 0.283973 0.895230 2.659075
C 0.273699 0.953077 2.550726
C 0.433657 0.945291 2.549784
C 0.687265 0.934111 2.522054
C 0.978868 0.939228 2.399152
C 1.499710 0.843440 2.336330
C 1.678621 0.898405 2.327565
C 1.806113 0.978271 2.300742
C 1.718989 1.030135 2.330580
C 1.846969 1.085764 2.259969
C 1.910164 1.075053 2.093062
C 2.098967 0.968376 2.002897
C 2.004510 0.990897 1.977530
C 1.788743 1.007484 1.858064
C 1.539836 0.978024 1.789989
C 1.593608 1.047269 1.738160
C 1.398406 1.018392 1.722827
C 1.210113 1.026871 1.721089
C 0.962422 1.232595 1.768411
C 0.991173 1.376720 1.774772
C 1.287175 1.342588 1.724827
C 1.558056 1.353435 1.649091
C 1.774764 1.258037 1.482783
C 2.139747 1.268053 1.354220
C 2.403036 1.315360 1.314271
C 2.524988 1.335453 1.264800
C 2.284524 1.391148 1.378846
C 1.856356 1.505335 1.457979
C 1.485004 1.597891 1.554913
C 1.402649 1.654387 1.503186
C 1.468654 1.611059 1.400460
C 1.530657 1.558586 1.303250
C 1.664832 1.411845 1.111740
C 1.995588 1.207084 0.691731
C 2.486840 1.028114 0.335804
C 2.903531 0.929596 0.015992
C 2.939156 0.915828 -0.025726
C 2.904721 1.000506 -0.016082
C 2.958971 0.990067 -0.117717
C 2.855532 1.084375 -0.093379
C 2.868392 1.203929 0.014369
C 2.820278 1.253126 0.061058
C 2.861055 1.194711 -0.011364
C 2.958035 1.160568 -0.122226
C 2.889248 1.227195 -0.142061
C 2.672399 1.373824 -0.001411
C 2.492541 1.588792 0.165918
C 2.097988 1.671348 0.306206
C 1.751845 1.842848 0.478196
C 1.157988 2.015333 0.773752
C 0.633852 2.154775 1.026220
C 0.161392 2.204658 1.231082
C -0.200783 2.281029 1.334630
C -0.453889 2.285933 1.408422
C -0.563960 2.421223 1.437478
C -0.660796 2.533609 1.541718
C -0.698639 2.662954 1.588981
C -0.756083 2.828467 1.585049
C -0.909412 2.912280 1.487617
C -1.047150 2.974966 1.402854
C -0.599039 2.693172 0.934394
C -0.755239 2.635675 0.878372
C -0.989199 2.556468 0.817385
C -1.004516 2.479144 0.656672
C -0.886327 2.436587 0.631751
C -0.782514 2.399217 0.632984
C -0.732231 2.368229 0.568010
C -1.099380 2.635091 0.866646
C -0.713276 2.662153 0.794312
C -0.325560 2.741413 0.707545
C -0.019695 2.863269 0.728569
C -0.026861 2.820942 0.653164
C -0.003815 2.788245 0.607940
C 0.087755 2.729506 0.618835
C -0.056878 2.660486 0.614673
C -0.450256 2.578810 0.644229
C -0.909006 2.519142 0.674719
C -1.284893 2.375787 0.664654
C -1.302357 2.408220 0.621551
C -1.102755 2.498746 0.582056
C -0.968624 2.596312 0.529843
C -0.699045 2.706730 0.484407
C -0.482015 2.882704 0.398750
C -0.095666 2.958068 0.292509
C 0.440456 3.063642 0.173857
C 0.758010 3.096641 0.068751
C 0.960221 3.026387 -0.051743
C 1.146934 2.990014 -0.119352
C 1.120971 3.007027 -0.180385
C 1.216586 2.943183 -0.206712
C 1.457539 2.876250 -0.369949
C 1.497768 2.810534 -0.517512
C 1.577514 2.657061 -0.618621
C 1.611397 2.596318 -0.769687
C 1.785438 2.467565 -1.000314
C 1.979489 2.314505 -1.205585
C 2.172123 2.207249 -1.357262
C 2.022718 2.267046 -1.348838
C 1.870110 2.253165 -1.318347
C 1.880067 2.211242 -1.480302
C 1.794957 2.217324 -1.399953
C 1.527333 2.240930 -1.255052
C 1.495978 2.190589 -1.304622
C 1.462676 2.141568 -1.428716
C 1.480568 1.996023 -1.563187
C 1.589437 1.888230 -1.797322
C 1.512638 1.887703 -1.854093
C 1.529199 1.877503 -1.993541
C 1.488344 1.959084 -2.017939
C 0.994055 2.094950 -1.798049
C 0.783273 2.183119 -1.588301
C 0.657290 2.346745 -1.479042
C 0.437966 2.560085 -1.282383
C 0.377935 2.515792 -1.377053
C 0.163214 2.684853 -1.299997
C 0.244048 2.651694 -1.481235
C 0.597395 2.593031 -1.684745
C 0.390429 2.679298 -1.752996
C 0.437280 2.647597 -1.842624
C 0.365284 2.649064 -1.870175
C 0.270545 2.816020 -1.589169
C 0.430941 2.618203 -1.768265
C 0.423340 2.570984 -1.860914
C 0.324851 2.583177 -1.851832
C 0.598259 2.503228 -1.999480
C 0.492911 2.537788 -1.953277
C 0.569410 2.465237 -2.080762
C 0.480856 2.483646 -2.242955
C 0.335534 2.545514 -2.248330
C 0.199718 2.633703 -2.108847
C 0.064922 2.685813 -2.104591
C -0.058180 2.715242 -1.975293
C -0.118576 2.661502 -1.965836
C -0.251136 2.650868 -1.928050
C -0.404024 2.642523 -1.850097
C -0.555791 2.687854 -1.714901
C -0.738817 2.696091 -1.636023
C -0.810676 2.645982 -1.532155
C -0.963558 2.624451 -1.509735
C -1.187553 2.581109 -1.386470
C -1.358636 2.561554 -1.185822
C -1.430956 2.566000 -0.975729
C -1.436570 2.560110 -0.857092
C -1.368720 2.528188 -0.815999
C -1.264979 2.487578 -1.116350
C -1.150153 2.431773 -1.379083
C -1.027957 2.435380 -1.656336
C -0.951172 2.413539 -1.963163
C -0.872054 2.359005 -2.310554
C -0.895469 2.345310 -2.524739
C -0.276944 1.903820 -2.749651
C 0.284344 1.511536 -2.697703
C 0.431279 1.388619 -2.680084
C 0.715560 1.210231 -2.680832
C 1.216092 0.938725 -2.662525
