204
chr15 3D structure from Hi-C (resolution 500000bp)
C -4.235411 0.908899 -1.310413
C -4.228396 1.101593 -1.031949
C -4.172912 1.333148 -0.843024
C -4.084374 1.567910 -0.778600
C -3.985598 1.922751 -0.641287
C -3.867810 2.201212 -0.657644
C -3.726456 2.360282 -0.856656
C -3.563614 2.379139 -1.234134
C -3.380424 2.224542 -1.761276
C -3.153227 1.893505 -2.375360
C -2.925545 1.517888 -2.949855
C -2.721181 1.260870 -3.401978
C -2.554640 1.188687 -3.670772
C -2.415566 1.311231 -3.737385
C -2.300382 1.625299 -3.575270
C -2.236769 2.084803 -3.185464
C -2.322990 2.586592 -2.486865
C -2.497211 2.993305 -1.643359
C -2.711786 3.215640 -0.817510
C -2.912407 2.869933 -0.693513
C -3.035019 2.324229 -0.745665
C -3.123702 1.586813 -0.943327
C -3.226729 0.736712 -1.225109
C -3.328922 -0.072551 -1.633307
C -3.461818 -0.809151 -1.980476
C -3.591071 -1.438326 -2.212483
C -3.721367 -1.538480 -1.723262
C -3.896226 -1.397299 -1.058736
C -4.015851 -0.988650 -0.250090
C -4.112915 -0.487445 0.474197
C -4.202445 -0.037491 0.990807
C -4.251603 0.244726 1.167781
C -4.270609 0.404015 1.083347
C -4.231415 0.377287 0.806380
C -4.094513 -0.042949 0.392256
C -4.032257 -0.680803 -0.108511
C -3.976278 -1.328032 -0.345875
C -3.826348 -1.881319 -0.344672
C -3.752458 -2.135181 -0.149255
C -3.707356 -2.169286 0.255385
C -3.662475 -2.021974 0.841544
C -3.647392 -1.648432 1.520618
C -3.477276 -1.173626 2.151944
C -3.374951 -1.025452 2.488787
C -3.107360 -1.022645 2.576182
C -2.742716 -1.283748 2.560225
C -2.358538 -1.622942 2.582443
C -1.922014 -1.997986 2.459900
C -1.582465 -2.342708 2.274684
C -1.421290 -2.790794 2.113039
C -1.231271 -3.004700 1.949119
C -1.251447 -3.067023 1.917666
C -1.292797 -3.045849 1.871377
C -1.436175 -3.162615 1.442182
C -1.647981 -3.315101 1.121868
C -1.823132 -3.448796 0.498909
C -1.960993 -3.469351 -0.260752
C -2.024985 -3.300815 -1.068197
C -2.082402 -3.075121 -1.926570
C -2.160913 -1.981022 -2.068064
C -2.124217 -0.832123 -1.786856
C -2.162602 0.165184 -1.369524
C -2.190658 0.884540 -0.510210
C -1.976666 1.277291 0.253020
C -1.722290 1.550133 1.246347
C -1.577221 1.817230 2.344042
C -1.281208 1.230449 2.664920
C -1.002691 0.556766 3.003440
C -0.732441 -0.065497 3.077881
C -0.434635 -0.521695 3.022363
C -0.361914 -0.628442 3.133324
C -0.421990 -0.822459 3.129510
C -0.290428 -1.093438 2.950191
C -0.185339 -1.148218 2.886873
C -0.063856 -1.061154 2.756832
C 0.076354 -0.894264 2.701539
C 0.201902 -0.550777 2.605592
C 0.263874 -0.182928 2.560899
C 0.343752 0.400147 2.545262
C 0.371491 0.972952 2.604098
C 0.329434 1.409870 2.633737
C 0.276586 1.858346 2.569668
C 0.242420 2.317431 2.550510
C 0.273273 2.609645 2.541973
C 0.318507 2.726400 2.487466
C 0.228596 2.776144 2.423068
C 0.125017 2.765311 2.544217
C 0.181988 2.458061 2.686658
C 0.287461 1.861331 2.693976
C 0.360952 1.034951 2.634859
C 0.339541 0.325882 2.662957
C 0.317795 -0.479652 2.689568
C 0.524972 -1.194821 2.720230
C 0.711233 -1.793151 2.668084
C 0.872441 -1.957259 2.658415
C 0.949085 -1.904208 2.887470
C 1.073429 -1.736982 3.045307
C 1.262518 -1.462479 3.023484
C 1.480450 -0.854753 3.122211
C 1.616484 -0.466455 3.054343
C 1.743813 -0.123207 2.829307
C 1.867400 0.004139 2.757087
C 2.055856 -0.001603 2.524305
C 2.189684 -0.102930 2.375302
C 2.178270 -0.323699 2.314324
C 2.133561 -0.767525 2.139252
C 2.112054 -1.179588 2.080107
C 2.261027 -1.521360 2.129479
C 2.249283 -1.665256 1.962630
C 2.277727 -1.688811 1.860936
C 2.333878 -1.382964 1.749670
C 2.395502 -1.025065 1.640838
C 2.530372 -0.725296 1.505376
C 2.595520 -0.206558 1.403073
C 2.619380 0.332682 1.371369
C 2.642679 0.681050 1.316110
C 2.608992 0.915060 1.174240
C 2.545640 1.046706 1.059238
C 2.663575 1.060372 0.951762
C 2.708334 1.082483 0.850363
C 2.903720 1.074853 0.754932
C 2.993793 0.929687 0.536107
C 3.019303 0.838735 0.379344
C 2.933394 1.023682 0.340845
C 2.902661 1.302105 0.333123
C 2.681403 1.616196 0.365413
C 2.478957 2.007615 0.414966
C 2.138871 2.330602 0.399137
C 1.744356 2.765696 0.375905
C 1.500945 3.143717 0.376063
C 1.443587 3.201669 0.268139
C 1.402389 3.187658 0.132483
C 1.429122 3.243101 -0.018747
C 1.520168 3.184823 -0.171823
C 1.748099 3.001683 -0.341567
C 2.095058 2.659020 -0.556144
C 2.341005 2.377584 -0.827779
C 2.432628 2.287447 -0.948329
C 2.574873 2.177323 -1.157700
C 2.709955 1.930573 -1.309360
C 2.700979 1.811098 -1.505859
C 2.596165 1.919170 -1.638195
C 2.408098 2.045343 -1.723478
C 2.269408 2.053924 -1.822824
C 2.118680 2.092250 -1.942786
C 1.859709 2.202915 -1.916439
C 1.478623 2.478178 -1.947937
C 1.175600 2.741669 -1.859530
C 0.916951 2.753075 -1.852084
C 0.716266 2.726612 -1.864907
C 0.437991 2.827088 -1.873013
C 0.275385 2.852483 -1.998436
C 0.298660 2.710748 -2.105698
C 0.396516 2.499595 -2.131379
C 0.544274 2.207782 -2.350505
C 0.674752 1.930394 -2.493446
C 0.814677 1.684372 -2.370765
C 1.003713 1.357342 -2.322908
C 1.132484 1.074231 -2.302666
C 1.197636 0.865176 -2.321012
C 1.208371 0.511434 -2.350532
C 1.212496 0.319978 -2.400982
C 1.159713 0.120585 -2.457108
C 1.079111 -0.062892 -2.723766
C 1.072692 -0.192119 -2.715793
C 0.976018 -0.393447 -2.893369
C 1.007401 -0.450530 -2.860991
C 1.097428 -0.450621 -2.799449
C 1.130310 -0.632998 -2.615292
C 1.134814 -0.900210 -2.453466
C 1.105050 -1.135238 -2.223548
C 1.013266 -1.455380 -2.178151
C 1.004219 -1.708633 -1.842290
C 0.907193 -1.994230 -1.781166
C 0.983941 -2.091604 -1.822131
C 1.169095 -2.008206 -1.838838
C 1.396975 -1.779164 -1.903169
C 1.674089 -1.433656 -1.901645
C 2.052998 -1.138506 -1.885145
C 2.347508 -0.963032 -1.923427
C 2.506619 -0.902203 -1.877914
C 2.499072 -1.019141 -1.931057
C 2.417204 -1.126343 -1.801087
C 2.346146 -1.328582 -1.636751
C 2.184135 -1.723147 -1.576054
C 1.934611 -1.961739 -1.413262
C 1.756953 -2.166197 -1.247979
C 1.629215 -2.447350 -1.116043
C 1.600140 -2.619906 -0.842259
C 1.524874 -2.848501 -0.761451
C 1.361679 -3.074590 -0.701726
C 1.253554 -3.211677 -0.659021
C 1.142824 -3.361800 -0.596681
C 1.140463 -3.360545 -0.503226
C 1.258665 -3.238991 -0.468433
C 1.394673 -3.082248 -0.484303
C 1.527747 -2.863620 -0.483960
C 1.708363 -2.780603 -0.523792
C 1.953087 -2.571184 -0.469663
C 2.258087 -2.311157 -0.534692
C 2.538307 -2.129861 -0.686644
C 2.599571 -2.025925 -0.736267
C 2.590825 -2.033856 -0.809976
C 2.624273 -2.184483 -0.894618
