204
chr15 3D structure from Hi-C (resolution 500000bp)
C -2.665565 3.430932 -2.351751
C -2.877028 3.361981 -1.986348
C -3.049791 3.280557 -1.593907
C -3.124949 3.274634 -1.222367
C -3.229535 3.377993 -0.655933
C -3.315827 3.445963 -0.291156
C -3.489519 3.275712 -0.201896
C -3.634509 3.035066 -0.274577
C -3.640205 2.839616 -0.560556
C -3.593092 2.610587 -1.046128
C -3.560865 2.257050 -1.685981
C -3.517100 1.838003 -2.348819
C -3.397894 1.454078 -2.929440
C -3.123284 1.200456 -3.389958
C -2.821810 0.897368 -3.792397
C -2.545868 0.539345 -4.096803
C -2.295636 0.143018 -4.304547
C -2.082834 -0.287449 -4.403428
C -1.970914 -0.774411 -4.378970
C -2.021265 -1.275428 -4.253257
C -2.209512 -1.629865 -4.059476
C -2.476977 -1.784692 -3.807764
C -2.872702 -1.633985 -3.327183
C -3.282817 -1.321966 -2.782283
C -3.690262 -0.861652 -2.191431
C -4.042929 -0.301108 -1.570336
C -4.285807 0.276128 -0.890796
C -4.392333 0.797767 -0.119685
C -4.404736 1.206295 0.710870
C -4.296333 1.333480 1.332771
C -4.228191 1.309078 1.801904
C -4.194985 1.152347 2.060377
C -4.209409 0.846001 1.940323
C -4.102626 0.233949 1.475680
C -3.965778 -0.518313 0.857601
C -3.821417 -1.306192 0.171619
C -3.654373 -2.049743 -0.363461
C -3.447975 -2.675091 -0.754708
C -3.369678 -3.073906 -1.037672
C -3.359639 -3.133923 -0.909710
C -3.500003 -2.889793 -0.442414
C -3.616431 -2.587120 0.251052
C -3.612609 -2.199020 0.974364
C -3.635849 -1.999041 1.445084
C -3.426184 -1.850754 1.797393
C -3.087364 -1.955944 2.113235
C -2.623267 -2.294798 2.246218
C -2.116769 -2.503183 2.333458
C -1.682002 -2.713058 2.255034
C -1.460075 -3.010521 2.081193
C -1.210565 -3.114860 2.005201
C -1.230737 -3.166982 1.999542
C -1.284886 -3.090797 1.987827
C -1.642633 -2.962626 1.908156
C -1.998778 -2.978004 1.783778
C -2.485931 -2.890932 1.373795
C -2.939677 -2.653647 0.884478
C -3.400914 -2.278857 0.302457
C -3.795116 -1.815550 -0.324321
C -3.856480 -0.738271 -0.557461
C -3.640369 0.261970 -0.511259
C -3.527108 1.110963 -0.311115
C -3.295427 1.755527 0.261625
C -2.751042 1.968074 0.811988
C -2.197358 2.010833 1.396930
C -1.748823 2.095109 2.216660
C -1.443167 1.508083 2.620033
C -1.217560 0.860504 2.949169
C -0.882498 0.247474 3.090943
C -0.575710 -0.211859 3.177027
C -0.525105 -0.249304 3.311613
C -0.563836 -0.380596 3.497607
C -0.457431 -0.652559 3.416364
C -0.380077 -0.734306 3.374514
C -0.206646 -0.741377 3.214902
C -0.071240 -0.604126 3.190423
C 0.055248 -0.388656 3.009341
C 0.130227 -0.062352 2.925403
C 0.249357 0.575959 2.792062
C 0.408518 1.146057 2.685734
C 0.424969 1.643243 2.548011
C 0.367540 2.205011 2.471628
C 0.253184 2.711319 2.354736
C 0.274196 3.055675 2.302925
C 0.289809 3.141278 2.197737
C 0.324170 3.078523 2.282788
C 0.121365 3.051129 2.470085
C 0.146056 2.741362 2.649381
C 0.244863 2.041371 2.689755
C 0.305921 1.202277 2.733469
C 0.272680 0.398558 2.758630
C 0.214243 -0.379209 2.936409
C 0.266896 -1.100814 2.933069
C 0.503908 -1.725127 2.898741
C 0.642729 -1.956836 2.920131
C 0.802320 -1.909439 3.100358
C 0.960612 -1.751554 3.243610
C 1.163654 -1.463173 3.340937
C 1.462279 -0.927498 3.373150
C 1.640974 -0.545499 3.284458
C 1.732859 -0.204349 3.007411
C 1.838114 0.045185 2.941084
C 1.955621 0.050589 2.800085
C 2.058767 -0.179322 2.565663
C 2.065902 -0.390584 2.478914
C 2.029371 -0.728547 2.296083
C 2.053387 -1.047051 2.280797
C 2.233774 -1.401513 2.375565
C 2.271484 -1.653581 2.233504
C 2.333978 -1.588194 2.129997
C 2.457293 -1.206665 2.023033
C 2.549471 -0.823690 1.824066
C 2.677598 -0.595198 1.678146
C 2.719423 -0.166631 1.486032
C 2.750456 0.384922 1.457131
C 2.760875 0.726041 1.388931
C 2.708969 0.959820 1.241189
C 2.697439 1.056739 1.134052
C 2.815382 1.140321 1.116553
C 2.881807 1.135142 1.043651
C 3.072133 1.038393 0.995849
C 3.155546 0.888216 0.833476
C 3.185041 0.842669 0.688899
C 3.119814 0.988974 0.611837
C 3.088043 1.334572 0.582767
C 2.878324 1.594454 0.519339
C 2.630696 2.025785 0.474466
C 2.268404 2.475126 0.362529
C 1.833776 2.954109 0.169056
C 1.583504 3.314935 0.031735
C 1.535479 3.423124 -0.033142
C 1.410437 3.444035 -0.137142
C 1.476676 3.455208 -0.267410
C 1.562477 3.357719 -0.409732
C 1.837427 3.168003 -0.536390
C 2.188656 2.897586 -0.615937
C 2.439980 2.696932 -0.725838
C 2.535915 2.578790 -0.879927
C 2.718741 2.399681 -1.102258
C 2.766181 2.172029 -1.346169
C 2.775570 2.062521 -1.496040
C 2.646510 2.082621 -1.715290
C 2.464816 1.969228 -2.012552
C 2.292346 1.886994 -2.208195
C 2.144768 1.916130 -2.299059
C 1.885472 2.067689 -2.329136
C 1.526838 2.373724 -2.279449
C 1.229241 2.658300 -2.300008
C 0.960261 2.757807 -2.235948
C 0.789163 2.834253 -2.185295
C 0.557274 2.861148 -2.255743
C 0.339909 2.900926 -2.408043
C 0.320857 2.758170 -2.426219
C 0.451263 2.547073 -2.515805
C 0.579016 2.242412 -2.633213
C 0.676631 1.948295 -2.743049
C 0.826629 1.725428 -2.504839
C 1.097164 1.490904 -2.352451
C 1.365967 1.079580 -2.325936
C 1.464475 0.789630 -2.407114
C 1.483760 0.364733 -2.418330
C 1.487513 0.082682 -2.458066
C 1.482415 -0.076578 -2.525714
C 1.511222 -0.278716 -2.765527
C 1.496718 -0.433445 -2.630952
C 1.329218 -0.563953 -2.823383
C 1.434860 -0.594614 -2.744261
C 1.566925 -0.581671 -2.624461
C 1.624788 -0.711453 -2.395099
C 1.592558 -1.074117 -2.106777
C 1.398152 -1.345916 -1.913138
C 1.184043 -1.690299 -1.956973
C 1.095866 -1.994974 -1.610007
C 0.884712 -2.295423 -1.581163
C 0.932988 -2.385379 -1.508907
C 1.124504 -2.328056 -1.588204
C 1.459772 -1.996893 -1.649714
C 1.831278 -1.615800 -1.620370
C 2.336575 -1.308032 -1.583442
C 2.661216 -1.121711 -1.628003
C 2.801742 -1.066985 -1.611059
C 2.746689 -1.249406 -1.747286
C 2.665312 -1.349162 -1.612074
C 2.478465 -1.616213 -1.463084
C 2.252177 -2.054112 -1.351495
C 1.938786 -2.331165 -1.273016
C 1.760149 -2.534328 -1.002590
C 1.692238 -2.781376 -0.788883
C 1.689678 -2.855840 -0.486059
C 1.589628 -3.103032 -0.332128
C 1.487762 -3.303222 -0.341028
C 1.365404 -3.401404 -0.351796
C 1.235002 -3.551303 -0.310210
C 1.246217 -3.505872 -0.349039
C 1.381389 -3.368930 -0.389629
C 1.481561 -3.239955 -0.452940
C 1.697538 -3.018412 -0.513579
C 1.838939 -2.956599 -0.554586
C 2.142487 -2.709965 -0.593399
C 2.433787 -2.447743 -0.790640
C 2.472156 -2.321803 -1.110827
C 2.488435 -2.245601 -1.190869
C 2.446656 -2.271904 -1.353582
C 2.309162 -2.392037 -1.600254
