342
chr6 3D structure from Hi-C (resolution 500000bp)
C 2.337600 -2.493260 0.264435
C 2.326132 -2.480812 0.195823
C 2.292792 -2.461862 0.172038
C 2.300239 -2.427507 0.166745
C 2.162427 -2.477544 0.095411
C 2.048031 -2.412470 -0.013576
C 1.966547 -2.448076 -0.098128
C 1.895363 -2.472716 -0.151794
C 1.801988 -2.478357 -0.188569
C 1.763830 -2.467563 -0.273214
C 1.696267 -2.396204 -0.320327
C 1.661955 -2.440047 -0.374209
C 1.661243 -2.377773 -0.428588
C 1.541944 -2.192434 -0.515704
C 1.260401 -2.203335 -0.713192
C 1.024268 -2.205637 -0.884324
C 0.751031 -2.240735 -1.014242
C 0.543251 -2.335503 -1.192332
C 0.432591 -2.317582 -1.275152
C 0.518721 -2.238477 -1.225276
C 0.756875 -2.204071 -1.125244
C 1.129527 -2.112770 -0.922467
C 1.328494 -2.152280 -0.859122
C 1.658175 -2.081801 -0.778512
C 1.954330 -2.022733 -0.694447
C 2.165440 -1.935255 -0.669636
C 2.265440 -1.950268 -0.720232
C 2.329260 -1.928411 -0.704883
C 2.297026 -1.942071 -0.838521
C 2.394866 -1.777133 -0.859558
C 2.300823 -1.697559 -0.912113
C 2.067075 -1.718984 -1.030518
C 1.862976 -1.725438 -1.159359
C 1.614693 -1.718325 -1.258329
C 1.214354 -1.770716 -1.523162
C 0.846941 -1.789885 -1.646473
C 0.553723 -1.845684 -1.764014
C 0.480936 -1.860497 -1.881863
C 0.582293 -1.775159 -1.845157
C 0.668101 -1.763719 -1.898495
C 0.747369 -1.771925 -1.987234
C 0.994857 -1.784656 -2.004937
C 1.102553 -1.863321 -2.051325
C 1.118807 -1.903933 -2.076619
C 0.993447 -1.975342 -2.120042
C 0.890055 -2.030356 -2.263192
C 0.945229 -1.895492 -2.175997
C 1.058143 -1.774850 -1.957679
C 1.081401 -1.645225 -1.795339
C 1.468130 -1.476031 -1.480859
C 1.647097 -1.663637 -1.316666
C 2.032631 -1.565246 -1.202528
C 2.380730 -1.469303 -0.938513
C 2.495352 -1.430302 -0.869073
C 1.975246 -1.886173 -0.981591
C 1.386910 -2.280287 -1.063454
C 0.558957 -2.577226 -1.305030
C -0.050109 -2.494065 -1.422377
C -0.001616 -1.802565 -1.120203
C -0.984028 -1.997472 -1.208000
C -1.874110 -2.295725 -1.207162
C -2.119548 -2.189245 -1.092587
C -2.175591 -2.195857 -0.926048
C -1.852765 -2.373507 -0.630319
C -0.887083 -2.006769 -0.291569
C -0.756151 -2.540794 -0.282171
C 0.336491 -2.131722 -0.062724
C 1.349630 -1.795572 0.118290
C 2.280449 -1.368596 0.227403
C 3.174306 -0.835555 0.303605
C 3.738440 -0.177971 0.241816
C 3.711056 -0.087238 0.190902
C 3.579710 -0.048078 0.065825
C 3.457853 -0.020321 -0.083063
C 3.312113 0.051858 -0.248512
C 3.229887 0.108818 -0.411978
C 3.130145 0.088642 -0.641548
C 3.014883 0.046722 -0.882774
C 2.856038 -0.020930 -1.126620
C 2.854777 -0.013375 -1.289047
C 2.877737 -0.097389 -1.337609
C 2.957670 -0.075999 -1.328581
C 3.074207 -0.021830 -1.269833
C 3.189608 0.087876 -1.206991
C 3.268795 0.202442 -1.128911
C 3.316540 0.278023 -1.156938
C 3.146717 0.311671 -1.256621
C 2.953478 0.337201 -1.405849
C 2.787717 0.276573 -1.605265
C 2.518937 0.229290 -1.868346
C 2.153843 0.071194 -2.143431
C 1.841348 -0.039109 -2.327775
C 1.558398 -0.120956 -2.425868
C 1.252931 -0.206556 -2.559759
C 0.943804 -0.260474 -2.685231
C 0.652110 -0.286520 -2.779391
C 0.346979 -0.454104 -2.862298
C 0.102051 -0.505870 -2.894723
C -0.084848 -0.556189 -2.993415
C -0.260013 -0.588056 -3.005889
C -0.188013 -0.550608 -2.968694
C 0.029404 -0.463878 -2.933098
C 0.195247 -0.417966 -2.838424
C 0.471340 -0.272215 -2.789948
C 0.644885 -0.141662 -2.685251
C 0.676848 -0.134417 -2.700702
C 0.716257 -0.069107 -2.766974
C 0.552055 -0.081505 -2.812117
C 0.191958 -0.189932 -2.875494
C 0.057245 -0.128223 -2.973537
C 0.045882 0.026460 -2.965804
C 0.232421 0.200917 -2.989334
C 0.206855 0.364688 -3.034776
C -0.016665 0.271997 -3.053073
C 0.526777 0.800529 -2.721197
C 0.444398 0.264100 -2.337751
C 0.133820 -0.360190 -2.020697
C -0.497556 -0.684887 -1.981352
C -1.136034 -0.957429 -1.967663
C -1.564888 -1.224613 -1.776689
C -1.717401 -1.178076 -1.652868
C -2.543278 -1.706387 -1.900319
C -2.630875 -1.095517 -2.233121
C -2.446636 -0.453802 -2.397189
C -2.057369 -0.182535 -2.316442
C -1.899514 -0.041192 -2.194669
C -1.781657 0.180476 -2.216426
C -1.655273 0.300024 -2.190203
C -1.561742 0.393342 -2.161155
C -1.518303 0.477861 -2.088402
C -1.631651 0.518512 -2.151203
C -1.841169 0.523618 -2.185942
C -1.875489 0.613612 -2.316080
C -1.607721 0.790219 -2.349215
C -1.555219 0.908821 -2.408417
C -1.423751 1.035331 -2.468616
C -1.144704 1.086911 -2.330706
C -0.945760 1.185026 -2.307004
C -0.696471 1.337140 -2.339803
C -0.547079 1.371125 -2.246654
C -0.649535 1.280600 -2.086931
C -0.562672 1.280962 -1.986672
C -0.315516 1.276931 -1.751565
C -0.186308 1.407798 -1.758620
C -0.092207 1.497768 -1.691244
C -0.233773 1.459396 -1.628681
C -0.143286 1.614424 -1.670529
C 0.093290 1.853839 -1.751555
C 0.220444 1.964406 -1.736793
C -0.092002 1.969354 -1.804208
C -0.411435 1.919933 -1.824240
C -0.718708 1.933998 -1.840782
C -0.826588 1.996787 -1.822382
C -1.090205 1.908540 -1.740802
C -1.296850 1.838115 -1.673715
C -1.235246 1.906142 -1.649550
C -1.167092 1.998433 -1.660476
C -1.018014 2.026514 -1.605069
C -1.082042 1.933435 -1.567358
C -1.145631 1.878174 -1.559383
C -0.992435 1.985765 -1.535550
C -0.893146 2.064119 -1.492363
C -1.062325 2.103223 -1.486567
C -0.855316 2.165695 -1.368626
C -0.790473 2.332850 -1.379957
C -0.532808 2.555797 -1.351097
C -0.270644 2.657168 -1.277228
C -0.172182 2.692154 -1.189644
C -0.029657 2.714539 -1.114023
C -0.098397 2.631200 -1.018358
C -0.267004 2.662771 -1.021083
C -0.114013 2.597284 -0.916030
C 0.119183 2.456461 -0.780548
C 0.395017 2.497233 -0.611149
C 0.632874 2.376785 -0.495168
C 0.727381 2.179707 -0.361682
C 1.062791 2.160689 -0.237302
C 1.315764 2.127078 -0.104999
C 1.107176 2.053167 -0.047024
C 0.853671 2.134054 -0.024000
C 0.637393 2.218486 -0.038149
C 0.321440 2.389752 -0.016338
C -0.046883 2.591667 -0.042514
C -0.317678 2.782281 -0.022820
C -0.795808 2.739727 -0.090523
C -1.092741 2.742948 -0.142053
C -1.433847 2.670929 -0.174743
C -1.633426 2.697465 -0.086500
C -1.697766 2.626356 -0.041637
C -1.834599 2.657488 -0.058498
C -1.841066 2.519608 -0.017011
C -1.584751 2.580180 0.163876
C -1.522962 2.626826 0.224253
C -1.424581 2.643081 0.255814
C -1.509741 2.528393 0.217275
C -1.460429 2.362740 0.210475
C -1.239967 2.257684 0.321279
C -1.311521 2.241320 0.347544
C -1.248180 2.167084 0.300368
C -1.287877 2.025896 0.294446
C -1.251375 2.069457 0.484345
C -1.285276 2.045361 0.553188
C -1.543768 2.144163 0.574752
C -1.738782 2.076385 0.583801
C -1.992822 1.926918 0.475183
C -2.229488 1.863598 0.444003
C -1.993980 1.906833 0.544963
C -1.659760 1.829268 0.505435
C -1.193140 1.802952 0.592197
C -0.617633 1.771024 0.661927
C -0.095239 1.697040 0.752638
C 0.614546 1.723987 0.917578
C 1.153557 1.667030 1.011633
C 1.524116 1.631802 1.039003
C 1.718114 1.492224 1.072758
C 1.877341 1.385444 1.087303
C 1.457365 0.943125 0.947088
C 1.490325 0.957177 0.966449
C 1.505203 1.028535 1.026514
C 1.522796 1.159630 1.104982
C 1.409549 1.227838 1.197263
C 1.142966 1.325885 1.195899
C 0.367947 1.119055 0.983896
C 0.170835 1.239858 1.004705
C -0.041804 1.298639 0.989242
C -0.739645 1.090735 0.832432
C -1.371646 0.856390 0.695415
C -1.899783 0.771525 0.607178
C -2.242363 0.644142 0.550262
C -1.729612 0.897353 0.760285
C -1.497365 1.082128 0.895857
C -1.796371 0.924141 0.828342
C -1.603690 0.927687 0.927868
C -1.598997 0.924315 1.006958
C -1.301130 0.848121 1.014638
C -1.027049 0.872715 1.092780
C -1.291905 0.779981 1.059565
C -1.574207 0.747858 1.026447
C -1.763737 0.726933 1.111955
C -1.899834 0.685352 1.162784
C -2.040686 0.631493 1.142610
C -2.285417 0.678500 1.249280
C -2.518252 0.655593 1.297454
C -2.665500 0.612513 1.385905
C -2.511995 0.646120 1.554421
C -2.469621 0.612173 1.607238
C -2.484722 0.661376 1.660709
C -2.302396 0.690576 1.772051
C -2.095941 0.765184 1.900169
C -2.006397 0.818212 2.002624
C -1.918010 0.887039 2.041122
C -1.843341 0.896998 2.075141
C -1.965642 0.748329 1.959904
C -2.183404 0.368709 1.611889
C -2.065276 0.485249 1.644826
C -2.161186 0.516316 1.596304
C -1.924127 0.502808 1.549747
C -1.716981 0.408648 1.493894
C -1.535812 0.283377 1.370667
C -1.126007 0.468563 1.549626
C -0.668371 0.936487 1.978371
C -0.515530 0.952293 2.036175
C -0.302976 0.928066 2.106471
C -0.386955 1.008577 2.241261
C -0.405530 1.099087 2.326507
C -0.217321 1.212260 2.503878
C -0.047862 1.287613 2.509170
C 0.284691 1.252487 2.512249
C 0.385361 1.233442 2.528525
C 0.567685 1.118468 2.568129
C 0.844524 0.986080 2.515023
C 1.164832 0.851238 2.516668
C 1.244333 0.755980 2.475415
C 1.356960 0.608949 2.535650
C 1.284515 0.532219 2.542773
C 1.292307 0.470897 2.587223
C 1.126233 0.491847 2.580889
C 0.894136 0.445751 2.726244
C 0.567635 0.459615 2.823563
C 0.245594 0.521898 3.017332
C -0.139849 0.528711 3.065714
C -0.464538 0.493316 3.092591
C -0.553013 0.432739 3.036519
C -0.584506 0.345267 2.983153
C -0.560318 0.280314 2.788668
C -0.366053 0.194686 2.804097
C -0.247846 0.096147 2.706485
C -0.142601 0.046504 2.708828
C -0.047175 -0.002759 2.810406
C -0.378313 -0.160025 2.816058
C -0.704127 -0.306589 2.756926
C -0.958936 -0.442544 2.819348
C -1.284116 -0.481372 2.665469
C -1.474796 -0.591075 2.497817
C -1.379914 -0.659768 2.408515
C -1.139282 -0.678467 2.222928
C -0.579814 -0.675123 2.249848
C -0.150089 -0.695517 2.293135
C 0.235865 -0.611463 2.242285
C 0.537620 -0.685784 2.355284
C 0.655238 -0.750684 2.497988
C 0.568148 -0.747102 2.517329
C 0.276280 -0.813311 2.598763
C -0.122057 -0.781061 2.546737
C -0.495371 -0.818080 2.497945
C -0.716316 -0.871474 2.428225
C -0.767268 -0.885228 2.388219
C -0.634625 -0.842283 2.295110
C -0.590591 -0.920213 2.281091
C -0.398613 -1.076300 2.292996
C -0.048576 -1.240997 2.372638
C 0.366935 -1.231913 2.405387
C 0.609863 -1.296618 2.457869
C 0.792394 -1.277232 2.404984
C 0.952090 -1.315338 2.422496
C 1.093535 -1.403111 2.450692
C 1.112238 -1.320182 2.361744
C 0.877631 -1.315475 2.272470
C 0.645412 -1.477101 2.316661
C 0.357197 -1.552694 2.367394
C -0.042658 -1.669708 2.374173
C -0.507769 -1.719380 2.335250
C -0.843288 -1.668582 2.265446
C -1.083682 -1.697987 2.263300
C -1.184554 -1.701749 2.254038
C -1.398992 -1.627236 2.115868
C -1.585166 -1.646523 1.994464
C -1.689005 -1.648432 1.904082
C -1.671288 -1.684201 1.889096
C -1.442712 -1.804200 1.876317
C -1.224486 -1.892598 1.865742
C -1.044259 -1.943463 1.848778
C -0.837622 -2.059024 1.899375
C -0.730164 -2.099963 1.885168
C -0.752775 -2.176043 1.859300
C -0.853894 -2.275413 1.757625
C -1.100913 -2.417875 1.658087
C -1.362297 -2.558042 1.599903
C -1.571677 -2.829107 1.474872
C -1.730887 -2.894663 1.377068
C -1.791564 -3.029617 1.333481
C -1.704464 -3.211358 1.316432
