342
chr6 3D structure from Hi-C (resolution 500000bp)
C 2.533740 -2.204622 0.666909
C 2.483474 -2.224387 0.636099
C 2.466842 -2.161884 0.605345
C 2.492949 -2.081576 0.568159
C 2.405958 -2.132891 0.456095
C 2.305386 -2.158099 0.299525
C 2.326318 -2.134496 0.238026
C 2.342515 -2.059795 0.163651
C 2.295926 -2.107232 0.104521
C 2.215478 -2.173742 0.029766
C 2.152200 -2.146450 0.019579
C 2.084767 -2.162249 0.006603
C 1.990632 -2.141771 -0.004917
C 1.773912 -2.070864 -0.107864
C 1.447103 -2.266679 -0.230108
C 1.176609 -2.302950 -0.371022
C 0.957914 -2.393422 -0.499226
C 0.714143 -2.547483 -0.679965
C 0.622143 -2.611335 -0.777733
C 0.723535 -2.501145 -0.809844
C 0.971566 -2.403806 -0.765889
C 1.268174 -2.293729 -0.730644
C 1.537190 -2.257408 -0.711638
C 1.791472 -2.137103 -0.677828
C 2.098910 -2.051352 -0.571262
C 2.268476 -1.974065 -0.549971
C 2.365697 -2.005128 -0.538220
C 2.398538 -2.018373 -0.586837
C 2.434804 -1.961352 -0.593917
C 2.463470 -1.814756 -0.610237
C 2.416866 -1.712690 -0.656706
C 2.204771 -1.763005 -0.853796
C 2.028852 -1.715134 -1.034452
C 1.751478 -1.725077 -1.136155
C 1.355749 -1.834559 -1.293684
C 0.950059 -1.978710 -1.426357
C 0.629067 -2.101901 -1.579479
C 0.525894 -2.185934 -1.632314
C 0.571961 -2.108453 -1.593778
C 0.598822 -2.191816 -1.609731
C 0.617980 -2.260382 -1.670125
C 0.761450 -2.317023 -1.672912
C 0.917046 -2.353251 -1.693196
C 0.953642 -2.381341 -1.699489
C 0.821046 -2.507178 -1.750807
C 0.711451 -2.619254 -1.839913
C 0.791816 -2.379099 -1.763826
C 0.993926 -2.142172 -1.676275
C 1.158798 -1.876035 -1.537294
C 1.503248 -1.581924 -1.284877
C 2.050854 -1.371817 -0.918447
C 2.470017 -1.127539 -0.871220
C 2.874689 -0.923116 -0.649146
C 3.000966 -0.935606 -0.592447
C 2.595048 -1.482396 -0.408778
C 2.098087 -2.020380 -0.288685
C 2.120763 -1.501848 -0.458277
C 1.925347 -0.769489 -0.703744
C 1.831333 -0.021823 -0.656443
C 0.918074 -0.407192 -0.601405
C 0.105966 -0.817642 -0.473929
C 0.640475 0.368344 -0.418793
C 1.408253 1.197887 -0.309142
C 1.043464 0.145556 0.074881
C 1.235495 -0.394398 0.267167
C 1.495317 -0.896436 0.472694
C 2.484930 -0.314352 0.546075
C 3.427008 0.212789 0.519735
C 3.473189 -0.283056 0.475954
C 3.414816 -0.419397 0.311544
C 3.808153 0.259475 0.117923
C 3.767286 0.348613 0.026135
C 3.623822 0.301472 -0.048365
C 3.463503 0.340960 -0.198065
C 3.310514 0.355971 -0.300833
C 3.234550 0.282984 -0.497416
C 3.121362 0.243634 -0.662100
C 2.984340 0.163048 -0.900893
C 2.816066 0.057957 -1.072130
C 2.829719 0.039809 -1.236092
C 2.870749 -0.007829 -1.347123
C 2.934219 0.044339 -1.360966
C 3.023104 0.196486 -1.412271
C 3.122009 0.333129 -1.408469
C 3.214463 0.463884 -1.347304
C 3.266509 0.482606 -1.396141
C 3.082351 0.438169 -1.504493
C 2.862710 0.356004 -1.633439
C 2.686144 0.217904 -1.817899
C 2.410399 -0.025614 -1.966513
C 2.083388 -0.295822 -2.171702
C 1.800576 -0.437396 -2.350225
C 1.495417 -0.579058 -2.423022
C 1.128762 -0.771113 -2.524122
C 0.794365 -0.944778 -2.556706
C 0.439542 -1.052338 -2.587367
C 0.229143 -1.106888 -2.686342
C -0.003224 -1.174752 -2.713828
C -0.232528 -1.341441 -2.788060
C -0.335633 -1.386800 -2.824702
C -0.182785 -1.282659 -2.833769
C 0.094239 -1.156755 -2.846237
C 0.314798 -1.046297 -2.792411
C 0.505357 -0.853955 -2.727540
C 0.642671 -0.727401 -2.656258
C 0.674705 -0.616129 -2.675651
C 0.646767 -0.565018 -2.715617
C 0.500606 -0.576071 -2.759642
C 0.251700 -0.589648 -2.888845
C 0.123911 -0.540827 -2.995477
C 0.107995 -0.460563 -3.016347
C 0.208891 -0.323290 -3.128695
C 0.083604 -0.415445 -3.150279
C -0.152997 -0.549530 -3.111030
C -0.402240 -1.002151 -2.772184
C -0.695523 -1.463023 -2.387183
C -1.123291 -1.940706 -2.132808
C -1.712848 -2.318004 -2.037908
C -2.280824 -2.580913 -1.858361
C -2.591004 -2.699693 -1.644389
C -2.674466 -2.642748 -1.602831
C -2.708847 -2.241346 -1.830251
C -2.724854 -1.820229 -2.068479
C -2.370747 -1.260506 -2.230558
C -2.009300 -0.939993 -2.202042
C -1.801597 -0.762277 -2.156065
C -1.711782 -0.515590 -2.230475
C -1.588506 -0.361067 -2.198987
C -1.525800 -0.232951 -2.203264
C -1.482721 -0.079183 -2.189440
C -1.659707 -0.122458 -2.199734
C -1.904942 -0.147307 -2.166477
C -2.053310 -0.102615 -2.277505
C -1.867927 0.107277 -2.398726
C -1.886339 0.203619 -2.465094
C -1.771937 0.350358 -2.539502
C -1.468229 0.458972 -2.425478
C -1.243662 0.603134 -2.451299
C -0.938224 0.795699 -2.555680
C -0.737303 0.858597 -2.543667
C -0.768772 0.787701 -2.357302
C -0.685390 0.862167 -2.261962
C -0.446483 0.944442 -2.016506
C -0.344305 1.052073 -2.045873
C -0.268602 1.134078 -1.946006
C -0.377776 1.153743 -1.935462
C -0.336963 1.279516 -2.012449
C -0.151777 1.462428 -2.181196
C -0.002700 1.584251 -2.185135
C -0.286951 1.545496 -2.289300
C -0.576638 1.467131 -2.335288
C -0.878197 1.446594 -2.428693
C -1.031926 1.462135 -2.437120
C -1.252010 1.393744 -2.306831
C -1.408923 1.356152 -2.148586
C -1.384874 1.430614 -2.137525
C -1.312889 1.553433 -2.162406
C -1.230991 1.589632 -2.082085
C -1.311698 1.498041 -1.969296
C -1.396537 1.418214 -1.889233
C -1.437966 1.388604 -1.847607
C -1.338085 1.491321 -1.832271
C -1.474284 1.502087 -1.812298
C -1.323795 1.535674 -1.707065
C -1.287189 1.738546 -1.739736
C -1.045347 1.995252 -1.780041
C -1.020482 2.004494 -1.696640
C -0.768297 2.166432 -1.644782
C -0.730570 2.247022 -1.560914
C -0.875835 2.118747 -1.505782
C -1.068826 2.120455 -1.506011
C -0.887049 2.102747 -1.400552
C -0.650239 2.000325 -1.242886
C -0.214700 2.201427 -1.163526
C 0.013377 2.253008 -1.016018
C 0.220140 2.077172 -0.900473
C 0.607107 2.123098 -0.751244
C 0.885052 2.158949 -0.643513
C 0.653810 1.983633 -0.583615
C 0.262612 1.972102 -0.588382
C -0.105600 1.984650 -0.600887
C -0.565768 1.956095 -0.648168
C -1.092757 1.983080 -0.661202
C -1.636508 1.939300 -0.733564
C -2.131682 1.834567 -0.696793
C -2.389831 1.858228 -0.692269
C -2.618503 1.814511 -0.647064
C -2.750194 1.782093 -0.614988
C -2.619494 1.843799 -0.565621
C -2.434542 2.114726 -0.549866
C -2.104245 2.279490 -0.411108
C -1.832555 2.438957 -0.330046
C -1.619611 2.671106 -0.256990
C -1.489170 2.771659 -0.166279
C -1.240476 2.871249 -0.063479
C -1.171353 2.751495 -0.003418
C -1.160710 2.548537 0.032651
C -1.255866 2.491656 0.027611
C -1.193632 2.377438 0.055402
C -1.257811 2.202491 0.072099
C -1.204702 2.314251 0.124595
C -1.386135 2.261821 0.137775
C -1.500306 2.440297 0.221296
C -1.659307 2.374961 0.291556
C -1.753834 2.421982 0.393800
C -1.916102 2.448817 0.403103
C -1.768372 2.422127 0.427646
C -1.466978 2.328161 0.456831
C -1.014985 2.267355 0.505847
C -0.596324 2.146468 0.524003
C -0.059173 2.138979 0.577835
C 0.461330 2.010374 0.590921
C 0.972863 1.969339 0.659890
C 1.331999 1.963605 0.720144
C 1.537048 1.861714 0.755901
C 1.636555 1.837429 0.832292
C 1.666457 1.906429 0.871908
C 1.645113 1.969385 0.925991
C 1.704775 2.041680 1.000537
C 1.698823 2.124156 1.078012
C 1.557066 2.229175 1.139046
C 1.194327 2.262473 1.140299
C 0.468611 1.932059 1.004565
C -0.163930 1.473453 0.903930
C -0.339125 1.421833 0.870771
C -1.063618 1.096565 0.717726
C -1.679809 0.871469 0.607725
C -2.180572 0.678042 0.524370
C -2.425594 0.459275 0.442427
C -1.940195 0.767788 0.613867
C -1.664261 0.995102 0.685979
C -1.930247 0.853130 0.692697
C -1.659125 1.113358 0.849826
C -1.558127 1.237740 0.941157
C -1.241673 1.216169 1.005250
C -0.985755 1.254862 1.080945
C -1.268946 1.057001 1.039139
C -1.576237 0.949639 1.039517
C -1.757671 0.830886 1.051985
C -1.988871 0.615964 1.034156
C -2.212698 0.351537 1.013156
C -2.459601 0.270099 1.045146
C -2.666212 0.289908 1.093379
C -2.795539 0.316349 1.158343
C -2.717218 0.311105 1.273591
C -2.665298 0.426687 1.417409
C -2.659030 0.452732 1.462378
C -2.480863 0.649182 1.560017
C -2.246121 0.902306 1.709963
C -2.106496 0.994386 1.870092
C -2.086634 1.003300 1.906112
C -2.004715 1.045257 1.970542
C -2.131492 0.789711 1.877318
C -2.279591 0.308213 1.640964
C -2.257469 0.171919 1.608598
C -2.471231 0.072579 1.572060
C -2.240867 0.053429 1.496934
C -1.826544 0.039726 1.463420
C -1.525705 0.116450 1.394691
C -1.066050 0.476647 1.504269
C -0.668819 1.101472 1.835524
C -0.473928 1.211171 1.879881
C -0.223995 1.238307 1.992378
C -0.601767 0.947180 1.953351
C -0.781931 0.970872 2.065570
C -0.699702 1.064168 2.169191
C -0.573687 1.001959 2.172049
C -0.221766 0.973920 2.184665
C -0.034623 1.036744 2.258416
C 0.172127 1.027635 2.270238
C 0.685399 1.306331 2.423386
C 1.058339 1.286750 2.409752
C 1.192430 1.132239 2.398280
C 1.301221 1.103100 2.475314
C 1.203971 1.027011 2.474856
C 1.168952 0.982835 2.508806
C 0.891022 0.883168 2.517958
C 0.655706 0.967544 2.616597
C 0.268874 0.998089 2.730692
C -0.145413 1.047208 2.910624
C -0.592212 0.984668 2.925398
C -0.916574 0.921328 2.999823
C -1.039878 0.830698 2.956693
C -0.964910 0.776713 2.914871
C -0.894691 0.604587 2.788355
C -0.637126 0.516747 2.792826
C -0.457761 0.500778 2.724249
C -0.380413 0.423946 2.721752
C -0.196982 0.390103 2.835204
C -0.420724 0.255123 2.923257
C -0.661238 0.107761 2.893235
C -0.820478 -0.085327 3.007079
C -1.094289 -0.209802 2.879043
C -1.201365 -0.359833 2.780413
C -0.954976 -0.332368 2.730385
C -0.752776 -0.308370 2.523097
C -0.251042 -0.275754 2.496251
C 0.178308 -0.224437 2.541878
C 0.442194 -0.157043 2.392607
C 0.684135 -0.190056 2.503908
C 0.764461 -0.245059 2.637549
C 0.648546 -0.321679 2.659905
C 0.281626 -0.453705 2.734022
C -0.107243 -0.501331 2.680963
C -0.411291 -0.596532 2.696661
C -0.593212 -0.604227 2.709230
C -0.588324 -0.590310 2.734239
C -0.488530 -0.584394 2.586393
C -0.468866 -0.630589 2.649366
C -0.291580 -0.725112 2.693612
C 0.104429 -0.790517 2.783470
C 0.416963 -0.766463 2.769736
C 0.679289 -0.786206 2.813806
C 0.833645 -0.760609 2.696841
C 0.999902 -0.769096 2.722877
C 1.152681 -0.877129 2.674284
C 1.265979 -0.781188 2.541189
C 1.035407 -0.814077 2.465538
C 0.841851 -0.984230 2.487969
C 0.566307 -1.144363 2.495786
C 0.111667 -1.281312 2.487693
C -0.338913 -1.414403 2.440099
C -0.700071 -1.384833 2.375418
C -0.946153 -1.472327 2.407953
C -1.066394 -1.520211 2.374114
C -1.234381 -1.525917 2.255287
C -1.383753 -1.582880 2.203533
C -1.436914 -1.627847 2.179642
C -1.386724 -1.640169 2.177000
C -1.197908 -1.741745 2.173770
C -1.056622 -1.829697 2.157372
C -0.903278 -1.875180 2.174489
C -0.699023 -1.924695 2.207152
C -0.583357 -1.947535 2.159891
C -0.493831 -2.091104 2.151853
C -0.592287 -2.215963 2.094365
C -0.715667 -2.408011 2.084003
C -0.869486 -2.569274 2.052335
C -1.079959 -2.887675 1.897604
C -1.256883 -2.990467 1.831397
C -1.346740 -3.154146 1.804775
C -1.348725 -3.258416 1.773765
