485
chr2 3D structure from Hi-C (resolution 500000bp)
C 2.238500 -2.048360 -2.657911
C 2.250019 -2.090363 -2.632213
C 2.056601 -2.088009 -2.685187
C 1.910400 -2.029061 -2.833962
C 1.810073 -1.999924 -2.924678
C 1.872156 -1.969867 -2.943562
C 1.740695 -1.985098 -2.970173
C 1.694168 -1.966378 -3.056607
C 1.580598 -1.931066 -3.154473
C 1.478571 -1.888787 -3.199555
C 1.405297 -1.909956 -3.106805
C 1.228163 -1.872633 -3.099490
C 0.778319 -1.797884 -3.108925
C 0.272087 -1.711628 -3.093382
C -0.214054 -1.670524 -3.073837
C -0.680914 -1.565997 -2.975938
C -1.055456 -1.486699 -2.833518
C -1.454313 -1.403198 -2.741828
C -1.691225 -1.367288 -2.641141
C -1.812767 -1.375088 -2.563051
C -1.764949 -1.443596 -2.584688
C -1.686978 -1.466322 -2.543049
C -1.463483 -1.568170 -2.562127
C -1.157991 -1.668603 -2.773453
C -0.859154 -1.727687 -2.902679
C -0.510548 -1.778627 -3.072000
C -0.277763 -1.856634 -3.158644
C -0.171086 -1.926357 -3.127250
C -0.073263 -1.989327 -3.107313
C 0.052459 -2.064088 -3.129203
C 0.124628 -2.128596 -2.996290
C 0.307810 -2.264282 -2.860955
C 0.262565 -2.384992 -2.777301
C 0.410916 -2.463503 -2.712882
C 0.523478 -2.497076 -2.650971
C 0.671413 -2.613582 -2.593310
C 0.638177 -2.605374 -2.481634
C 0.429161 -2.579536 -2.397154
C 0.224374 -2.542843 -2.362444
C 0.409256 -2.576097 -2.289147
C 0.570743 -2.602796 -2.203382
C 0.812678 -2.609271 -2.192371
C 0.909000 -2.533362 -2.158917
C 0.782680 -2.502790 -2.140900
C 0.638901 -2.478959 -2.215188
C 0.265794 -2.366431 -2.201725
C -0.485497 -2.119522 -2.044663
C -1.307624 -1.867571 -1.948443
C -2.153145 -1.637462 -1.862037
C -2.890719 -1.469721 -1.780175
C -3.296909 -1.307522 -1.802375
C -3.515090 -1.248305 -1.628272
C -3.572683 -1.246973 -1.543977
C -3.454684 -1.248347 -1.505835
C -3.365977 -1.312671 -1.496096
C -3.113525 -1.460921 -1.514690
C -2.848760 -1.600048 -1.617069
C -2.693300 -1.745721 -1.582298
C -2.422047 -1.856506 -1.676764
C -2.093339 -1.965204 -1.680378
C -1.926714 -2.222854 -1.874509
C -1.894647 -2.295128 -2.020145
C -1.809139 -2.417840 -2.053762
C -1.649639 -2.508276 -2.003742
C -1.304068 -2.647900 -1.993296
C -0.941057 -2.692917 -1.859875
C -0.540411 -2.843867 -1.920978
C -0.044314 -2.888309 -1.798607
C 0.537588 -3.025985 -1.670104
C 0.776001 -3.146802 -1.654963
C 0.811961 -3.193746 -1.615931
C 0.452356 -3.107686 -1.574979
C 0.004750 -3.040453 -1.587212
C -0.585660 -2.944971 -1.521017
C -1.177557 -2.788335 -1.498364
C -1.522895 -2.885805 -1.485699
C -1.551005 -2.768381 -1.399232
C -1.357436 -2.792526 -1.362248
C -0.853155 -2.947525 -1.350423
C -0.354285 -3.049204 -1.331373
C 0.018958 -3.014217 -1.234544
C 0.215828 -3.013274 -1.154347
C 0.050468 -2.752415 -1.098963
C -0.413181 -2.612923 -1.045641
C -0.934638 -2.380508 -0.984726
C -1.568606 -2.114289 -0.849047
C -2.135451 -2.043262 -0.808581
C -2.423534 -2.056218 -0.872896
C -2.613010 -2.027368 -0.830601
C -2.645722 -2.080867 -0.766409
C -2.529921 -2.068987 -0.708782
C -2.482424 -2.172996 -0.662726
C -2.312029 -2.360124 -0.780600
C -2.089847 -2.466604 -0.771195
C -1.773089 -2.494815 -0.689631
C -1.268722 -2.615218 -0.685319
C -0.652368 -2.802995 -0.723387
C -0.111654 -2.959636 -0.734218
C 0.506720 -3.044178 -0.732012
C 1.054216 -3.020640 -0.603804
C 1.538185 -3.052458 -0.499272
C 1.835523 -3.122079 -0.464154
C 2.096473 -3.199012 -0.455030
C 2.146266 -3.138030 -0.403587
C 1.911098 -3.161948 -0.366038
C 1.607238 -3.168507 -0.329793
C 1.251986 -3.116193 -0.299063
C 0.729335 -2.998494 -0.306265
C 0.362775 -3.004737 -0.238264
C 0.062661 -3.034525 -0.156655
C -0.034725 -3.152533 -0.084645
C 0.137034 -3.206568 -0.029057
C 0.170253 -3.276480 0.000330
C 0.187680 -3.472680 0.001229
C 0.459894 -3.651594 0.066524
C 0.504892 -3.757551 0.078636
C 0.470816 -3.819894 0.096482
C 0.145324 -3.764806 0.112853
C -0.250125 -3.693766 0.128213
C -0.690776 -3.468633 0.186115
C -1.054728 -3.250192 0.281405
C -1.482843 -3.062001 0.321616
C -1.817491 -2.944755 0.356338
C -2.152503 -2.950667 0.405029
C -2.386530 -2.915687 0.545137
C -2.497256 -2.888156 0.631010
C -2.422618 -2.968409 0.699620
C -2.282703 -3.016796 0.718790
C -1.994061 -3.112848 0.765336
C -1.666809 -3.181473 0.883426
C -1.338062 -3.123344 0.935598
C -1.003339 -3.174155 0.919321
C -0.696423 -3.272057 0.934932
C -0.586624 -3.251137 0.921165
C -0.498331 -3.286672 0.968653
C -0.607583 -3.240472 0.971393
C -1.033867 -3.012379 0.876074
C -1.488002 -2.862741 0.941649
C -1.700083 -2.717762 0.969133
C -1.929180 -2.623792 1.084981
C -1.798558 -2.739465 1.248389
C -1.655726 -2.780730 1.338078
C -1.640730 -2.825689 1.475942
C -1.466521 -2.967450 1.608761
C -1.462205 -2.901384 1.580962
C -1.718696 -2.809597 1.550714
C -1.749581 -2.737311 1.538422
C -1.755210 -2.635033 1.458913
C -1.701781 -2.548288 1.434870
C -1.381418 -2.571784 1.516631
C -0.987857 -2.613645 1.522426
C -0.398821 -2.773262 1.614507
C 0.404282 -2.971407 1.681889
C 0.895493 -3.067494 1.672853
C 1.246722 -3.191903 1.736888
C 1.474046 -3.289375 1.713139
C 1.550209 -3.279365 1.559199
C 1.491867 -3.341233 1.561006
C 1.340183 -3.343428 1.543701
C 1.451104 -3.263166 1.531596
C 1.530121 -3.241689 1.508244
C 1.704768 -3.191120 1.478503
C 1.885907 -3.187426 1.473189
C 1.930482 -3.113038 1.497532
C 2.061736 -2.975667 1.513885
C 2.088608 -2.932143 1.540281
C 1.584174 -2.958194 1.693658
C 1.130342 -2.873273 1.737528
C 0.329880 -2.665228 1.700693
C -0.534966 -2.412235 1.720334
C -1.188907 -2.327296 1.807027
C -2.129223 -1.916501 1.662926
C -1.587095 -1.787854 1.325054
C -1.618889 -1.662022 1.266389
C -1.670449 -1.684201 1.402902
C -1.949616 -1.508316 1.403960
C -0.926839 -1.632683 1.291525
C 0.088719 -1.594930 1.010955
C 1.431948 -1.784197 0.661961
C 0.106252 -1.355766 0.839941
C -0.466372 -0.977051 0.659876
C -0.863047 -0.319558 0.455062
C -0.779832 0.094282 0.477752
C -1.907954 0.820562 0.611236
C -1.869197 0.890892 0.404421
C -1.849912 0.849961 0.538342
C -1.176429 0.370293 0.966267
C -0.881884 0.146606 1.271647
C -0.675866 -0.305926 1.555001
C -0.613128 -0.730450 1.640509
C -0.595534 -1.103061 1.678264
C -1.894594 -0.792832 2.109507
C -3.120395 -0.438892 2.509234
C -3.569532 -0.076909 2.236722
C -3.588519 0.043029 2.114524
C -3.639167 0.185858 2.021396
C -3.405864 0.201901 2.163901
C -3.177441 0.128217 2.332778
C -2.744799 -0.094428 2.456964
C -2.478555 -0.322468 2.623294
C -2.209907 -0.471400 2.800185
C -1.976616 -0.513142 2.947674
C -1.525789 -0.667311 3.049395
C -0.923571 -0.867166 3.076309
C -0.215382 -1.059755 3.074530
C 0.244836 -1.135982 3.091696
C 0.619395 -1.246784 3.111838
C 0.790521 -1.220455 3.060321
C 0.824006 -1.226832 2.945945
C 0.813077 -1.199281 2.976901
C 0.651892 -1.099278 2.972040
C 0.430433 -1.068212 3.045027
C 0.326776 -1.102432 3.191400
C 0.239089 -0.988310 3.203408
C -0.015591 -0.883664 3.163067
C -0.093397 -0.919866 3.276420
C -0.446114 -0.730579 3.183843
C -0.039099 -0.870022 3.006105
C -0.548751 -0.613362 2.905424
C -1.164260 -0.320999 2.780044
C -1.602726 -0.082877 2.690609
C -1.740219 0.029514 2.635347
C -1.884848 0.241918 2.478964
C -1.743707 0.270595 2.435622
C -2.508917 0.625024 2.577351
C -2.036386 0.447665 2.689450
C -1.321802 0.240733 2.780714
C -0.596674 -0.034203 2.914049
C 0.177144 -0.280057 3.060729
C 0.881848 -0.497900 3.196955
C 1.544812 -0.728825 3.266153
C 2.048421 -0.911346 3.302264
C 2.068265 -0.807706 3.184258
C 1.788620 -0.656332 3.105246
C 1.575237 -0.555047 3.030544
C 1.080929 -0.432632 3.013334
C 0.521828 -0.246156 3.093019
C -0.058690 -0.018837 3.146646
C -0.443633 0.078366 3.213472
C -0.712671 0.151953 3.315919
C -0.776564 0.160723 3.477870
C -0.809018 0.206120 3.591589
C -0.586742 0.268322 3.617790
C -0.227705 0.222381 3.608743
C 0.176478 0.131223 3.653797
C 0.542900 0.132180 3.646927
C 0.856164 0.084460 3.763421
C 1.079774 0.053811 3.789192
C 1.230543 0.023901 3.702810
C 1.388419 -0.058699 3.679915
C 1.284195 0.003109 3.615757
C 0.940902 0.116786 3.409606
C 0.449595 0.301234 3.207670
C 0.083949 0.467648 3.017744
C -0.102127 0.578205 2.836305
C -0.380295 0.725522 2.859060
C -0.696846 0.902303 2.896428
C -1.048229 1.136471 2.945036
C -1.127826 1.255940 3.127384
C -1.082173 1.344906 3.304736
C -1.002812 1.435557 3.445528
C -1.060650 1.601970 3.605946
C -0.869282 1.613306 3.601737
C -0.706216 1.652957 3.667081
C -0.376857 1.499645 3.606480
C -0.268806 1.480289 3.467249
C -0.228749 1.507671 3.410650
C -0.344757 1.615367 3.283565
C -0.522684 1.684594 3.065955
C -0.673672 1.833748 2.992341
C -0.606548 1.832202 2.870914
C -0.391054 1.893025 2.904247
C -0.094563 1.854274 2.922452
C 0.126134 1.873651 2.920397
C 0.552136 1.724313 2.878998
C 1.158364 1.498695 2.853030
C 1.551871 1.288643 2.796671
C 1.757684 1.208128 2.745943
C 1.857595 1.148395 2.645297
C 1.978554 1.154065 2.608557
C 2.242662 1.028385 2.509430
C 2.444322 1.014126 2.488613
C 2.411933 1.234497 2.582760
C 2.211749 1.411153 2.511664
C 1.967892 1.582316 2.478603
C 1.723024 1.767114 2.481502
C 1.888719 1.656304 2.467073
C 2.033793 1.529903 2.432298
C 2.066058 1.454650 2.356143
C 2.262100 1.227541 2.222352
C 2.571034 1.063206 2.263346
C 2.670529 1.121917 2.307929
C 2.757086 1.043142 2.221688
C 2.343741 1.312425 2.202757
C 1.904195 1.712692 2.310235
C 1.664724 1.943577 2.302600
C 1.467128 2.150964 2.310888
C 1.352834 2.348438 2.306381
C 1.449024 2.293034 2.226279
C 1.490596 2.273262 2.160805
C 1.483731 2.429453 2.163154
C 1.549584 2.385427 2.048248
C 1.557494 2.307095 1.987242
C 1.685010 2.185395 1.899590
C 1.772537 2.084664 1.772874
C 2.006817 1.870389 1.676928
C 2.226265 1.923111 1.648207
C 2.649236 1.686234 1.499206
C 2.981761 1.529187 1.387377
C 3.114329 1.623276 1.381328
C 3.225030 1.636485 1.323942
C 3.195556 1.801338 1.327163
C 3.035451 2.057302 1.363878
C 3.074799 1.874511 1.309642
C 2.908193 1.908411 1.314957
C 2.615763 1.955844 1.252764
C 2.266786 1.893788 1.190951
C 2.055804 1.931103 1.169213
C 2.005166 1.816132 1.084043
C 1.828573 1.925630 1.033213
C 1.933895 1.796898 0.970566
C 2.106616 1.622657 0.808723
C 2.481064 1.448571 0.713409
C 3.071412 1.252505 0.614351
C 3.346587 1.109539 0.502203
C 3.547145 0.969064 0.458241
C 3.774196 0.726446 0.307352
C 3.752097 0.950921 0.260384
C 3.747232 0.993624 0.178810
C 3.804656 0.939693 0.038106
C 3.804558 0.883368 -0.119987
C 3.810169 0.819660 -0.203159
C 3.748100 0.920249 -0.271094
C 3.467557 1.061590 -0.218070
C 2.948131 1.300975 -0.060321
C 2.502057 1.523581 0.104041
C 1.793574 1.821991 0.344530
C 1.069322 2.184432 0.543835
C 0.251588 2.566381 0.728957
C -0.544775 2.831275 0.859617
C -0.982166 2.901485 0.888220
C -1.213841 2.820478 0.823910
C -1.465063 2.775075 0.837138
C -1.551098 2.811142 0.814378
C -1.580544 2.847427 0.834346
C -1.581285 2.870323 0.808687
C -1.426328 2.899777 0.803849
C -1.294835 3.067340 0.823902
C -1.144725 3.179798 0.841562
C -1.032636 3.318788 0.821295
C -0.901232 3.375230 0.790986
C -0.896451 3.469143 0.764599
C -0.665368 3.522366 0.721548
C -0.469085 3.505795 0.634688
C -0.273123 3.474527 0.549816
C -0.103707 3.432782 0.440752
C 0.266373 3.340839 0.332015
C 0.654014 3.275875 0.246321
C 1.176712 3.226661 0.145754
C 1.302882 3.331242 0.075050
C 1.487112 3.377063 -0.002311
C 1.754822 3.353558 -0.126156
C 1.925567 3.395947 -0.194074
C 1.889941 3.427966 -0.223818
C 1.953286 3.365248 -0.315634
C 1.980259 3.286391 -0.435130
C 2.240215 3.053391 -0.573005
C 2.451463 2.902455 -0.658412
C 2.588024 2.681502 -0.734153
C 2.554340 2.625731 -0.827599
C 2.585608 2.564788 -0.918006
C 2.649223 2.558154 -0.982131
C 2.712564 2.469017 -1.066615
C 2.802705 2.398800 -1.188987
C 2.901083 2.231998 -1.321683
C 2.790755 2.264768 -1.362628
C 2.719555 2.215093 -1.349379
C 2.509257 2.380557 -1.301154
C 1.971904 2.599825 -1.182202
C 1.725763 2.719174 -1.155441
C 1.478070 2.857652 -1.102159
C 1.392790 2.880218 -1.135503
C 1.553739 2.690480 -1.271116
C 1.831112 2.452906 -1.484754
C 2.246918 2.072133 -1.753185
C 2.801829 1.706214 -2.073308
C 3.035180 1.446243 -2.225108
C 3.180368 1.281332 -2.341499
C 3.043721 1.372936 -2.331639
C 2.610603 1.679616 -2.185753
C 2.083807 2.026797 -2.012026
C 1.507877 2.343357 -1.782883
C 1.064444 2.601157 -1.569605
C 0.733759 2.891846 -1.449661
C 0.534946 3.083709 -1.415847
C 0.276352 3.332656 -1.312843
C 0.230983 3.382226 -1.328154
C 0.181869 3.334822 -1.308815
C 0.068063 3.335704 -1.327295
C -0.181406 3.320407 -1.275608
C -0.519878 3.246750 -1.162165
C -1.004278 3.195924 -0.986812
C -1.321056 3.099679 -0.946031
C -1.566406 3.046663 -0.924301
C -1.522413 2.972312 -0.995761
C -1.246794 2.889703 -1.107960
C -0.795568 2.854698 -1.394124
C -0.389375 2.780223 -1.586515
C -0.107620 2.826222 -1.726713
C 0.027547 2.784015 -1.829246
C 0.150374 2.776994 -1.890106
C 0.093581 2.793986 -1.881693
C -0.058958 2.852899 -1.891425
C -0.229186 2.877805 -1.800096
C -0.077958 2.818995 -1.868849
C 0.244683 2.584551 -2.047755
C 0.683449 2.328573 -2.313640
C 0.977453 2.187502 -2.424697
C 1.353605 2.043800 -2.601977
C 1.696577 1.869787 -2.764724
C 1.919208 1.715575 -2.914450
C 1.853159 1.661557 -2.996298
C 1.667026 1.779529 -2.939275
C 1.395323 2.010861 -2.816791
C 1.382204 1.973787 -2.849390
C 1.357848 1.906649 -2.983746
C 1.141738 1.978268 -2.896451
C 0.915055 2.087549 -2.889856
C 0.619808 2.257486 -2.800275
C 0.293595 2.253244 -2.711738
C 0.030210 2.171092 -2.665070
C -0.407756 2.249073 -2.616643
C -0.932256 2.425454 -2.462385
C -1.292549 2.414859 -2.331962
C -1.757205 2.422927 -2.132451
C -2.017378 2.249225 -2.273095
C -1.906946 2.164060 -2.405155
C -1.632225 2.077084 -2.483580
C -1.374667 1.976229 -2.687369
C -1.073781 1.901168 -2.731735
C -0.747155 1.833129 -3.061483
C -0.343021 1.718131 -3.292210
C -0.124071 1.852951 -3.238011
C -0.066618 1.833256 -3.319305
C -0.174078 1.860700 -3.285751
C -0.254164 1.892141 -3.213569
C -0.393154 1.853616 -3.267787
C -0.335592 1.841734 -3.168321
C -0.174111 1.778079 -3.183598
C -0.015753 1.625961 -3.277712
C -0.029174 1.630485 -3.333631
C -0.061575 1.657778 -3.383867
C -0.009685 1.652317 -3.319620
C 0.164077 1.617265 -3.372857
C 0.124606 1.581382 -3.474338
C -0.037893 1.625639 -3.389650
C -0.287636 1.713971 -3.265216
C -0.470568 1.724800 -2.962112
C -0.739475 1.757126 -2.751264
C -1.140335 1.762601 -2.543138
C -1.655562 1.830018 -2.214594
C -2.089270 1.859344 -1.915148
C -2.514603 1.899184 -1.736371
C -2.740619 1.849090 -1.526996
C -2.866011 1.838697 -1.618053
C -2.820448 1.714605 -1.751257
C -2.692397 1.649022 -1.950750
C -2.500129 1.601861 -2.101941
C -2.403159 1.562492 -2.283285
C -2.295178 1.488129 -2.480866
C -2.247676 1.458249 -2.626870
C -2.300716 1.472869 -2.610475
C -2.464860 1.472946 -2.551209
C -2.618319 1.469710 -2.440952
C -2.766461 1.417397 -2.410749
C -2.928254 1.396691 -2.295331
C -3.019820 1.367519 -2.209625
C -3.205249 1.397216 -2.076736
C -3.337106 1.401397 -1.982189
C -3.400305 1.375298 -1.868184
C -3.562463 1.417416 -1.690407
C -3.814353 1.498909 -1.338279
C -3.913394 1.553266 -1.196276
C -4.087475 1.617115 -0.952971
C -4.169560 1.622674 -0.815719
