485
chr2 3D structure from Hi-C (resolution 500000bp)
C -0.889878 1.551603 3.645355
C -1.017324 1.490689 3.692613
C -1.102607 1.404461 3.637705
C -1.225608 1.144855 3.672500
C -1.267935 1.032651 3.721520
C -1.337477 0.991642 3.773880
C -1.419027 0.898469 3.728754
C -1.388978 0.978736 3.702436
C -1.374504 0.865783 3.708761
C -1.397875 0.698373 3.684570
C -1.385958 0.704629 3.579253
C -1.456340 0.558634 3.489559
C -1.601625 0.216558 3.304985
C -1.807503 -0.191952 3.051229
C -2.067843 -0.676716 2.818857
C -2.260878 -0.948797 2.518301
C -2.402447 -1.164548 2.260039
C -2.539211 -1.375656 2.045982
C -2.629492 -1.449378 1.859848
C -2.714922 -1.476647 1.724477
C -2.761279 -1.406637 1.770249
C -2.672765 -1.223949 1.814940
C -2.581141 -1.033020 1.920817
C -2.542632 -0.869872 2.202177
C -2.486868 -0.667113 2.394948
C -2.410224 -0.491337 2.672302
C -2.325079 -0.230061 2.888999
C -2.293573 -0.144541 2.946255
C -2.332135 -0.031206 2.977279
C -2.356189 0.107566 3.048719
C -2.326135 0.299179 3.027258
C -2.276522 0.521447 3.026845
C -2.312844 0.596134 2.951214
C -2.347291 0.683436 2.890901
C -2.343488 0.842683 2.867922
C -2.343451 0.946713 2.865895
C -2.381378 0.925250 2.743826
C -2.507750 0.776781 2.556061
C -2.623872 0.654621 2.427235
C -2.550024 0.856277 2.479806
C -2.441183 1.022801 2.522047
C -2.319147 1.178561 2.654835
C -2.197359 1.241551 2.693869
C -2.148881 1.190605 2.629262
C -2.184655 1.056230 2.645435
C -2.218246 0.692016 2.402923
C -2.422586 0.031991 2.000801
C -2.638632 -0.666578 1.562193
C -2.888166 -1.302477 1.001558
C -3.133028 -1.888984 0.495630
C -3.289486 -2.278950 0.198575
C -3.270511 -2.490645 -0.151258
C -3.296562 -2.478896 -0.205512
C -3.229467 -2.352748 -0.263697
C -3.239676 -2.270349 -0.194499
C -3.174964 -2.138513 -0.078144
C -3.178158 -1.893081 0.186491
C -3.163295 -1.764625 0.332908
C -3.179970 -1.545933 0.552913
C -3.096345 -1.323704 0.650748
C -3.216463 -1.220630 0.883592
C -3.294148 -1.213594 0.935124
C -3.397939 -1.012511 1.121555
C -3.362655 -0.813909 1.176086
C -3.331756 -0.430901 1.353134
C -3.126709 0.009966 1.479431
C -2.919697 0.474713 1.804901
C -2.675726 0.963812 1.923215
C -2.405668 1.536664 2.116937
C -2.256843 1.841238 2.245520
C -2.241732 1.884623 2.204615
C -2.357547 1.577340 2.003231
C -2.577612 1.165130 1.786859
C -2.922536 0.604365 1.387278
C -3.167546 0.180372 1.058213
C -3.473558 -0.123752 0.929929
C -3.522074 -0.233214 0.797343
C -3.499704 -0.072771 0.894553
C -3.333490 0.397907 1.085387
C -3.073288 0.812640 1.261554
C -2.871642 1.158378 1.398505
C -2.753266 1.259591 1.467533
C -2.552580 1.167924 1.260930
C -2.603920 0.771004 0.933489
C -2.667623 0.370869 0.581409
C -2.812121 -0.150261 0.248264
C -3.118492 -0.564182 -0.029923
C -3.296950 -0.800283 -0.163751
C -3.284987 -0.902389 -0.279174
C -3.399741 -0.908116 -0.286378
C -3.392690 -0.760419 -0.248821
C -3.439464 -0.672518 -0.221798
C -3.486256 -0.495361 -0.127703
C -3.453263 -0.313028 -0.060665
C -3.244129 0.010323 0.067349
C -3.053604 0.392855 0.295402
C -2.788403 0.910988 0.589161
C -2.638298 1.326763 0.878559
C -2.365184 1.775428 1.164197
C -2.018777 2.215469 1.363847
C -1.693261 2.645445 1.615533
C -1.595712 2.902782 1.710202
C -1.528123 3.115870 1.852936
C -1.581235 3.136503 1.812696
C -1.673463 3.013891 1.676976
C -1.880262 2.806018 1.490439
C -2.036116 2.516983 1.285441
C -2.257951 2.130566 0.988136
C -2.452916 1.899259 0.835339
C -2.600732 1.755946 0.634835
C -2.627700 1.800464 0.569675
C -2.559501 1.996196 0.593112
C -2.516534 2.122271 0.570955
C -2.617859 2.267132 0.567198
C -2.626744 2.575039 0.678273
C -2.646087 2.713852 0.639783
C -2.765983 2.760115 0.583312
C -2.932906 2.521255 0.389712
C -3.085481 2.235354 0.223848
C -3.199847 1.829533 -0.017644
C -3.224586 1.421915 -0.265566
C -3.333855 1.038602 -0.553672
C -3.433790 0.790952 -0.743204
C -3.599354 0.619550 -0.996768
C -3.721315 0.531379 -1.101295
C -3.729931 0.369529 -1.280955
C -3.669354 0.380918 -1.313078
C -3.618109 0.559418 -1.259217
C -3.526241 0.795501 -1.163189
C -3.398676 1.035863 -1.110740
C -3.186382 1.199674 -1.014738
C -2.952709 1.438213 -0.979451
C -2.847382 1.785814 -0.835104
C -2.774597 1.957721 -0.753987
C -2.756609 2.102974 -0.753889
C -2.755407 1.977714 -0.869726
C -2.823327 1.569442 -1.047256
C -2.917461 1.187744 -1.301935
C -2.978943 0.972558 -1.385989
C -3.062761 0.829431 -1.582748
C -3.054581 1.057517 -1.631230
C -2.952649 1.201020 -1.584416
C -2.928834 1.404633 -1.600873
C -2.933318 1.549095 -1.638698
C -2.886453 1.561194 -1.589286
C -2.917077 1.231086 -1.728048
C -2.866316 1.222512 -1.752862
C -2.822984 1.138799 -1.717693
C -2.811240 1.083470 -1.761658
C -2.735872 1.291403 -1.694515
C -2.520434 1.627971 -1.513602
C -2.314202 2.143507 -1.291192
C -2.004452 2.912780 -0.966014
C -1.762208 3.247497 -0.666032
C -1.621221 3.559099 -0.528753
C -1.490098 3.774981 -0.397473
C -1.349677 3.761926 -0.218284
C -1.288544 3.879499 -0.073420
C -1.270498 3.854486 -0.130649
C -1.219123 3.858023 -0.044559
C -1.154930 3.870095 -0.052103
C -0.996906 3.957846 0.082246
C -0.877342 4.100263 0.150823
C -0.797518 4.093815 0.157243
C -0.746392 4.047125 0.036847
C -0.774533 3.948393 -0.029568
C -1.031467 3.690020 -0.425449
C -1.250815 3.305725 -0.697262
C -1.571858 2.621386 -1.164993
C -1.904314 1.915508 -1.578502
C -2.217842 1.407645 -2.042170
C -2.459932 0.443949 -2.392516
C -2.592569 -0.445463 -2.645908
C -2.512307 -0.550066 -2.601701
C -2.562925 -0.465698 -2.746494
C -2.603589 -0.790550 -2.878889
C -2.151708 -0.106800 -2.283080
C -1.632365 0.457784 -1.439643
C -1.511717 0.315138 -1.411631
C -0.987685 1.317088 -0.522166
C -0.576491 1.650484 0.080394
C -0.308712 0.891251 0.020871
C 0.025548 0.681563 0.043323
C -0.027489 -0.515334 -0.649854
C -0.089627 -1.625385 -1.575773
C 0.199415 -1.525091 -1.745714
C -0.146150 -1.766965 -2.781876
C -0.550905 -2.272031 -3.663763
C -0.704601 -1.855624 -3.772713
C -0.924992 -1.551402 -3.774327
C -1.191049 -1.257678 -3.774972
C -1.481376 -1.078350 -3.804312
C -1.776845 -0.837187 -3.770548
C -1.821719 -1.269413 -3.696499
C -1.759133 -1.435901 -3.646391
C -1.763208 -1.325288 -3.588121
C -1.634624 -0.943540 -3.621490
C -1.534780 -0.626607 -3.681024
C -1.391120 -0.188573 -3.567033
C -1.243700 0.065818 -3.531764
C -1.134703 0.280733 -3.545460
C -1.053867 0.532391 -3.525606
C -0.811206 0.768761 -3.442009
C -0.591009 1.214761 -3.160133
C -0.313334 1.808131 -2.734256
C -0.141759 2.224112 -2.524957
C -0.027796 2.607638 -2.346332
C 0.062091 2.714193 -2.257383
C 0.116077 2.690094 -2.142510
C 0.099373 2.751833 -2.119576
C 0.067985 2.576457 -2.194179
C -0.055306 2.438178 -2.395423
C -0.134228 2.399780 -2.587218
C -0.158576 2.243305 -2.681435
C -0.203457 2.049098 -2.716907
C -0.222029 1.845137 -2.836334
C -0.196800 1.430024 -2.974184
C -0.233648 0.732015 -3.291025
C -0.267977 0.083066 -3.487651
C -0.344553 -0.614058 -3.661408
C -0.390042 -1.085985 -3.815056
C -0.437257 -1.308102 -3.836065
C -0.462385 -1.417561 -3.808542
C -0.470622 -1.371163 -3.690717
C -0.462428 -1.096505 -3.547725
C -0.382327 -0.563017 -3.444350
C -0.202815 0.102812 -3.257871
C 0.030881 0.851929 -2.907083
C 0.292479 1.595279 -2.711361
C 0.569112 2.220015 -2.529808
C 0.749037 2.875320 -2.272618
C 0.950612 3.376254 -2.029458
C 1.051317 3.308005 -1.899558
C 1.021093 3.117224 -1.874697
C 0.967261 2.803872 -2.019781
C 0.870183 2.456432 -2.205203
C 0.719520 2.052416 -2.512572
C 0.638510 1.536109 -2.849214
C 0.471145 1.182200 -3.119068
C 0.409557 0.992305 -3.322130
C 0.465178 0.916035 -3.516052
C 0.504740 0.992828 -3.624100
C 0.636244 1.138348 -3.520344
C 0.782234 1.420128 -3.328989
C 0.889795 1.781206 -3.179571
C 1.072061 2.088743 -3.043598
C 1.220455 2.480473 -2.899746
C 1.337962 2.700000 -2.790046
C 1.422378 2.694252 -2.698630
C 1.436174 2.660723 -2.669918
C 1.457820 2.543422 -2.618616
C 1.384419 2.171354 -2.590337
C 1.240562 1.652822 -2.634702
C 1.159410 1.094636 -2.739668
C 1.095093 0.812738 -2.701378
C 1.037513 0.605607 -2.810596
C 1.034838 0.393384 -2.957673
C 1.030746 0.024249 -3.256307
C 1.129621 -0.054345 -3.471060
C 1.284134 0.063946 -3.612320
C 1.427187 0.063309 -3.714303
C 1.600557 0.231065 -3.785479
C 1.688466 0.352236 -3.652393
C 1.796653 0.438253 -3.639929
C 1.812833 0.716073 -3.371578
C 1.828491 0.739874 -3.163167
C 1.887848 0.732026 -3.056636
C 1.885496 0.585666 -3.027437
C 1.787323 0.117772 -3.025681
C 1.786521 -0.152411 -3.076997
C 1.794318 -0.062675 -2.831697
C 1.986481 0.116970 -2.755711
C 2.121762 0.417962 -2.634566
C 2.222297 0.609918 -2.511065
C 2.294965 1.059805 -2.226226
C 2.415319 1.584700 -1.886890
C 2.474585 2.035101 -1.557813
C 2.545621 2.174177 -1.433157
C 2.557002 2.171714 -1.279770
C 2.593436 2.231077 -1.164248
C 2.576486 2.357249 -0.958592
C 2.618462 2.504764 -0.739814
C 2.762111 2.416089 -0.859895
C 2.806905 2.073874 -1.025425
C 2.809256 1.787765 -1.197340
C 2.842159 1.528708 -1.402415
C 2.817885 1.689321 -1.250172
C 2.829736 1.822212 -1.134323
C 2.839704 1.768252 -1.159429
C 2.772901 1.952474 -0.919952
C 2.833439 2.259028 -0.658757
C 2.919306 2.283327 -0.672389
C 2.884678 2.265350 -0.534685
C 2.943551 1.728283 -0.821152
C 3.057711 1.169979 -1.179680
C 3.087468 0.862642 -1.371310
C 3.087753 0.671532 -1.462067
C 3.145939 0.572866 -1.635807
C 3.150421 0.658895 -1.458199
C 3.113535 0.722519 -1.386203
C 3.171726 0.662192 -1.449416
C 3.118344 0.692511 -1.427836
C 3.046186 0.707894 -1.305125
C 3.049935 0.778449 -1.168404
C 3.015365 0.816911 -0.983102
C 3.023365 0.969480 -0.772913
C 3.202703 1.060253 -0.663579
C 3.268231 1.427306 -0.369925
C 3.341821 1.734536 -0.018561
C 3.528659 1.780443 0.040078
C 3.692599 1.580609 -0.041117
C 3.811459 1.345734 -0.159609
C 3.878693 1.163073 -0.302509
C 3.884241 1.099931 -0.401409
C 3.821897 0.858646 -0.506228
C 3.651038 0.516500 -0.723520
C 3.412779 0.304435 -0.893241
C 3.244451 0.255456 -0.888304
C 3.094801 0.325974 -0.772844
C 3.083120 0.080648 -0.870244
C 2.992661 0.274656 -0.529547
C 2.913927 0.526178 -0.200864
C 2.983363 0.935283 0.212858
C 3.096829 1.418846 0.657813
C 3.024107 1.748314 1.033120
C 3.020359 1.981972 1.179539
C 2.933905 2.239765 1.459185
C 2.886081 2.233064 1.512228
C 2.953196 2.137743 1.530643
C 2.895182 2.186745 1.678899
C 2.832419 2.208825 1.743229
C 2.821877 2.265812 1.687722
C 2.904108 2.067086 1.635727
C 2.802930 1.890344 1.518958
C 2.823307 1.391047 1.068298
C 2.728761 1.076941 0.778204
C 2.663081 0.428526 0.191694
C 2.530776 -0.306444 -0.338192
C 2.420927 -1.080145 -0.891115
C 2.101565 -1.712973 -1.306586
C 1.967065 -2.104490 -1.623290
C 1.729708 -2.230103 -1.707980
C 1.568317 -2.368221 -1.810781
C 1.567925 -2.438945 -1.806919
C 1.577457 -2.448108 -1.769962
C 1.636528 -2.434848 -1.732011
C 1.791194 -2.284146 -1.638091
C 1.957703 -2.302481 -1.607628
C 2.107428 -2.266929 -1.482910
C 2.241229 -2.283314 -1.447366
C 2.280100 -2.262822 -1.353145
C 2.463835 -2.263445 -1.364776
C 2.585768 -2.202970 -1.191535
C 2.662701 -2.110391 -1.091673
C 2.790915 -1.945871 -0.896585
C 2.905859 -1.843591 -0.764340
C 3.009934 -1.615514 -0.482883
C 3.186727 -1.257773 -0.188534
C 3.302003 -0.853145 0.337123
C 3.451074 -0.782853 0.507250
C 3.562590 -0.637346 0.802547
C 3.660150 -0.467610 1.072352
C 3.755939 -0.346783 1.285012
C 3.763808 -0.388338 1.277542
C 3.749865 -0.386885 1.374300
C 3.752875 -0.427579 1.311859
C 3.646725 -0.158702 1.526431
C 3.586940 0.045352 1.676934
C 3.413170 0.223276 1.838948
C 3.318508 0.197693 1.914826
C 3.289928 0.237027 2.037595
C 3.239070 0.244990 2.144865
C 3.108971 0.332210 2.318819
C 2.997273 0.414809 2.491678
C 2.878149 0.477432 2.642566
C 2.837080 0.389532 2.639226
C 2.791919 0.287865 2.480147
C 2.848773 0.040491 2.286046
C 2.834215 -0.400861 1.851355
C 2.887122 -0.752468 1.569437
C 3.023800 -1.097844 1.262533
C 3.046379 -1.268526 1.224595
C 2.984851 -1.193196 1.397952
C 2.906672 -0.927854 1.785177
C 2.694878 -0.509658 2.317271
C 2.621748 -0.043615 2.910329
C 2.598197 0.147939 3.185504
C 2.513234 0.264584 3.425941
C 2.591138 0.061358 3.248037
C 2.635605 -0.347514 2.842071
C 2.684631 -0.822460 2.352778
C 2.707625 -1.293434 1.802393
C 2.727056 -1.705049 1.391721
C 2.720968 -1.927181 1.194953
C 2.723655 -2.168427 1.063959
C 2.710934 -2.323581 1.058224
C 2.728074 -2.340379 1.156430
C 2.666646 -2.371760 1.188610
C 2.627435 -2.468160 1.178061
C 2.478543 -2.587812 1.026477
C 2.266838 -2.780426 0.764289
C 2.027412 -2.969340 0.465912
C 1.816732 -3.151347 0.126847
C 1.657478 -3.312854 -0.105014
C 1.587045 -3.255774 -0.029591
C 1.617402 -3.122725 0.148067
C 1.549226 -2.789317 0.734666
C 1.662546 -2.526048 1.137462
C 1.773465 -2.325270 1.422314
C 1.832634 -2.222262 1.649794
C 1.871180 -2.106326 1.866634
C 1.830876 -2.095838 1.895983
C 1.804391 -2.231612 1.791781
C 1.930305 -2.339114 1.546841
C 1.891165 -2.307932 1.674705
C 1.888345 -2.171496 1.904740
C 1.808748 -1.870228 2.340203
C 1.840995 -1.691114 2.512536
C 1.919867 -1.501709 2.764724
C 1.918312 -1.137432 3.174649
C 1.908404 -0.955841 3.391242
C 1.861005 -0.906025 3.422768
C 1.819242 -0.954500 3.351600
C 1.891519 -1.156490 3.125770
C 1.843388 -1.236758 3.143932
C 1.731331 -1.256640 3.303760
C 1.692728 -1.426340 3.114599
C 1.643170 -1.682584 3.010546
C 1.574672 -1.997001 2.738458
C 1.441897 -2.269496 2.384807
C 1.238396 -2.451971 2.149353
C 1.056335 -2.716168 1.894848
C 0.906508 -3.108801 1.456897
C 0.708882 -3.398726 1.192763
C 0.527502 -3.699919 0.799069
C 0.401042 -3.897227 0.515505
C 0.392291 -3.873561 0.689588
C 0.453354 -3.759862 0.852005
C 0.493837 -3.646746 1.108769
C 0.602194 -3.456499 1.240109
C 0.582376 -3.346186 1.613130
C 0.640496 -3.164402 1.905943
C 0.701638 -2.978995 2.269190
C 0.706053 -2.897305 2.447831
C 0.707869 -2.887259 2.403384
C 0.672971 -2.914515 2.279591
C 0.666774 -3.013145 2.294231
C 0.818782 -2.892952 2.262084
C 0.844352 -2.764847 2.417042
C 0.804214 -2.620783 2.599702
C 0.757166 -2.638087 2.636345
C 0.700284 -2.607214 2.798400
C 0.730129 -2.512249 2.836090
C 0.665392 -2.363399 3.037623
C 0.516819 -2.383916 3.155850
C 0.499254 -2.372889 3.080813
C 0.440163 -2.530960 2.866797
C 0.436855 -2.555169 2.460362
C 0.375570 -2.754127 2.064354
C 0.295605 -2.934156 1.681718
C 0.121278 -3.198650 1.145658
C 0.044101 -3.406823 0.612312
C -0.121645 -3.682517 0.183793
C -0.179793 -3.693128 -0.131439
C -0.318835 -3.785489 -0.040378
C -0.393216 -3.744044 0.155841
C -0.515715 -3.681826 0.484963
C -0.486903 -3.541751 0.765245
C -0.525348 -3.518092 1.019355
C -0.588881 -3.477474 1.294726
C -0.660155 -3.505937 1.440601
C -0.693738 -3.527940 1.455835
C -0.794049 -3.605737 1.328287
C -0.818897 -3.684623 1.100777
C -0.854898 -3.769536 0.924849
C -0.901939 -3.845280 0.715619
C -0.903184 -3.851228 0.364282
C -0.967404 -3.957607 0.220214
C -1.062867 -4.028268 0.013916
C -1.072263 -4.013180 -0.165308
C -1.170888 -4.066265 -0.399869
C -1.273005 -4.136522 -0.820328
C -1.311792 -4.139456 -0.990774
C -1.394665 -4.194219 -1.039970
C -1.424104 -4.176188 -1.265582
