397
chr3 3D structure from Hi-C (resolution 500000bp)
C -3.386966 -2.641439 -1.285367
C -3.337919 -2.811229 -1.217957
C -3.309450 -2.826675 -1.193420
C -3.256238 -2.847244 -1.143089
C -3.305430 -2.940411 -1.286873
C -3.235872 -2.901567 -1.067222
C -3.067744 -3.033529 -0.700430
C -2.944848 -3.169666 -0.331965
C -2.954306 -3.181907 -0.143243
C -2.932822 -3.323722 -0.029927
C -2.980656 -3.389719 0.099471
C -2.978838 -3.463014 0.265649
C -3.055815 -3.517294 0.255578
C -3.215772 -3.477511 0.070260
C -3.201912 -3.336966 0.117159
C -2.994375 -3.276175 0.384524
C -2.772182 -3.070379 0.862378
C -2.514597 -2.900963 1.340652
C -2.284492 -2.733627 1.818874
C -2.039543 -2.627783 2.388547
C -1.750501 -2.573022 2.865421
C -1.679635 -2.554667 3.134115
C -1.563197 -2.509396 3.271650
C -1.555549 -2.603470 3.289243
C -1.519498 -2.598370 3.343311
C -1.457773 -2.600949 3.340504
C -1.329772 -2.632733 3.312156
C -1.305623 -2.759931 3.250469
C -1.278635 -3.012511 3.170511
C -1.423910 -2.894897 2.997512
C -1.594173 -3.000167 2.791422
C -1.830593 -3.007311 2.488573
C -2.100554 -2.986397 2.176984
C -2.527460 -2.877085 1.856871
C -2.883245 -2.606199 1.421193
C -3.227928 -2.271412 0.762706
C -3.539022 -2.297577 0.481675
C -3.762270 -2.078525 0.291521
C -3.981392 -2.002535 -0.099672
C -4.094435 -1.858965 -0.510492
C -4.143847 -1.752210 -0.847668
C -4.189898 -1.646641 -0.979554
C -4.181993 -1.566755 -0.975736
C -4.056331 -1.484742 -0.801090
C -3.867069 -1.406859 -0.743200
C -3.846576 -1.254385 -0.707852
C -3.879449 -1.147792 -0.530139
C -3.842454 -1.086350 -0.390650
C -3.851642 -1.011612 -0.306680
C -3.892636 -0.849948 -0.285414
C -4.061529 -0.624028 -0.581666
C -4.309444 -0.390275 -0.791267
C -4.279754 -0.442251 -0.697836
C -4.348106 -0.398832 -0.620892
C -4.411934 -0.417109 -0.533312
C -4.437277 -0.355706 -0.347442
C -4.535425 -0.427143 -0.085036
C -4.583686 -0.541710 0.094685
C -4.585159 -0.629582 0.341983
C -4.650334 -0.667373 0.616639
C -4.525050 -0.728795 0.904114
C -4.346945 -0.724544 1.185903
C -4.143627 -0.964096 1.474887
C -3.909926 -1.060388 1.828798
C -3.797116 -1.051166 2.107302
C -3.761165 -0.975246 2.168913
C -3.718860 -0.694518 2.025019
C -3.859590 -0.460383 1.857145
C -4.071695 -0.243504 1.756999
C -4.242110 0.117829 1.456592
C -4.250113 0.268825 1.409384
C -4.187640 0.391667 1.521359
C -3.992945 0.476903 1.769812
C -3.761588 0.348583 2.185677
C -3.408233 0.125825 2.615124
C -2.994102 -0.021338 2.864774
C -2.767876 -0.097263 3.309652
C -2.544047 -0.125990 3.521824
C -2.354312 -0.144799 3.700806
C -2.204079 -0.181960 3.758786
C -2.096752 -0.149990 3.875393
C -1.983984 -0.108454 3.884432
C -1.886168 -0.119270 4.032048
C -1.668020 -0.235150 4.096331
C -1.438302 -0.245243 4.215438
C -1.098350 -0.277658 4.268345
C -0.836354 -0.511252 4.435222
C -0.625201 -0.620090 4.484648
C -0.370295 -0.686872 4.559569
C -0.116462 -0.685191 4.579965
C 0.141884 -0.721317 4.641804
C 0.385234 -0.878017 4.663633
C 0.482170 -1.165799 4.637384
C 0.623517 -1.349430 4.586479
C 0.910642 -1.590114 4.541693
C 1.076923 -1.784161 4.576554
C 1.210963 -1.949907 4.625467
C 1.252586 -1.797188 4.724815
C 1.127205 -1.362601 4.756548
C 1.099299 -0.876865 4.814512
C 1.062869 -0.275981 4.889967
C 0.943101 0.428999 4.923052
C 0.875812 1.145266 4.854591
C 0.735152 1.743664 4.765006
C 0.530868 1.904612 4.615311
C 0.318314 1.936840 4.483163
C 0.093674 2.092674 4.291180
C -0.216494 2.165743 4.141940
C -0.462594 2.028633 3.916551
C -0.725214 1.862987 3.791590
C -0.884106 1.738200 3.767505
C -0.891783 1.672547 3.724772
C -0.754795 1.538848 3.749123
C -0.703374 1.407303 3.762373
C -0.616423 1.579316 3.713989
C -0.616935 1.838726 3.726098
C -0.736285 1.878682 3.623392
C -0.957318 1.973313 3.433805
C -1.076353 2.188921 3.234153
C -1.276728 2.353332 3.027140
C -1.391860 2.587323 2.869274
C -1.570918 2.543408 2.722014
C -1.825558 2.466768 2.663854
C -1.875896 2.699247 2.647826
C -1.844698 2.837736 2.608957
C -1.948486 2.735932 2.446242
C -2.244475 2.779609 2.261980
C -2.365539 2.900835 2.140735
C -2.486885 2.956302 2.040461
C -2.494313 2.824926 1.883496
C -2.639347 2.644315 1.780644
C -2.788417 2.515391 1.658419
C -2.891556 2.634897 1.636594
C -2.868303 2.673145 1.585228
C -2.991121 2.459802 1.544460
C -2.891079 2.260440 1.563409
C -2.949434 2.460304 1.508012
C -2.915258 2.652069 1.333036
C -2.922250 2.795169 1.216196
C -2.862062 2.861607 1.272202
C -2.642305 2.867170 1.304175
C -2.391423 2.939054 1.309013
C -2.198757 3.169352 1.331849
C -2.137343 2.993435 1.212616
C -2.066742 2.963324 1.181880
C -2.142411 2.872743 1.057159
C -2.288128 3.038646 0.818907
C -2.477082 3.198974 0.624652
C -2.769085 3.346822 0.316951
C -3.167079 3.330839 -0.135407
C -3.267226 3.458908 -0.375073
C -3.474800 3.329094 -0.598049
C -3.566980 3.287031 -0.808935
C -3.655252 2.966239 -1.062630
C -3.710798 2.744157 -1.341092
C -3.763960 2.527534 -1.568235
C -3.742078 2.345996 -1.754715
C -3.656480 2.388362 -1.816043
C -3.548581 2.439023 -1.996759
C -3.366525 2.484690 -2.046695
C -3.091986 2.564330 -1.980810
C -2.939613 2.678967 -2.037225
C -2.862285 2.599397 -2.161335
C -2.835607 2.507592 -2.315478
C -2.869580 2.373167 -2.542309
C -2.817390 2.306184 -2.632350
C -2.718625 2.400216 -2.713540
C -2.795174 2.516724 -2.969041
C -2.768151 2.660764 -2.887247
C -2.577429 3.000830 -2.790351
C -2.337763 3.471641 -2.471513
C -2.150633 3.662911 -2.132599
C -1.959195 3.924327 -1.778569
C -1.788237 3.956271 -1.479193
C -1.822969 3.771139 -1.589785
C -1.588534 3.950833 -1.254930
C -1.433976 4.114288 -0.863988
C -1.250334 4.212840 -0.531269
C -1.484220 3.487540 -1.024037
C -1.789505 2.811303 -1.565151
C -2.121592 2.157662 -2.158341
C -2.154486 1.772668 -2.273818
C -2.456634 1.003091 -3.043910
C -2.710683 0.329065 -3.814314
C -2.888427 -0.183696 -4.658572
C -2.446459 0.492467 -4.533179
C -2.032581 0.998956 -4.431292
C -1.585021 1.557655 -4.295376
C -1.142868 2.064297 -4.094191
C -0.735439 2.490346 -3.914277
C -0.451988 2.780364 -3.835552
C -0.251943 2.876662 -3.815159
C -0.155915 2.896005 -3.749177
C 0.034552 2.910749 -3.685975
C 0.239968 3.053724 -3.095673
C 0.307267 3.193504 -2.818368
C 0.444893 3.225899 -2.417564
C 0.735581 3.445184 -1.737648
C 0.983186 3.601513 -1.130592
C 1.067672 3.759834 -0.681027
C 1.217965 3.937896 -0.166062
C 1.209059 3.978601 -0.437779
C 1.269281 3.979899 -0.547227
C 1.176648 4.154297 -0.733695
C 1.047653 4.204192 -1.090246
C 0.964384 4.232967 -1.392100
C 1.035101 4.112914 -1.755898
C 1.036442 4.069182 -2.078087
C 1.054345 4.102818 -1.976662
C 1.172789 4.200710 -1.726780
C 1.269468 4.224616 -1.659365
C 1.475378 4.216470 -1.569776
C 1.662010 4.255613 -1.388440
C 1.751296 4.081243 -1.181773
C 1.732926 3.930374 -1.156387
C 1.728054 3.676903 -1.397451
C 1.663116 3.561594 -1.810963
C 1.909559 3.373707 -1.993019
C 1.976745 3.227085 -2.159912
C 1.960447 3.105373 -2.474137
C 1.986689 3.192228 -2.535155
C 2.092955 3.221576 -2.150030
C 2.335497 3.179491 -1.662046
C 2.527974 2.926721 -1.128653
C 2.568265 2.883852 -0.573237
C 2.651113 2.868037 -0.040508
C 2.846941 2.882105 0.495588
C 3.012204 2.924902 0.750938
C 3.125643 2.877065 0.438587
C 3.203930 2.911148 0.080794
C 3.294397 3.071088 -0.183278
C 3.324942 3.012226 -0.495642
C 3.389754 2.924903 -0.776851
C 3.422509 2.898610 -0.916347
C 3.458486 2.794860 -1.023561
C 3.511457 2.727342 -0.867757
C 3.573669 2.711999 -0.538583
C 3.447176 2.818053 -0.077524
C 3.331031 2.851384 0.278081
C 3.433686 2.803344 0.469632
C 3.381136 2.696021 0.840179
C 3.339668 2.642537 1.174482
C 3.249159 2.555612 1.582708
C 3.177926 2.393933 1.822388
C 3.368003 2.105232 1.944584
C 3.492312 1.953672 2.177803
C 3.341408 1.801770 2.507570
C 3.411003 1.646898 2.671009
C 3.454147 1.469783 2.909638
C 3.477862 1.254941 2.931078
C 3.423900 1.034747 3.041117
C 3.371063 0.788248 3.143176
C 3.368745 0.604503 3.271069
C 3.358964 0.382505 3.378618
C 3.237270 0.187436 3.431875
C 3.155098 -0.059936 3.440125
C 3.121101 0.078568 3.537122
C 3.074068 0.498010 3.515693
C 3.171803 0.564519 3.354964
C 3.273902 0.632722 3.039286
C 3.390225 0.804364 2.737277
C 3.397137 0.901524 2.454225
C 3.483098 0.795044 2.282591
C 3.558546 0.511407 2.047764
C 3.719209 0.003794 1.914559
C 3.642985 -0.204057 1.810840
C 3.562816 -0.390496 1.778763
C 3.511066 -0.613764 1.792421
C 3.762670 -0.772340 1.793367
C 3.843086 -0.770913 1.706296
C 3.922939 -0.793556 1.629468
C 3.920046 -0.766935 1.429478
C 4.081974 -0.758458 1.382726
C 4.198407 -0.901363 1.348895
C 4.231817 -0.782943 1.228920
C 4.109096 -0.731460 1.070811
C 4.036043 -0.555242 0.811948
C 4.057069 -0.505859 0.624596
C 4.113762 -0.553174 0.554403
C 4.101964 -0.411142 0.438539
C 4.195126 -0.367528 0.293346
C 4.264434 -0.365294 0.184468
C 4.291168 -0.333305 -0.025937
C 4.357119 -0.241562 -0.204684
C 4.268404 -0.072515 -0.462837
C 4.107606 0.157886 -0.871377
C 3.926493 0.318854 -1.379475
C 3.516980 0.640451 -1.934550
C 3.240862 0.726295 -2.470883
C 3.064119 0.824035 -2.822115
C 2.896245 0.880349 -3.112182
C 2.672977 0.947938 -3.502769
C 2.645126 1.008737 -3.710163
C 2.582016 0.962408 -3.827363
C 2.759775 0.882180 -3.762951
C 2.980150 0.738773 -3.439236
C 3.136958 0.545598 -3.204690
C 3.156745 0.274110 -2.938134
C 3.472676 0.026031 -2.607332
C 3.584464 -0.144584 -2.396758
C 3.751055 -0.416756 -2.232991
C 3.816555 -0.633786 -2.014779
C 3.845033 -0.608581 -2.121277
C 3.683677 -0.561252 -2.281916
C 3.522701 -0.402171 -2.557653
C 3.367346 -0.412689 -2.744495
C 2.939956 -0.333174 -3.061172
C 2.688501 -0.301854 -3.227860
C 2.552155 -0.330857 -3.417779
C 2.511979 -0.608651 -3.405618
C 2.689532 -0.853652 -3.214980
C 2.792704 -1.070278 -3.298394
C 2.581853 -0.980137 -3.393403
C 2.782902 -1.172932 -3.167828
C 2.706207 -1.187830 -3.059745
C 2.614464 -1.210946 -3.108170
C 2.516757 -1.135315 -3.135383
C 2.286531 -1.169450 -3.239262
C 2.124385 -1.080106 -3.275723
C 2.033760 -1.157120 -3.313369
C 1.856230 -1.221427 -3.460366
C 1.546863 -1.208482 -3.658466
C 1.208983 -1.108378 -3.844889
C 0.634978 -0.990899 -4.206946
C 0.341021 -0.785471 -4.505583
C 0.125454 -0.809889 -4.610065
C -0.084904 -0.752880 -4.729647
C -0.208917 -0.646650 -4.849747
C -0.083627 -0.752199 -4.805336
C -0.154153 -0.923125 -4.791120
C -0.188156 -1.112241 -4.725518
C -0.317281 -1.300517 -4.688632
C -0.272264 -1.463893 -4.594149
C 0.045266 -1.748398 -4.293299
C 0.255806 -2.008020 -4.134942
C 0.360198 -2.144488 -4.029400
C 0.788101 -2.328255 -3.697437
C 1.371222 -2.408938 -3.153989
C 1.910567 -2.560806 -2.703835
C 2.271658 -2.600212 -2.278205
C 2.442304 -2.744028 -2.006952
C 2.605129 -2.817745 -1.581199
C 2.679261 -2.872841 -1.344877
C 2.580549 -2.876923 -1.458645
C 2.175860 -2.938194 -1.859223
C 1.800588 -2.901590 -2.197897
C 1.421462 -2.984557 -2.602920
C 1.083741 -2.960915 -2.877170
C 0.611167 -2.988069 -3.269955
C 0.266275 -3.034722 -3.514395
C -0.016574 -3.091266 -3.551176
C 0.078846 -3.197646 -3.432263
C 0.063319 -3.325131 -3.369331
C 0.045336 -3.456470 -3.200236
C 0.037452 -3.609677 -3.089531
C 0.324270 -3.715092 -2.851107
C 0.473169 -3.839423 -2.540245
C 0.537133 -3.928125 -2.327078
C 0.359912 -4.008595 -2.267243
C 0.163962 -4.076378 -2.241300
C 0.269412 -4.106467 -2.163554
C 0.090756 -4.176117 -2.145954
C 0.183799 -4.286287 -2.048737
C 0.474985 -4.259664 -1.767635
C 0.678561 -4.354477 -1.328582
C 1.187983 -4.259377 -0.808530
C 1.726488 -4.139771 -0.203812
C 1.945769 -4.020345 0.273363
C 2.443831 -3.921446 0.807758
C 2.531526 -3.807242 1.135219
C 2.508505 -3.762487 1.224652
C 2.645841 -3.659369 1.074951
C 2.485882 -3.705800 0.891025
C 2.287180 -3.861001 0.676315
C 2.081413 -4.041532 0.482743
C 1.927126 -4.080150 0.221789
C 1.830008 -4.067168 -0.000069
C 1.589243 -4.182903 -0.246146
C 1.403040 -4.200218 -0.373215
C 1.331118 -4.158029 -0.477798
C 1.249468 -4.187420 -0.570056
C 1.236437 -4.175283 -0.724275
C 1.055776 -4.266309 -0.753662
C 0.855756 -4.335494 -0.728757
C 0.964236 -4.235176 -0.545357
C 1.016221 -4.210943 -0.256778
C 1.021386 -4.245033 0.091162
C 1.150325 -4.137590 0.501117
C 1.255364 -4.102540 1.100411
C 1.474579 -3.934578 1.614141
C 1.665813 -3.859287 2.081959
C 1.801254 -3.840796 2.377781
C 1.718582 -3.903251 2.574976
C 1.373946 -4.145845 2.513762
C 1.297179 -4.169882 2.574276
C 1.221441 -4.159793 2.507628
C 1.049514 -4.295540 2.348065
