397
chr3 3D structure from Hi-C (resolution 500000bp)
C -3.581135 -2.426291 -0.928152
C -3.629418 -2.498602 -0.866963
C -3.615263 -2.536272 -0.824839
C -3.601839 -2.588395 -0.719088
C -3.732230 -2.688019 -0.729528
C -3.661043 -2.727314 -0.320877
C -3.458745 -2.839553 0.048252
C -3.347395 -2.994407 0.313563
C -3.235123 -3.122145 0.529255
C -3.128087 -3.292006 0.712152
C -3.034559 -3.388659 0.869620
C -2.977936 -3.431567 0.970234
C -3.016375 -3.452339 0.834157
C -3.125210 -3.487208 0.815865
C -3.011512 -3.388645 0.942559
C -2.827652 -3.249733 1.181797
C -2.566893 -3.081407 1.525228
C -2.287729 -2.899352 1.837024
C -2.025198 -2.697405 2.321021
C -1.815776 -2.592403 2.799196
C -1.616824 -2.395509 3.129147
C -1.583437 -2.378813 3.335440
C -1.425243 -2.381495 3.510646
C -1.432657 -2.414063 3.588780
C -1.486786 -2.420804 3.658388
C -1.386411 -2.477991 3.639666
C -1.306357 -2.510973 3.597495
C -1.226219 -2.748807 3.528450
C -1.184518 -2.996579 3.418332
C -1.392940 -2.863166 3.207601
C -1.633460 -2.903097 3.037286
C -1.850704 -2.884566 2.781404
C -2.217607 -2.821568 2.499559
C -2.542161 -2.681587 2.247115
C -2.926557 -2.287887 1.709112
C -3.310759 -1.953057 1.095364
C -3.579988 -2.004337 0.751479
C -3.803911 -1.766725 0.312188
C -4.040322 -1.652072 -0.104048
C -4.217514 -1.473147 -0.535795
C -4.311384 -1.329378 -0.899881
C -4.360293 -1.262664 -0.998723
C -4.372323 -1.157579 -1.009814
C -4.311174 -1.084578 -0.909493
C -4.150258 -1.018928 -0.660039
C -4.109912 -0.972503 -0.409220
C -4.056260 -0.929945 -0.253328
C -3.966180 -0.874373 -0.134948
C -3.983175 -0.953224 0.124528
C -4.054984 -0.824148 0.265954
C -4.205371 -0.606214 0.143637
C -4.428398 -0.453140 -0.092373
C -4.468023 -0.374080 -0.120700
C -4.514815 -0.268190 -0.063787
C -4.618462 -0.229521 0.047733
C -4.544000 -0.158120 0.083130
C -4.536156 -0.185119 0.361899
C -4.563936 -0.157541 0.543835
C -4.531574 -0.155517 0.851343
C -4.540904 -0.178326 1.103679
C -4.419880 -0.263684 1.448679
C -4.203918 -0.380247 1.735348
C -4.077184 -0.438225 2.041861
C -3.841124 -0.515670 2.240398
C -3.740292 -0.491162 2.448876
C -3.698034 -0.469799 2.529065
C -3.620682 -0.226330 2.337924
C -3.776089 -0.001790 1.986784
C -3.990336 0.278238 1.746366
C -4.145203 0.540297 1.535460
C -4.199727 0.736528 1.500064
C -4.049779 0.721789 1.666787
C -3.892674 0.749001 1.845462
C -3.563523 0.565653 2.289092
C -3.223931 0.432892 2.839073
C -2.792545 0.224878 3.218053
C -2.498863 0.101867 3.540873
C -2.258163 0.024364 3.799500
C -2.075479 0.088318 3.945423
C -1.907836 0.114564 3.998390
C -1.929641 0.062844 4.017968
C -1.721378 0.013492 4.070908
C -1.563074 -0.064816 4.161797
C -1.304021 -0.056597 4.238884
C -1.063212 -0.062182 4.285891
C -0.866761 -0.231078 4.314030
C -0.606638 -0.482478 4.480866
C -0.340322 -0.471868 4.560836
C -0.069689 -0.545096 4.565003
C 0.101418 -0.489612 4.634172
C 0.297073 -0.581967 4.679012
C 0.516489 -0.772322 4.731327
C 0.723735 -0.963720 4.716425
C 0.880738 -1.175004 4.652591
C 1.105358 -1.428602 4.637678
C 1.228791 -1.575324 4.708469
C 1.421582 -1.649312 4.748667
C 1.490460 -1.235423 4.748268
C 1.492765 -0.564727 4.629800
C 1.494066 0.069961 4.586828
C 1.541503 0.690163 4.620012
C 1.561008 1.159401 4.661442
C 1.491051 1.511115 4.694227
C 1.278631 1.861544 4.666028
C 1.038263 1.747395 4.618273
C 0.760535 1.555410 4.621067
C 0.564618 1.554185 4.482875
C 0.249150 1.727726 4.368570
C -0.164424 1.812666 4.129781
C -0.484160 2.021281 3.880719
C -0.594517 2.046889 3.749261
C -0.626543 1.998492 3.676179
C -0.460405 1.889003 3.676741
C -0.451270 1.726671 3.686256
C -0.379664 1.760925 3.660728
C -0.279851 1.982870 3.684979
C -0.356010 1.921059 3.627256
C -0.558512 2.036700 3.503210
C -0.686239 2.276938 3.323974
C -0.947221 2.439105 3.125937
C -1.174130 2.533831 2.972486
C -1.428883 2.467140 2.861375
C -1.781744 2.418564 2.718545
C -1.807923 2.680706 2.701464
C -1.936571 2.699361 2.658696
C -2.060742 2.591076 2.588179
C -2.263367 2.699874 2.496768
C -2.313600 2.974251 2.415719
C -2.241900 3.161994 2.315716
C -2.185874 3.128580 2.229761
C -2.288590 3.059608 2.110242
C -2.138546 3.193579 1.967948
C -2.211565 3.258297 1.907844
C -2.213800 3.308962 1.839453
C -2.139948 3.295867 1.756338
C -2.054603 3.165916 1.637137
C -2.046583 3.326417 1.491239
C -1.981628 3.464969 1.352585
C -2.079066 3.551326 1.253556
C -1.993004 3.645223 1.208649
C -1.902301 3.552000 1.156814
C -1.697401 3.411762 1.274067
C -1.577941 3.531746 1.366871
C -1.373149 3.500663 1.435009
C -1.552909 3.358802 1.396154
C -1.703867 3.213095 1.244561
C -2.005086 3.208338 1.060503
C -2.215978 3.277210 0.868282
C -2.638066 3.400507 0.491951
C -3.175014 3.281633 0.072264
C -3.543473 3.193638 -0.261865
C -3.561032 3.201838 -0.505880
C -3.474298 3.350877 -0.680970
C -3.246446 3.515408 -0.794065
C -3.318270 3.368246 -0.988203
C -3.409309 3.169334 -1.189051
C -3.320929 3.199338 -1.357583
C -3.279621 3.164188 -1.469438
C -3.234876 3.192883 -1.583126
C -3.265306 2.963397 -1.650955
C -3.189401 2.667993 -1.648990
C -3.113225 2.621237 -1.818250
C -2.992138 2.601289 -1.942032
C -3.025865 2.391993 -2.104904
C -3.007763 2.299425 -2.286135
C -3.002258 2.187824 -2.406511
C -2.952630 2.243386 -2.505218
C -3.025508 2.375508 -2.844092
C -2.842363 2.623995 -2.801776
C -2.550627 3.038810 -2.452704
C -2.211661 3.514069 -2.011127
C -1.966425 3.769534 -1.762103
C -1.742451 4.000326 -1.528295
C -1.579972 4.069004 -1.291834
C -1.597039 3.889474 -1.414479
C -1.692902 3.610865 -1.626339
C -1.788307 3.564970 -1.832965
C -1.597244 3.626876 -1.735050
C -1.934143 2.903972 -2.112948
C -2.277012 2.141215 -2.561910
C -2.612732 1.551279 -3.069761
C -2.749964 1.229223 -3.138397
C -2.790250 0.991712 -3.255125
C -2.967276 0.382259 -3.712387
C -3.226136 -0.136396 -4.476676
C -2.682960 0.713215 -4.170726
C -2.172985 1.409363 -4.043714
C -1.698901 2.021296 -3.895603
C -1.241035 2.483462 -3.721091
C -0.859635 2.917403 -3.527475
C -0.544176 3.273672 -3.428334
C -0.400293 3.433890 -3.366351
C -0.363023 3.292519 -3.502327
C -0.191795 3.360781 -3.261030
C 0.073200 3.403166 -2.955178
C 0.255722 3.541717 -2.648860
C 0.477047 3.601896 -2.274613
C 0.858547 3.680558 -1.705129
C 1.145523 3.712101 -1.270455
C 1.334962 3.857954 -0.868994
C 1.483337 3.839825 -0.603703
C 1.460514 3.921938 -0.537996
C 1.457939 3.947143 -0.698486
C 1.526305 3.991547 -0.965647
C 1.433831 4.071123 -1.311971
C 1.452540 4.107813 -1.553331
C 1.441428 3.873645 -2.000719
C 1.422106 3.759388 -2.449315
C 1.544132 3.758063 -2.440997
C 1.745649 3.790017 -2.195445
C 1.723285 3.706736 -2.277121
C 1.812844 3.700015 -2.168137
C 1.930912 3.770169 -1.950952
C 2.049362 3.699807 -1.594547
C 2.077309 3.668816 -1.507696
C 1.985903 3.411143 -1.797646
C 1.713432 3.175089 -2.318256
C 1.573279 3.031705 -2.491087
C 1.450391 2.811700 -2.822520
C 1.286464 2.640292 -3.204202
C 1.279041 2.646327 -3.392473
C 1.410183 2.642495 -3.071935
C 1.720929 2.575591 -2.741458
C 2.046272 2.441344 -2.124779
C 2.510797 2.497575 -1.454902
C 2.862524 2.539832 -0.858243
C 3.241808 2.576875 -0.296191
C 3.310434 2.791684 0.002474
C 3.321852 2.712278 -0.166722
C 3.289993 2.753381 -0.400162
C 3.392555 2.922101 -0.601116
C 3.390849 2.909586 -0.844668
C 3.298506 2.841056 -1.136459
C 3.284905 2.748165 -1.358748
C 3.444236 2.495654 -1.503949
C 3.579045 2.423429 -1.388238
C 3.600122 2.521517 -0.958587
C 3.593349 2.588382 -0.614500
C 3.494222 2.677504 -0.306244
C 3.600108 2.688412 0.143761
C 3.548304 2.625008 0.603533
C 3.453991 2.620052 0.984580
C 3.298902 2.657306 1.359121
C 3.266228 2.500882 1.535626
C 3.258399 2.302922 1.757354
C 3.366669 2.095454 2.031358
C 3.349675 1.894733 2.243772
C 3.412396 1.870097 2.477397
C 3.447439 1.812079 2.736388
C 3.501901 1.501446 2.782433
C 3.517713 1.222163 2.845323
C 3.573887 1.024564 2.896995
C 3.565666 0.777812 3.018816
C 3.536880 0.598019 3.091714
C 3.463589 0.192548 3.072811
C 3.507610 -0.210171 3.036440
C 3.558400 -0.439063 3.040866
C 3.682705 -0.673126 3.013768
C 3.746265 -0.875970 2.887990
C 3.808870 -0.869683 2.646740
C 3.884460 -0.886313 2.462189
C 3.885541 -0.727360 2.215138
C 3.989844 -0.589480 2.051200
C 3.971415 -0.509035 1.920637
C 3.896154 -0.473111 1.773801
C 3.840028 -0.346451 1.601279
C 3.832474 -0.350802 1.496159
C 3.861335 -0.242057 1.359873
C 4.101419 -0.180603 1.304382
C 4.162692 -0.125045 1.097311
C 4.220723 0.099739 0.938337
C 4.240271 0.357302 0.723707
C 4.394293 0.349874 0.630713
C 4.516018 0.256760 0.530364
C 4.453679 0.112055 0.505878
C 4.226432 -0.050522 0.421606
C 4.092313 -0.164875 0.333105
C 4.087033 -0.405920 0.327023
C 4.154270 -0.607057 0.371010
C 4.104562 -0.800972 0.353977
C 4.044662 -0.985919 0.338624
C 4.098754 -1.135862 0.211949
C 4.192659 -1.063945 0.051820
C 4.222051 -1.055003 -0.139157
C 4.196947 -0.943506 -0.461741
C 4.025870 -0.791869 -0.847172
C 3.889184 -0.422375 -1.293207
C 3.570027 -0.044535 -1.890102
C 3.328451 0.319112 -2.384433
C 3.128273 0.456241 -2.773369
C 2.920082 0.578815 -3.120834
C 2.752109 0.612216 -3.489159
C 2.643256 0.614781 -3.796661
C 2.610833 0.500280 -3.948385
C 2.771826 0.406559 -3.856766
C 2.888895 0.110252 -3.629085
C 3.077400 -0.197508 -3.391261
C 3.150209 -0.434973 -3.074176
C 3.364567 -0.702238 -2.713842
C 3.504797 -0.795636 -2.466747
C 3.571189 -0.984197 -2.353691
C 3.640631 -1.148307 -2.184682
C 3.709984 -1.153019 -2.319774
C 3.517784 -1.028641 -2.547287
C 3.299124 -0.885288 -2.841433
C 2.925677 -0.637984 -3.180100
C 2.523012 -0.561021 -3.505072
C 2.156786 -0.449812 -3.692487
C 1.920098 -0.454891 -3.907203
C 1.812631 -0.485250 -3.909104
C 1.984842 -0.724856 -3.692090
C 2.227520 -1.027236 -3.614824
C 2.290558 -1.233721 -3.591483
C 2.415909 -1.426802 -3.296946
C 2.519158 -1.617416 -3.096054
C 2.478603 -1.663872 -3.088754
C 2.349741 -1.732330 -3.063467
C 2.197243 -1.741128 -3.134965
C 2.026933 -1.721518 -3.218158
C 1.906949 -1.649892 -3.289505
C 1.779492 -1.622303 -3.470388
C 1.522684 -1.596298 -3.690951
C 1.295370 -1.477958 -3.844660
C 0.948256 -1.245857 -4.161485
C 0.570398 -1.094820 -4.412005
C 0.183268 -0.944217 -4.584133
C -0.157855 -0.912166 -4.669561
C -0.399781 -0.911813 -4.731994
C -0.393673 -0.968380 -4.662579
C -0.608655 -1.165305 -4.651798
C -0.815000 -1.431527 -4.545694
C -1.046327 -1.586675 -4.522883
C -0.892320 -1.747499 -4.419179
C -0.552260 -2.022127 -4.142640
C -0.318743 -2.274557 -4.039511
C -0.238080 -2.441678 -3.975708
C 0.192702 -2.600991 -3.710331
C 0.780318 -2.698325 -3.314799
C 1.376761 -2.893701 -2.975455
C 1.633176 -2.966343 -2.521337
C 1.842691 -3.023835 -2.281939
C 2.108719 -3.047632 -1.891453
C 2.289964 -3.069818 -1.661640
C 1.970315 -2.981835 -1.800208
C 1.582299 -2.963932 -2.128375
C 1.165364 -2.891044 -2.365379
C 0.686504 -2.959838 -2.756508
C 0.284404 -2.952351 -2.983698
C -0.188940 -2.957544 -3.342149
C -0.678845 -2.986319 -3.560190
C -0.723023 -3.143779 -3.497719
C -0.653695 -3.324514 -3.253542
C -0.603912 -3.444685 -3.204738
C -0.610979 -3.509276 -3.114295
C -0.501932 -3.653673 -3.005576
C -0.221502 -3.851723 -2.680248
C 0.167511 -3.983289 -2.364815
C 0.404926 -4.036705 -2.210557
C 0.264817 -4.079746 -2.235254
C -0.003895 -4.126529 -2.151259
C 0.136284 -4.239963 -1.984859
C -0.095004 -4.334595 -1.879074
C -0.127423 -4.388218 -1.761697
C 0.051207 -4.380908 -1.518554
C 0.347043 -4.420618 -1.089819
C 0.669269 -4.423891 -0.519420
C 1.288191 -4.358931 0.025359
C 1.687075 -4.213367 0.397602
C 2.204683 -4.133828 0.743710
C 2.365655 -4.038779 1.000104
C 2.288426 -4.017005 1.045283
C 2.094580 -4.032820 0.981758
C 2.114449 -4.026612 0.772255
C 1.912752 -4.128812 0.554195
C 1.572730 -4.322671 0.432097
C 1.449184 -4.304969 0.196626
C 1.419422 -4.242437 -0.009019
C 1.231589 -4.260638 -0.277031
C 1.062187 -4.212730 -0.542178
C 0.903117 -4.152506 -0.629473
C 0.666360 -4.145635 -0.755610
C 0.585885 -4.173069 -0.826949
C 0.331686 -4.270790 -0.766903
C 0.062871 -4.393328 -0.829236
C 0.134700 -4.349336 -0.613700
C 0.330959 -4.307076 -0.283873
C 0.509531 -4.289441 0.013960
C 0.776181 -4.226842 0.450233
C 0.983428 -4.155920 0.909504
C 1.348317 -3.958263 1.365959
C 1.647825 -3.869875 1.824725
C 1.796827 -3.866866 2.160827
C 1.830474 -3.901162 2.452561
C 1.855410 -3.963278 2.750927
C 1.946059 -3.945127 2.868585
C 2.090608 -3.834399 2.898070
C 2.011747 -3.938776 2.902224
