485
chr2 3D structure from Hi-C (resolution 500000bp)
C 3.865402 -1.304400 -0.074649
C 3.892779 -1.289086 -0.070867
C 3.847219 -1.109229 -0.166434
C 3.914508 -0.926768 -0.157208
C 3.960556 -0.836401 -0.166057
C 3.978706 -0.910251 -0.085864
C 3.926685 -0.841276 -0.157075
C 3.965400 -0.773236 -0.119624
C 3.956653 -0.709891 -0.126968
C 3.964945 -0.644099 -0.109215
C 3.864343 -0.633772 -0.208608
C 3.787198 -0.435739 -0.267733
C 3.628135 -0.023450 -0.450259
C 3.447968 0.416766 -0.664533
C 3.270753 0.837783 -0.898529
C 3.034170 1.234896 -1.095911
C 2.764119 1.523489 -1.284834
C 2.517748 1.842356 -1.435150
C 2.354940 1.981757 -1.554992
C 2.247849 2.030264 -1.645549
C 2.292553 1.988325 -1.675362
C 2.288881 1.878203 -1.647625
C 2.388988 1.663950 -1.599686
C 2.725926 1.444833 -1.446160
C 2.953700 1.226229 -1.272148
C 3.220291 1.007488 -1.072316
C 3.406107 0.818417 -0.952777
C 3.452591 0.684943 -0.947536
C 3.493594 0.560575 -0.966541
C 3.590404 0.432120 -0.952688
C 3.488237 0.317666 -0.996726
C 3.483693 0.068976 -1.077214
C 3.443227 0.024980 -1.222348
C 3.453343 -0.161174 -1.225782
C 3.437935 -0.298338 -1.196080
C 3.482636 -0.454410 -1.211711
C 3.364182 -0.450376 -1.241516
C 3.218246 -0.316721 -1.351119
C 3.113503 -0.176813 -1.429406
C 3.128775 -0.353525 -1.396874
C 3.125755 -0.503623 -1.366154
C 3.219713 -0.668364 -1.280006
C 3.175209 -0.738346 -1.171425
C 3.109443 -0.648768 -1.209265
C 3.154134 -0.497225 -1.246138
C 2.997787 -0.144994 -1.344307
C 2.649813 0.461085 -1.544183
C 2.304849 1.155981 -1.811941
C 1.872570 1.858674 -2.097781
C 1.511485 2.485206 -2.405078
C 1.283128 2.897204 -2.531230
C 1.028912 3.045679 -2.639918
C 0.923822 3.054411 -2.701938
C 0.829402 2.926146 -2.676188
C 0.790827 2.839696 -2.685038
C 0.932026 2.602587 -2.627947
C 1.191343 2.361738 -2.538518
C 1.337713 2.171173 -2.537415
C 1.538678 1.921503 -2.485323
C 1.688509 1.632850 -2.373960
C 2.006120 1.480420 -2.432504
C 2.191526 1.469280 -2.447182
C 2.327613 1.355803 -2.490142
C 2.347967 1.196213 -2.494348
C 2.476148 0.857039 -2.420173
C 2.471575 0.504562 -2.270743
C 2.710039 0.181721 -2.223706
C 2.759854 -0.255388 -2.020741
C 2.829811 -0.811224 -1.812471
C 2.933951 -1.075835 -1.775171
C 2.926717 -1.147552 -1.800579
C 2.802526 -0.838377 -1.946026
C 2.702759 -0.446581 -2.136410
C 2.453086 -0.004087 -2.335084
C 2.212765 0.484840 -2.548787
C 2.191239 0.688974 -2.827936
C 2.025829 0.760889 -2.783736
C 2.061584 0.530811 -2.674562
C 2.233327 0.001799 -2.451117
C 2.352017 -0.431560 -2.240167
C 2.320537 -0.764873 -2.032531
C 2.291136 -0.954752 -1.935141
C 2.060460 -0.731039 -1.828315
C 1.846251 -0.354863 -1.984512
C 1.573840 0.141853 -2.147287
C 1.187181 0.734159 -2.388902
C 1.005824 1.180717 -2.671221
C 0.983151 1.431486 -2.835776
C 0.882534 1.596399 -2.908799
C 0.841601 1.578843 -2.984542
C 0.834122 1.454461 -2.921331
C 0.854516 1.379249 -2.976259
C 1.078613 1.207579 -3.012637
C 1.168607 0.988241 -2.997797
C 1.199295 0.674359 -2.838847
C 1.381372 0.227587 -2.685888
C 1.676444 -0.311955 -2.507266
C 1.879448 -0.788692 -2.320133
C 2.059981 -1.299032 -2.043640
C 2.062425 -1.769645 -1.763859
C 2.127888 -2.198535 -1.541196
C 2.224026 -2.477573 -1.476878
C 2.339692 -2.728330 -1.391464
C 2.285416 -2.752947 -1.363170
C 2.189253 -2.561131 -1.541188
C 2.080703 -2.358306 -1.709553
C 1.935776 -2.056909 -1.863286
C 1.730311 -1.608835 -2.023507
C 1.595006 -1.336000 -2.223145
C 1.438030 -1.153333 -2.383557
C 1.406978 -1.178577 -2.493615
C 1.457368 -1.387857 -2.452029
C 1.459110 -1.451088 -2.497652
C 1.553486 -1.579410 -2.629046
C 1.670467 -1.901481 -2.644780
C 1.703713 -2.013101 -2.698297
C 1.712077 -2.001873 -2.813157
C 1.577184 -1.742133 -2.952849
C 1.435654 -1.430964 -3.114405
C 1.189600 -1.013566 -3.205430
C 0.927403 -0.640835 -3.264560
C 0.685235 -0.216661 -3.386556
C 0.529278 0.111035 -3.491337
C 0.431626 0.314145 -3.680645
C 0.261957 0.439378 -3.830441
C 0.127692 0.514457 -3.873387
C 0.101808 0.413673 -3.893749
C 0.143291 0.274523 -3.844136
C 0.232112 -0.033330 -3.764068
C 0.265169 -0.376173 -3.664172
C 0.242132 -0.613209 -3.423288
C 0.322623 -0.869290 -3.263631
C 0.423993 -1.155195 -3.203716
C 0.466314 -1.267179 -3.124623
C 0.480564 -1.390553 -3.116120
C 0.405460 -1.259840 -3.130850
C 0.259157 -0.795598 -3.170101
C 0.062429 -0.406231 -3.349125
C -0.059144 -0.184109 -3.356990
C -0.247408 0.028740 -3.418417
C -0.272684 -0.170812 -3.483601
C -0.296945 -0.348598 -3.455239
C -0.359678 -0.475922 -3.515743
C -0.366986 -0.699526 -3.561638
C -0.383573 -0.632777 -3.485497
C -0.478305 -0.350198 -3.533257
C -0.507929 -0.318985 -3.507213
C -0.510360 -0.247890 -3.409319
C -0.513663 -0.224046 -3.293418
C -0.486292 -0.537892 -3.145688
C -0.395698 -0.904207 -2.956950
C -0.298627 -1.511732 -2.776708
C -0.029390 -2.293946 -2.521573
C 0.162173 -2.742709 -2.310333
C 0.264478 -3.094561 -2.239739
C 0.357762 -3.310004 -2.230716
C 0.486386 -3.289328 -2.147589
C 0.480851 -3.264527 -2.253141
C 0.490791 -3.122530 -2.315786
C 0.409200 -3.173091 -2.256151
C 0.374355 -3.195792 -2.224871
C 0.416049 -3.324837 -2.075758
C 0.465536 -3.486348 -1.955619
C 0.425580 -3.485633 -1.876538
C 0.433313 -3.546269 -1.677913
C 0.404366 -3.567501 -1.637068
C 0.234854 -3.253781 -1.909684
C 0.082738 -2.914212 -2.053624
C -0.187918 -2.182310 -2.326711
C -0.522102 -1.441127 -2.640489
C -0.809005 -1.025033 -2.958698
C -1.255787 -0.764869 -3.299468
C -0.985453 -1.070090 -2.966583
C -1.003753 -0.979932 -2.853350
C -1.079403 -1.080563 -2.928901
C -0.781347 -1.923381 -2.400740
C -0.447724 -2.725355 -1.904443
C 0.002211 -3.344048 -1.232940
C 0.745417 -3.758900 -0.388699
C 0.842575 -3.719964 -0.186442
C 1.323265 -4.141672 0.288623
C 1.970983 -4.473015 1.054586
C 2.321114 -4.254979 1.296738
C 2.697714 -4.062110 1.640647
C 2.032645 -2.780001 1.315899
C 1.199642 -1.588846 0.862223
C 0.468874 -1.283361 0.234707
C -0.271451 -0.606345 -0.323016
C -1.159052 0.073088 -1.057833
C -2.004493 0.885889 -1.767221
C -2.870896 1.728264 -2.476584
C -2.819440 1.586317 -2.661444
C -2.718883 1.438799 -2.795840
C -2.689024 2.059033 -2.704848
C -2.629489 2.196913 -2.584870
C -2.597278 2.309966 -2.513387
C -2.647396 1.992659 -2.452790
C -2.711952 1.691955 -2.406510
C -2.639962 1.225718 -2.304614
C -2.661075 0.859830 -2.304290
C -2.695024 0.503111 -2.289334
C -2.747855 0.243067 -2.214701
C -2.686305 -0.239277 -2.064188
C -2.527307 -0.758058 -1.897664
C -2.328342 -1.412783 -1.691638
C -2.248658 -1.849536 -1.545018
C -2.167591 -2.238551 -1.426609
C -2.105110 -2.327675 -1.319374
C -2.010548 -2.337447 -1.280032
C -2.033387 -2.342775 -1.287749
C -2.081223 -2.187645 -1.268690
C -2.183060 -2.042803 -1.322534
C -2.314161 -2.042272 -1.410697
C -2.363678 -1.897224 -1.385984
C -2.425225 -1.670452 -1.403377
C -2.534686 -1.603922 -1.482322
C -2.640518 -1.141233 -1.483366
C -2.912975 -0.421467 -1.596918
C -3.020838 0.217839 -1.663089
C -3.147769 0.860704 -1.769898
C -3.262285 1.333559 -1.836325
C -3.283137 1.533021 -1.836884
C -3.255370 1.764285 -1.742764
C -3.164818 1.647789 -1.668822
C -3.041865 1.334433 -1.579323
C -2.969060 0.761431 -1.475466
C -2.757078 0.041718 -1.191768
C -2.579365 -0.760978 -0.997919
C -2.410729 -1.565358 -0.770344
C -2.267282 -2.281718 -0.587124
C -2.120757 -2.970053 -0.395077
C -1.931631 -3.473558 -0.228423
C -1.836122 -3.386827 -0.103506
C -1.914100 -3.034209 -0.177820
C -1.948685 -2.756173 -0.212221
C -2.119227 -2.283844 -0.400045
C -2.403278 -1.748577 -0.570747
C -2.658884 -1.148958 -0.756702
C -2.885023 -0.788425 -0.942664
C -3.089415 -0.562604 -1.092087
C -3.277137 -0.545937 -1.167997
C -3.412475 -0.577484 -1.165530
C -3.388431 -0.762132 -1.030991
C -3.270100 -1.135732 -0.863433
C -3.152537 -1.595549 -0.696912
C -3.029303 -1.926303 -0.481474
C -3.038105 -2.304499 -0.328691
C -2.988735 -2.563584 -0.223127
C -2.859169 -2.652417 -0.132746
C -2.786881 -2.771663 -0.066169
C -2.782876 -2.634869 -0.057468
C -2.748019 -2.186114 -0.121533
C -2.778778 -1.613469 -0.210134
C -2.761998 -1.129578 -0.286970
C -2.677651 -0.844710 -0.262935
C -2.828208 -0.558060 -0.313067
C -2.985470 -0.307187 -0.365122
C -3.254286 -0.004962 -0.410439
C -3.503475 -0.026909 -0.410138
C -3.683686 -0.133622 -0.380037
C -3.810279 -0.315430 -0.321695
C -4.003264 -0.457398 -0.284119
C -3.940628 -0.628262 -0.198356
C -4.001151 -0.736774 -0.121503
C -3.762366 -0.959127 -0.036628
C -3.590575 -0.933090 0.036959
C -3.546193 -0.936756 0.100180
C -3.559661 -0.677366 0.177265
C -3.499774 -0.210685 0.173780
C -3.554395 0.085814 0.202773
C -3.424014 0.101676 0.285585
C -3.449812 -0.048838 0.442698
C -3.394689 -0.317060 0.586865
C -3.353530 -0.440252 0.727339
C -3.157046 -0.773925 0.868663
C -2.884672 -1.335504 1.070786
C -2.698511 -1.755991 1.191736
C -2.604720 -1.903226 1.286736
C -2.423271 -1.983514 1.323284
C -2.303375 -2.069894 1.402972
C -2.106690 -2.300712 1.480102
C -2.021034 -2.498284 1.580927
C -2.236815 -2.397111 1.703632
C -2.280610 -2.120497 1.721537
C -2.350329 -1.855103 1.692549
C -2.537446 -1.552960 1.685820
C -2.515796 -1.717440 1.722729
C -2.395129 -1.867857 1.745060
C -2.296141 -1.882567 1.730843
C -2.039122 -2.089468 1.717829
C -1.948140 -2.426201 1.779589
C -1.985169 -2.579394 1.875054
C -1.863168 -2.651101 1.906580
C -2.020719 -2.173483 1.841902
C -2.402898 -1.689039 1.845546
C -2.535762 -1.391330 1.863355
C -2.655092 -1.166695 1.876349
C -2.724978 -1.025644 1.939411
C -2.645059 -1.001183 1.977383
C -2.551100 -1.001947 1.980568
C -2.650035 -0.938539 2.096883
C -2.525931 -0.942245 2.123589
C -2.444618 -0.945218 2.095971
C -2.307304 -1.025729 2.143781
C -2.187639 -1.035060 2.179938
C -1.958101 -1.285409 2.204744
C -1.946063 -1.407687 2.406002
C -1.663670 -1.764324 2.536340
C -1.398173 -2.074853 2.630904
C -1.396013 -2.125115 2.800500
C -1.406488 -2.128018 2.905670
C -1.523422 -2.003019 2.975555
C -1.707154 -1.744078 3.044713
C -1.570060 -1.857973 2.963125
C -1.628690 -1.664159 2.876596
C -1.712257 -1.342172 2.732239
C -1.728853 -1.064427 2.466595
C -1.679043 -0.917183 2.343791
C -1.511295 -0.932748 2.258217
C -1.571484 -0.755267 2.224945
C -1.426267 -0.875459 2.203204
C -1.152838 -1.100766 2.216398
C -0.875227 -1.464267 2.393925
C -0.590499 -1.984911 2.678962
C -0.377457 -2.236520 2.782353
C -0.250131 -2.425438 2.839899
C 0.034429 -2.654069 2.847276
C -0.048171 -2.495276 3.013621
C -0.045390 -2.406361 3.097810
C 0.064127 -2.442868 3.116621
C 0.228694 -2.421329 3.092692
C 0.299608 -2.441424 3.068668
C 0.275946 -2.307031 3.107976
C 0.150450 -2.065697 3.038904
C -0.160007 -1.653780 2.863912
C -0.408687 -1.303846 2.685238
C -0.847144 -0.693168 2.417078
C -1.305552 -0.040955 2.194440
C -1.754938 0.696064 1.935405
C -1.493594 0.775801 1.857413
C -1.641448 1.155735 1.622926
C -1.594531 1.329851 1.437200
C -1.636472 1.505524 1.267561
C -1.669285 1.588759 1.250571
C -1.722048 1.625532 1.250390
C -1.723305 1.671016 1.255381
C -2.286599 2.145874 1.139537
C -2.346403 2.116632 1.363039
C -2.367934 2.050943 1.539809
C -2.398338 2.047052 1.710408
C -2.355695 2.012391 1.826754
C -2.364404 2.071222 1.931626
C -2.279522 1.911713 2.145087
C -2.156264 1.769326 2.264166
C -2.042534 1.649996 2.375789
C -1.917739 1.554034 2.458622
C -1.684305 1.257522 2.635713
C -1.501752 0.937913 2.856598
C -1.335004 0.610134 3.143115
C -1.302070 0.660506 3.283613
C -1.237480 0.607047 3.442873
C -1.080156 0.401154 3.619922
C -1.000229 0.311633 3.772615
C -1.022958 0.361402 3.766591
C -0.916568 0.324905 3.767966
C -0.728562 0.249117 3.758178
C -0.474416 -0.038491 3.788555
C -0.273527 -0.285124 3.831731
C -0.065257 -0.456080 3.760036
C -0.005675 -0.414305 3.717713
C 0.102367 -0.428904 3.726489
C 0.184416 -0.447414 3.794820
C 0.335197 -0.519014 3.778330
C 0.518481 -0.616292 3.818405
C 0.735544 -0.701318 3.783112
C 0.706400 -0.560812 3.749963
C 0.720927 -0.540706 3.638741
C 0.551989 -0.286096 3.613776
C 0.261219 0.203342 3.404160
C 0.118522 0.438485 3.335887
C -0.117811 0.739154 3.284451
C -0.172433 0.881908 3.294903
C 0.109578 0.732414 3.291117
C 0.488971 0.520213 3.374201
C 0.972401 0.122341 3.456483
C 1.501552 -0.351041 3.640803
C 1.765498 -0.583150 3.653452
C 1.992506 -0.733948 3.674115
C 1.941454 -0.589198 3.633347
C 1.560526 -0.189849 3.570999
C 1.117371 0.273656 3.451416
C 0.680210 0.763451 3.236092
C 0.290553 1.128805 3.072408
C -0.018502 1.512546 3.025935
C -0.153112 1.719605 3.005773
C -0.268305 1.884240 3.045484
C -0.276303 1.962108 3.043946
C -0.247366 1.962040 2.996802
C -0.261121 2.037664 2.959000
C -0.333584 2.189664 2.756647
C -0.425641 2.335244 2.491467
C -0.642240 2.607525 2.111097
C -0.833431 2.861342 1.807057
C -0.870936 2.987381 1.648073
C -0.783276 2.941810 1.628019
C -0.609448 2.753417 1.749503
C -0.247963 2.501794 2.097929
C 0.011490 2.234241 2.339756
C 0.194532 2.077399 2.564763
C 0.336017 1.995815 2.616435
C 0.429682 1.936437 2.678950
C 0.417096 2.000490 2.631242
C 0.386051 2.143660 2.592569
C 0.237361 2.265617 2.472719
C 0.376181 2.154973 2.510137
C 0.680330 1.886514 2.583446
C 1.131695 1.536344 2.729250
C 1.338920 1.282347 2.823383
C 1.598837 0.997957 3.008612
C 1.921796 0.716411 3.103666
C 2.180184 0.521061 3.182400
C 2.236080 0.574653 3.154764
C 2.098591 0.750108 3.128451
C 1.847414 1.001581 3.112779
C 1.914297 1.006766 3.072367
C 2.068358 1.050636 3.059535
C 1.916159 1.181418 2.948241
C 1.847249 1.385387 2.900235
C 1.653176 1.659722 2.807315
C 1.502700 1.876875 2.571341
C 1.426864 2.027507 2.358684
C 1.248741 2.386126 2.169398
C 0.971516 2.813191 1.930339
C 0.756943 3.074335 1.705773
C 0.453112 3.393274 1.380770
C 0.549766 3.599238 1.153759
C 0.718247 3.510107 1.215919
C 0.873184 3.271566 1.313361
C 1.078672 3.170796 1.460075
C 1.130833 2.926716 1.603701
C 1.531875 2.729211 1.856829
C 1.866021 2.449266 2.047982
C 1.855762 2.291846 2.248061
C 1.982398 2.236678 2.312293
C 1.938715 2.334737 2.251980
C 1.936519 2.287109 2.174508
C 1.999280 2.405581 2.069017
C 1.907666 2.365421 2.044534
C 1.983586 2.211837 2.108668
C 2.151084 2.060772 2.121485
C 2.178578 2.134399 2.109306
C 2.210012 2.177628 2.152904
C 2.114809 2.160063 2.180163
C 2.181696 2.059049 2.293046
C 2.295253 2.101959 2.270511
C 2.154280 2.189783 2.213435
C 1.963764 2.379449 2.113392
C 1.604265 2.420850 1.914711
C 1.352188 2.586733 1.720202
C 1.092684 2.805611 1.403228
C 0.683157 3.073717 1.036785
C 0.304304 3.301069 0.729005
C 0.050414 3.611300 0.436037
C -0.187529 3.679938 0.185900
C -0.107459 3.801728 0.155749
C 0.006290 3.784276 0.120910
C 0.238580 3.734304 0.221045
C 0.481298 3.604765 0.346269
C 0.678627 3.593387 0.430818
C 0.903790 3.554670 0.488336
C 1.070613 3.560908 0.542409
C 1.037460 3.614694 0.525003
C 0.975151 3.722074 0.422042
C 0.830932 3.805141 0.318400
C 0.762212 3.910086 0.218303
C 0.628483 4.001096 0.081886
C 0.509401 4.032925 0.006995
C 0.328325 4.150730 -0.077998
C 0.215355 4.217784 -0.191802
C 0.115561 4.208305 -0.266364
C -0.074044 4.303220 -0.384164
C 0.431906 3.420531 -0.046889
C 0.402137 3.300811 -0.011250
C 0.370806 3.137502 -0.006947
C 0.570897 2.804486 0.062360
