485
chr2 3D structure from Hi-C (resolution 500000bp)
C 3.677193 -0.869185 0.306616
C 3.748167 -0.852774 0.256197
C 3.702945 -0.791005 0.193355
C 3.756787 -0.580172 0.153112
C 3.813417 -0.497252 0.159291
C 3.853440 -0.557847 0.192355
C 3.780411 -0.543271 0.104394
C 3.739584 -0.650804 0.098859
C 3.721182 -0.582830 0.115015
C 3.692447 -0.443688 0.113593
C 3.589032 -0.431570 0.074395
C 3.517702 -0.287653 -0.009965
C 3.381970 0.072880 -0.159802
C 3.208631 0.521394 -0.363105
C 3.073137 1.041456 -0.597111
C 2.838872 1.361965 -0.834379
C 2.625267 1.622897 -1.026965
C 2.460857 1.849389 -1.192666
C 2.314424 1.951070 -1.318260
C 2.233599 1.978621 -1.439078
C 2.307222 1.919991 -1.452514
C 2.335164 1.734783 -1.389529
C 2.423436 1.540974 -1.285320
C 2.698014 1.340686 -1.164669
C 2.862086 1.137131 -1.078358
C 3.102981 0.944735 -0.921607
C 3.263191 0.698849 -0.803537
C 3.324104 0.587670 -0.764511
C 3.364707 0.496364 -0.797032
C 3.457122 0.362336 -0.810683
C 3.440086 0.195079 -0.843031
C 3.453500 -0.016221 -0.839191
C 3.415893 -0.073452 -0.905355
C 3.397427 -0.151367 -0.957614
C 3.385856 -0.304916 -0.950287
C 3.392187 -0.396301 -0.930955
C 3.297118 -0.360982 -0.998304
C 3.167546 -0.194291 -1.132205
C 3.073049 -0.045306 -1.247372
C 3.119347 -0.207988 -1.225465
C 3.144922 -0.348032 -1.181440
C 3.232067 -0.460196 -1.109860
C 3.231010 -0.547949 -1.029878
C 3.145212 -0.512135 -1.014989
C 3.182429 -0.391671 -1.020250
C 2.993117 -0.077308 -1.094999
C 2.651257 0.508585 -1.320166
C 2.293236 1.149482 -1.547045
C 1.819491 1.745216 -1.880399
C 1.463332 2.327778 -2.210788
C 1.278003 2.707663 -2.411219
C 0.940797 2.894482 -2.499318
C 0.870857 2.880748 -2.552740
C 0.806698 2.755538 -2.517832
C 0.836982 2.682556 -2.520374
C 0.966342 2.539326 -2.420247
C 1.196135 2.299534 -2.344690
C 1.312587 2.171495 -2.269196
C 1.535514 1.968032 -2.219079
C 1.626104 1.744878 -2.127504
C 1.868850 1.696580 -2.169828
C 1.976324 1.701660 -2.222476
C 2.177358 1.536043 -2.271151
C 2.215797 1.353900 -2.243102
C 2.358144 1.005894 -2.206348
C 2.411182 0.605451 -2.069415
C 2.646118 0.158492 -1.875200
C 2.718962 -0.328876 -1.712693
C 2.833353 -0.884463 -1.475043
C 2.908134 -1.119813 -1.405889
C 2.875170 -1.156955 -1.404588
C 2.723351 -0.853445 -1.553811
C 2.584748 -0.474115 -1.739015
C 2.313463 0.103383 -2.064632
C 2.124111 0.481910 -2.282759
C 2.126040 0.783749 -2.526637
C 2.023082 0.847829 -2.541313
C 2.100916 0.701869 -2.514511
C 2.277305 0.255005 -2.364786
C 2.373301 -0.159191 -2.138990
C 2.442045 -0.522989 -1.927661
C 2.405771 -0.606612 -1.832136
C 2.120245 -0.520296 -1.743548
C 1.823289 -0.155351 -1.856823
C 1.522974 0.240415 -1.988386
C 1.237546 0.739481 -2.154130
C 1.113343 1.121651 -2.483808
C 1.076763 1.378316 -2.686852
C 0.991511 1.468807 -2.729911
C 1.041865 1.473472 -2.811212
C 1.075354 1.345444 -2.795714
C 1.103925 1.271335 -2.837293
C 1.233189 1.110438 -2.863070
C 1.289498 0.978407 -2.827633
C 1.327199 0.668390 -2.657516
C 1.464353 0.307994 -2.456876
C 1.647919 -0.198263 -2.247114
C 1.886723 -0.614820 -2.063007
C 2.075466 -1.098067 -1.779426
C 2.115472 -1.544619 -1.500821
C 2.206477 -1.985661 -1.233485
C 2.292900 -2.252083 -1.185837
C 2.447449 -2.469743 -1.118011
C 2.423981 -2.491167 -1.154179
C 2.332198 -2.361327 -1.284179
C 2.227499 -2.125715 -1.502730
C 2.086346 -1.822313 -1.661768
C 1.892748 -1.407853 -1.855135
C 1.788504 -1.166290 -2.009169
C 1.625229 -1.005816 -2.191652
C 1.612006 -1.014916 -2.253487
C 1.636866 -1.198045 -2.232786
C 1.634453 -1.307371 -2.252069
C 1.713985 -1.436606 -2.356727
C 1.845972 -1.731253 -2.403764
C 1.867302 -1.861374 -2.442200
C 1.862144 -1.898532 -2.562563
C 1.723579 -1.699195 -2.704095
C 1.598961 -1.413402 -2.829620
C 1.391420 -1.034966 -2.949191
C 1.124786 -0.655862 -2.994931
C 0.889908 -0.292518 -3.117899
C 0.713364 -0.038906 -3.235355
C 0.584081 0.161665 -3.447622
C 0.511856 0.310488 -3.609830
C 0.349568 0.451684 -3.667664
C 0.315198 0.426993 -3.642241
C 0.366453 0.278373 -3.619608
C 0.440667 0.044335 -3.541356
C 0.477251 -0.219065 -3.450042
C 0.498707 -0.419739 -3.232031
C 0.495351 -0.704007 -3.055299
C 0.607949 -1.040966 -2.974328
C 0.640627 -1.196952 -2.899418
C 0.662786 -1.351670 -2.890054
C 0.567797 -1.200343 -2.911563
C 0.395042 -0.768349 -2.975031
C 0.175362 -0.418008 -3.127539
C 0.111477 -0.207831 -3.170448
C 0.002606 -0.077732 -3.293484
C -0.004907 -0.277357 -3.354095
C 0.018815 -0.468973 -3.264771
C 0.033421 -0.716564 -3.277915
C 0.043103 -0.878683 -3.340528
C 0.075154 -0.873717 -3.257610
C -0.087791 -0.564221 -3.287642
C -0.152383 -0.534942 -3.254278
C -0.151099 -0.470664 -3.177716
C -0.212976 -0.391934 -3.197790
C -0.150895 -0.599201 -3.122063
C -0.047330 -0.957214 -2.900957
C 0.090888 -1.470218 -2.742122
C 0.321185 -2.236332 -2.516285
C 0.497836 -2.591872 -2.281220
C 0.563472 -2.907528 -2.204275
C 0.611101 -3.131452 -2.096930
C 0.629517 -3.118786 -1.938385
C 0.726326 -3.229754 -1.852692
C 0.675477 -3.232945 -1.816296
C 0.708697 -3.253785 -1.766049
C 0.682242 -3.263655 -1.701327
C 0.780982 -3.390689 -1.522002
C 0.889658 -3.549099 -1.401101
C 0.881904 -3.539867 -1.340005
C 0.733017 -3.495942 -1.374630
C 0.662550 -3.386880 -1.439262
C 0.463995 -3.101107 -1.712646
C 0.300668 -2.723987 -1.920999
C -0.038237 -2.012388 -2.228243
C -0.371565 -1.340346 -2.564273
C -0.674444 -0.946827 -2.926276
C -1.010501 -0.665587 -3.265326
C -0.842315 -0.976364 -2.840885
C -0.832792 -0.929452 -2.700222
C -0.915681 -1.064586 -2.811252
C -0.476518 -1.829585 -2.204839
C -0.139242 -2.539326 -1.710245
C 0.406423 -3.071165 -1.017844
C 1.079518 -3.457493 -0.126419
C 1.227221 -3.393757 0.027865
C 1.512324 -3.776839 0.498211
C 2.085371 -4.097952 1.324953
C 2.260195 -3.917395 1.506429
C 2.558599 -3.730791 1.856030
C 1.797766 -2.609132 1.430901
C 0.990233 -1.553634 0.843739
C 0.370761 -1.306945 0.170869
C -0.214350 -0.627347 -0.400453
C -0.989657 0.108520 -1.163783
C -1.742786 0.914336 -1.908852
C -2.517281 1.665591 -2.668745
C -2.113543 0.451801 -2.362593
C -2.039881 0.251482 -2.469138
C -2.038419 0.828134 -2.419657
C -2.017556 0.911426 -2.340554
C -2.000548 0.819265 -2.330271
C -2.064588 0.453235 -2.286965
C -2.139173 0.083220 -2.264151
C -2.431839 0.671169 -2.581398
C -2.414680 0.344758 -2.512592
C -2.478517 0.092990 -2.473381
C -2.493989 -0.159593 -2.426542
C -2.491121 -0.489194 -2.232183
C -2.330053 -0.988117 -2.005155
C -2.126420 -1.532784 -1.739730
C -2.029750 -1.918549 -1.564692
C -1.935955 -2.240745 -1.441465
C -1.864694 -2.365912 -1.324043
C -1.781582 -2.361045 -1.236625
C -1.727760 -2.435575 -1.222588
C -1.752256 -2.271867 -1.257403
C -1.806193 -2.129758 -1.345434
C -1.952640 -2.092141 -1.463456
C -2.020498 -1.960913 -1.493880
C -2.044035 -1.767753 -1.533553
C -2.146831 -1.645359 -1.591206
C -2.310808 -1.267843 -1.647964
C -2.159365 -1.577498 -1.508764
C -2.340295 -0.975448 -1.546074
C -2.475839 -0.324568 -1.635513
C -2.590675 0.118004 -1.675603
C -2.624534 0.330758 -1.680118
C -2.608684 0.522394 -1.649231
C -2.489124 0.532609 -1.561615
C -2.789670 1.256084 -1.740287
C -2.673620 0.718259 -1.634053
C -2.516804 0.059775 -1.447583
C -2.322854 -0.654512 -1.203063
C -2.230059 -1.400457 -0.993532
C -2.165204 -2.046539 -0.783386
C -2.069169 -2.700693 -0.654396
C -1.968318 -3.195918 -0.458795
C -1.939624 -3.086096 -0.371925
C -1.963508 -2.847918 -0.386794
C -2.041773 -2.541041 -0.459431
C -2.160023 -2.159102 -0.620211
C -2.359276 -1.708698 -0.821030
C -2.585483 -1.170921 -0.927695
C -2.728755 -0.861976 -1.130573
C -2.891755 -0.673406 -1.249395
C -3.086143 -0.598296 -1.286055
C -3.202745 -0.688748 -1.307269
C -3.172121 -0.859702 -1.186221
C -3.062853 -1.204434 -1.039156
C -2.976201 -1.605957 -0.941701
C -2.932603 -1.886858 -0.761959
C -2.903200 -2.274068 -0.661930
C -2.866415 -2.490117 -0.605819
C -2.824970 -2.487898 -0.498643
C -2.793200 -2.494213 -0.447890
C -2.764298 -2.370646 -0.385663
C -2.710588 -1.985336 -0.389411
C -2.702712 -1.460817 -0.483372
C -2.734431 -0.941672 -0.509435
C -2.638057 -0.708858 -0.462921
C -2.703642 -0.533142 -0.545555
C -2.825500 -0.350298 -0.597334
C -3.104654 -0.038918 -0.670942
C -3.338367 -0.013265 -0.693914
C -3.483076 -0.160885 -0.635402
C -3.583780 -0.182914 -0.587474
C -3.673218 -0.450098 -0.488347
C -3.607666 -0.563375 -0.381359
C -3.666705 -0.636467 -0.308649
C -3.424042 -0.871533 -0.212233
C -3.238977 -0.870161 -0.101798
C -3.221137 -0.847254 -0.034752
C -3.237990 -0.647912 -0.038568
C -3.265809 -0.092466 -0.104906
C -3.328565 0.180546 -0.091460
C -3.110365 0.091956 0.040992
C -3.125262 -0.117718 0.186933
C -3.100071 -0.420502 0.327472
C -3.036884 -0.605001 0.462772
C -2.879521 -1.024083 0.646100
C -2.629331 -1.541052 0.863194
C -2.382680 -1.971578 1.018162
C -2.348774 -2.079206 1.107067
C -2.210237 -2.064095 1.192997
C -2.138343 -2.119501 1.269600
C -1.985582 -2.231814 1.347873
C -1.834352 -2.441925 1.480753
C -2.031711 -2.371060 1.553413
C -2.180809 -2.062718 1.563038
C -2.306697 -1.790110 1.508838
C -2.526357 -1.522843 1.440864
C -2.417875 -1.677846 1.491621
C -2.358187 -1.813846 1.549704
C -2.293502 -1.781673 1.535774
C -1.995721 -1.974383 1.579932
C -1.793268 -2.295366 1.698705
C -1.854063 -2.303987 1.762841
C -1.685416 -2.319151 1.791150
C -1.926281 -1.807875 1.714575
C -2.237545 -1.345687 1.690077
C -2.430950 -1.066763 1.655285
C -2.578854 -0.846432 1.603939
C -2.772351 -0.724753 1.577893
C -2.646014 -0.849342 1.641737
C -2.626503 -0.865425 1.644244
C -2.723492 -0.814006 1.678686
C -2.668298 -0.810514 1.616894
C -2.568085 -0.796513 1.636639
C -2.449615 -0.878787 1.712369
C -2.288240 -0.908729 1.772434
C -2.171014 -1.037293 1.889689
C -2.235525 -1.100647 2.085188
C -2.029602 -1.461485 2.250981
C -1.798406 -1.749901 2.455319
C -1.809706 -1.838145 2.603922
C -1.941180 -1.717055 2.711362
C -2.110811 -1.510694 2.762633
C -2.198720 -1.362691 2.765384
C -2.179179 -1.392071 2.753633
C -2.206403 -1.168264 2.673025
C -2.291755 -0.824464 2.460036
C -2.332527 -0.571388 2.229767
C -2.239538 -0.488522 2.105358
C -2.022387 -0.578643 2.039349
C -2.089369 -0.356274 1.988962
C -1.868258 -0.529669 2.062876
C -1.654143 -0.727828 2.177218
C -1.366785 -1.124954 2.405974
C -1.076955 -1.593717 2.674979
C -0.811631 -1.881763 2.791773
C -0.708795 -2.061947 2.872366
C -0.440309 -2.282142 2.917451
C -0.327572 -2.261113 2.922793
C -0.247135 -2.239381 2.945462
C -0.109721 -2.298074 2.971573
C -0.019313 -2.329920 2.947382
C 0.012195 -2.362982 2.926865
C -0.119569 -2.176399 2.952431
C -0.175745 -1.993773 2.831776
C -0.477744 -1.560545 2.700413
C -0.671631 -1.246501 2.544503
C -1.090843 -0.643759 2.265798
C -1.460445 0.068787 1.945117
C -1.880027 0.793409 1.645288
C -2.057465 1.395354 1.234083
C -2.270570 1.756739 1.016584
C -2.275371 1.924852 0.780052
C -2.304195 2.069010 0.604091
C -2.300948 2.150033 0.607345
C -2.296763 2.150656 0.667941
C -2.281226 2.169806 0.712866
C -2.246124 2.004585 0.882014
C -2.265512 2.018268 1.050314
C -2.238953 1.948808 1.227400
C -2.266966 1.956486 1.366627
C -2.196539 1.915831 1.444372
C -2.279184 1.895529 1.574192
C -2.223800 1.775144 1.755828
C -2.149375 1.673812 1.868314
C -2.047400 1.510259 2.032490
C -1.965567 1.405497 2.154187
C -1.761450 1.166734 2.322038
C -1.587242 0.812818 2.563642
C -1.182493 0.400369 2.860288
C -1.132518 0.374274 3.032023
C -0.965374 0.206688 3.239302
C -0.697767 -0.043223 3.446414
C -0.586492 -0.138654 3.619629
C -0.617146 -0.077084 3.633826
C -0.556835 -0.049487 3.650169
C -0.652671 0.033307 3.636668
C -0.386744 -0.246915 3.658796
C -0.237717 -0.416485 3.666241
C -0.121386 -0.509884 3.568404
C -0.029245 -0.494836 3.519798
C 0.061401 -0.527250 3.547002
C 0.136357 -0.529591 3.585960
C 0.380026 -0.606637 3.550638
C 0.590005 -0.685112 3.535294
C 0.763796 -0.714247 3.520070
C 0.755694 -0.607603 3.489167
C 0.640570 -0.502853 3.381205
C 0.484863 -0.272352 3.375108
C 0.154521 0.143703 3.191390
C -0.116400 0.445486 3.130281
C -0.440657 0.743983 3.137433
C -0.505998 0.873972 3.144862
C -0.351792 0.809004 3.209076
C -0.011356 0.577922 3.348394
C 0.536216 0.213659 3.381694
C 1.092963 -0.253028 3.555709
C 1.335474 -0.434687 3.651470
C 1.552049 -0.522311 3.683660
C 1.338495 -0.306780 3.687382
C 1.018228 0.045747 3.542954
C 0.630213 0.466015 3.384563
C 0.122901 0.905090 3.156695
C -0.241278 1.306091 3.045959
C -0.423490 1.508751 2.974979
C -0.473917 1.666655 2.925411
C -0.389513 1.755151 2.927090
C -0.318021 1.757903 2.992807
C -0.264587 1.771719 2.949295
C -0.242457 1.852847 2.940089
C -0.337013 1.985492 2.722255
C -0.436878 2.201471 2.425438
C -0.642285 2.451264 2.117789
C -0.863466 2.683346 1.837448
C -1.005969 2.878376 1.604558
C -0.936131 2.851035 1.557322
C -0.781634 2.686808 1.654637
C -0.262135 2.390536 1.868810
C 0.051769 2.101797 2.104452
C 0.243104 1.925469 2.290388
C 0.387924 1.804030 2.399127
C 0.540632 1.664718 2.529986
C 0.576732 1.664189 2.512532
C 0.487358 1.817586 2.482408
C 0.208915 1.968965 2.456557
C 0.277007 1.970256 2.516292
C 0.478355 1.805843 2.624328
C 0.897468 1.556399 2.732876
C 1.022564 1.403855 2.820000
C 1.206093 1.212620 2.992476
C 1.533350 0.873848 3.138894
C 1.760476 0.626971 3.221305
C 1.825728 0.572290 3.193151
C 1.737728 0.674548 3.142246
C 1.503448 0.850122 3.127751
C 1.563655 0.917428 3.101502
C 1.743499 0.940287 3.108642
C 1.597548 1.113812 3.001011
C 1.516471 1.372549 2.936545
C 1.299020 1.690369 2.777604
C 1.112855 1.914568 2.499586
C 0.995401 2.100679 2.251356
C 0.835614 2.386512 2.028529
C 0.529233 2.796557 1.740606
C 0.384244 3.062289 1.486171
C 0.150231 3.370721 1.202309
C -0.041091 3.582285 1.020542
C 0.118568 3.553734 1.116410
C 0.240966 3.414295 1.231844
C 0.463105 3.278574 1.375516
C 0.544177 3.081347 1.487532
C 0.879024 2.983918 1.670472
C 1.090336 2.782808 1.845650
C 1.392166 2.578123 2.028724
C 1.526442 2.529236 2.094917
C 1.473950 2.543753 2.065429
C 1.360669 2.608731 1.978305
C 1.379029 2.696254 1.970533
C 1.298740 2.571921 2.023722
C 1.426927 2.432369 2.100864
C 1.588262 2.291206 2.144154
C 1.639512 2.274927 2.151022
C 1.802712 2.257021 2.166059
C 1.848268 2.139582 2.192192
C 2.017108 1.939394 2.290715
C 2.161764 1.972878 2.268199
C 2.122754 1.949324 2.215332
C 1.980841 2.125998 2.086830
C 1.626799 2.197405 1.876254
C 1.307120 2.399270 1.662060
C 1.016569 2.593264 1.416647
C 0.605544 2.933767 1.004687
C 0.209132 3.153775 0.688334
C -0.097261 3.486738 0.392805
C -0.355098 3.518041 0.184632
C -0.228940 3.616350 0.144932
C -0.017394 3.573661 0.191257
C 0.330949 3.511739 0.284867
C 0.617583 3.355139 0.446767
C 0.831191 3.320466 0.557504
C 1.078550 3.275572 0.636570
C 1.260550 3.313949 0.689549
C 1.304611 3.336382 0.686711
C 1.236584 3.432371 0.562550
C 1.018420 3.540623 0.430473
C 0.874306 3.659895 0.332809
C 0.663055 3.749181 0.190370
C 0.390788 3.776094 0.032411
C 0.282151 3.890364 -0.059860
C 0.105077 3.983548 -0.240386
C -0.065847 3.978097 -0.335080
C -0.211812 4.048990 -0.503065
C 0.272502 3.202895 -0.155795
C 0.332256 3.075357 -0.148025
C 0.469624 2.917562 -0.092522
C 0.534876 2.574757 -0.044727
