397
chr3 3D structure from Hi-C (resolution 500000bp)
C -3.622972 -1.712778 -1.127887
C -3.627680 -1.772969 -1.109383
C -3.553340 -1.916312 -0.947242
C -3.573144 -1.957562 -0.859205
C -3.658001 -2.074225 -0.948056
C -3.556123 -2.207045 -0.598768
C -3.347679 -2.369385 -0.248001
C -3.260282 -2.495531 0.043655
C -3.270544 -2.624548 0.162552
C -3.324706 -2.683607 0.257442
C -3.274380 -2.746013 0.349019
C -3.296297 -2.784299 0.472259
C -3.377156 -2.714281 0.410275
C -3.570615 -2.695667 0.400955
C -3.490033 -2.600939 0.542418
C -3.284065 -2.478231 0.943649
C -2.939826 -2.329603 1.334173
C -2.584608 -2.196406 1.770875
C -2.324092 -2.122663 2.251643
C -2.040716 -2.164301 2.699905
C -1.747186 -2.074141 3.054877
C -1.612435 -2.055190 3.225129
C -1.415751 -2.052258 3.375468
C -1.418784 -2.131896 3.437302
C -1.573843 -2.156604 3.475286
C -1.515053 -2.150491 3.443807
C -1.445009 -2.027718 3.440948
C -1.449309 -2.176976 3.387021
C -1.561201 -2.427367 3.315225
C -1.677301 -2.369199 3.105210
C -1.952740 -2.415305 2.883297
C -2.047454 -2.417928 2.597943
C -2.230958 -2.382263 2.368625
C -2.576815 -2.303704 1.927119
C -2.865373 -2.037743 1.467157
C -3.170082 -1.809302 0.935429
C -3.531285 -1.838658 0.722591
C -3.654855 -1.734385 0.524247
C -3.884585 -1.571220 0.171326
C -4.088376 -1.389544 -0.202671
C -4.186944 -1.290257 -0.397653
C -4.256665 -1.182946 -0.485666
C -4.243783 -1.021731 -0.572293
C -4.107079 -0.908415 -0.557664
C -3.923060 -0.757046 -0.438873
C -3.858231 -0.764472 -0.368124
C -3.817066 -0.671328 -0.271199
C -3.716985 -0.584778 -0.105762
C -3.738957 -0.650343 0.016750
C -3.793891 -0.578368 0.125716
C -3.935722 -0.390577 -0.055975
C -4.203702 -0.312415 -0.197115
C -4.198004 -0.267859 -0.001937
C -4.218967 -0.355667 0.151997
C -4.298041 -0.342783 0.208492
C -4.262904 -0.237704 0.292323
C -4.267243 -0.216428 0.397569
C -4.318581 -0.209440 0.542346
C -4.274325 -0.097056 0.617072
C -4.361861 -0.215815 0.714993
C -4.307821 -0.220959 0.924202
C -4.076638 -0.324844 1.185529
C -3.950180 -0.421881 1.464665
C -3.708354 -0.444312 1.862290
C -3.607418 -0.451497 2.119859
C -3.575317 -0.423142 2.228326
C -3.514107 -0.117969 2.091863
C -3.621203 0.162593 1.837663
C -3.899513 0.412563 1.679624
C -4.022484 0.685631 1.440932
C -4.059902 0.757710 1.346467
C -3.951234 0.698743 1.474112
C -3.703137 0.708823 1.663329
C -3.411081 0.508153 2.098954
C -3.145233 0.345827 2.580684
C -2.683582 0.173212 2.905649
C -2.405645 0.083080 3.274093
C -2.262605 0.080851 3.471205
C -2.209704 0.153381 3.569503
C -2.157347 0.187181 3.594342
C -2.192913 0.303784 3.626339
C -1.990518 0.230141 3.660824
C -1.848805 0.275863 3.764115
C -1.685203 0.222881 3.815033
C -1.377423 0.117220 3.960344
C -1.073603 0.023094 4.032226
C -0.882617 -0.199322 4.263893
C -0.588062 -0.298549 4.355257
C -0.350682 -0.331883 4.436172
C -0.206911 -0.369514 4.470252
C -0.011753 -0.454956 4.558171
C 0.195646 -0.499919 4.622744
C 0.479411 -0.606146 4.691662
C 0.687904 -0.690596 4.722264
C 0.825645 -0.963504 4.754882
C 0.948154 -1.195310 4.809921
C 1.091195 -1.424760 4.895077
C 1.215181 -1.242097 4.976373
C 1.164392 -0.751746 4.894299
C 0.989621 -0.355155 4.858008
C 0.948144 0.062553 4.816492
C 0.979365 0.633061 4.830808
C 0.951638 1.306271 4.800951
C 0.752125 1.891482 4.722304
C 0.528628 1.983614 4.543454
C 0.175199 1.866552 4.440842
C -0.064542 1.884591 4.248944
C -0.353920 2.026286 4.052610
C -0.647408 2.016961 3.764547
C -0.912683 1.999159 3.539740
C -0.977346 1.887182 3.416770
C -0.981830 1.903052 3.381974
C -0.729723 1.789340 3.406675
C -0.584752 1.746911 3.409326
C -0.486491 1.844280 3.401586
C -0.478176 2.063722 3.399699
C -0.533578 2.033745 3.291277
C -0.774262 2.114713 3.083604
C -0.956688 2.217364 2.843533
C -1.214994 2.306843 2.608527
C -1.396498 2.359967 2.413543
C -1.611071 2.273421 2.237797
C -1.803154 2.322740 2.118144
C -1.947149 2.571422 2.010570
C -1.933632 2.698224 2.021325
C -1.973833 2.661037 1.910774
C -2.175108 2.822995 1.739910
C -2.329152 2.977296 1.598858
C -2.408169 3.051066 1.494654
C -2.405888 2.937336 1.431708
C -2.449883 2.763643 1.453828
C -2.428700 2.708464 1.360145
C -2.457704 2.793570 1.394222
C -2.383221 2.832224 1.416207
C -2.343074 2.796134 1.396798
C -2.077695 2.759267 1.348807
C -2.013074 2.924061 1.268849
C -1.905946 3.122705 1.131072
C -1.987718 3.290851 1.001793
C -1.976014 3.359259 0.952099
C -1.761934 3.286524 0.994112
C -1.457696 3.278518 1.167891
C -1.433543 3.403295 1.306099
C -1.379176 3.301840 1.292913
C -1.558742 3.201032 1.203740
C -1.578614 3.150319 1.050631
C -1.548674 3.411421 0.963822
C -1.690854 3.620417 0.788606
C -1.944941 3.867792 0.490247
C -2.162079 3.950737 0.069429
C -2.370731 3.957882 -0.185673
C -2.394213 3.911504 -0.324776
C -2.529142 3.881961 -0.451463
C -2.717677 3.677032 -0.640455
C -2.912271 3.439687 -0.849321
C -2.940572 3.329351 -1.052376
C -3.086810 3.103305 -1.177829
C -3.090788 2.997549 -1.318168
C -3.094793 2.929895 -1.513728
C -3.049881 2.764631 -1.581398
C -2.883250 2.543269 -1.544071
C -2.812614 2.561934 -1.739909
C -2.822252 2.414857 -1.919439
C -2.828376 2.287321 -2.147449
C -2.852182 2.220835 -2.365186
C -2.749586 2.307397 -2.366897
C -2.649686 2.383328 -2.432939
C -2.853702 2.445395 -2.778775
C -2.793032 2.571774 -2.735008
C -2.705714 2.705952 -2.743525
C -2.515341 2.980869 -2.662051
C -2.307797 3.083910 -2.422478
C -2.162576 3.145416 -2.330219
C -2.014838 3.174085 -2.170069
C -1.839757 3.251820 -2.273691
C -1.697258 3.141715 -2.480019
C -1.710495 2.941717 -2.674628
C -1.800180 2.620519 -2.927462
C -1.973036 2.327158 -3.440372
C -2.212242 1.854305 -3.913409
C -2.536139 1.180139 -4.385687
C -2.748329 0.504276 -4.473332
C -3.042969 -0.051940 -4.580354
C -3.239041 -0.459636 -4.682058
C -2.920968 -0.263286 -4.709278
C -2.395151 0.311341 -4.066444
C -1.899997 0.828333 -3.739574
C -1.210257 1.762409 -3.138066
C -0.628759 2.498378 -2.839415
C -0.064016 3.225982 -2.469949
C 0.515404 4.025876 -2.033373
C 0.764582 4.334533 -1.513795
C 0.856668 4.263973 -1.471475
C 1.055662 4.322157 -1.109789
C 1.160371 4.210805 -1.075619
C 1.303230 4.225174 -0.936414
C 1.465382 4.097907 -0.756548
C 1.663513 3.891225 -0.477864
C 1.729846 3.599767 -0.447653
C 1.730147 3.616523 -0.524923
C 1.802456 3.553703 -0.459036
C 1.760580 3.465411 -0.721282
C 1.795792 3.487551 -0.832916
C 1.707293 3.651768 -1.028832
C 1.634683 3.697281 -1.424091
C 1.596373 3.749504 -1.620933
C 1.558738 3.616360 -1.830472
C 1.405546 3.565369 -2.273122
C 1.578445 3.618514 -2.152246
C 1.696619 3.671916 -1.925638
C 1.840406 3.646497 -1.930832
C 1.909663 3.555309 -1.962785
C 2.078564 3.504901 -1.989382
C 2.190929 3.299339 -1.779584
C 2.246380 3.130467 -1.715495
C 1.976190 2.944159 -1.919927
C 1.770920 2.826983 -2.368471
C 1.636543 2.629589 -2.632377
C 1.569962 2.574158 -2.745557
C 1.468962 2.518311 -2.937607
C 1.488631 2.563488 -3.107491
C 1.689277 2.623878 -2.720461
C 1.939433 2.633433 -2.261455
C 2.132840 2.429732 -1.681067
C 2.433741 2.410007 -0.920913
C 2.628377 2.420262 -0.318000
C 2.885502 2.311362 0.047974
C 3.098106 2.335154 0.152059
C 3.110225 2.241762 -0.114176
C 3.184506 2.224396 -0.511407
C 3.288956 2.329911 -0.816884
C 3.298388 2.243765 -1.290301
C 3.280359 2.145381 -1.627016
C 3.229850 2.297887 -1.601735
C 3.146038 2.268124 -1.518070
C 3.178790 2.222935 -1.356793
C 3.261462 2.198937 -0.979665
C 3.408514 2.193243 -0.748389
C 3.461180 2.221359 -0.458817
C 3.576250 2.257478 -0.092772
C 3.552887 2.112976 0.246992
C 3.615440 2.040372 0.602837
C 3.570975 1.944791 1.001281
C 3.547058 1.832861 1.229783
C 3.446370 1.737135 1.636653
C 3.394170 1.674742 2.040261
C 3.359619 1.492873 2.262711
C 3.370987 1.384004 2.559129
C 3.389809 1.317311 2.843033
C 3.408418 1.177901 2.863817
C 3.349895 0.983916 2.956105
C 3.323606 0.767455 2.997984
C 3.396147 0.484665 3.085964
C 3.405856 0.263828 3.185222
C 3.382947 0.024291 3.131575
C 3.378761 -0.265088 3.104918
C 3.518965 -0.240685 3.082755
C 3.704626 -0.276675 3.018537
C 3.810254 -0.248611 2.878442
C 3.842607 -0.126122 2.593556
C 3.843525 0.021474 2.303047
C 3.789935 0.154816 2.006046
C 3.925418 0.289089 1.669859
C 3.857426 0.176447 1.493786
C 3.750887 0.143049 1.360788
C 3.649364 0.033885 1.244067
C 3.518089 -0.124979 1.204126
C 3.522181 -0.348584 1.217296
C 3.746986 -0.612528 1.239925
C 3.719962 -0.814158 1.256907
C 3.734100 -0.898939 1.206587
C 3.675701 -0.795303 0.977747
C 3.862544 -0.891698 0.897398
C 4.063811 -0.979672 0.787321
C 4.051462 -0.868074 0.704210
C 3.917401 -0.677578 0.586683
C 3.759616 -0.539612 0.389890
C 3.707225 -0.487922 0.296182
C 3.777196 -0.641474 0.309470
C 3.727115 -0.565645 0.210331
C 3.766669 -0.479860 0.091378
C 3.880323 -0.480738 0.078445
C 3.896505 -0.494759 -0.141398
C 3.946968 -0.492934 -0.311204
C 3.894951 -0.375467 -0.604153
C 3.691721 -0.257758 -0.956855
C 3.458265 -0.054608 -1.476096
C 3.005888 0.090595 -1.954361
C 2.802310 0.095131 -2.528665
C 2.692227 0.163579 -2.867181
C 2.533657 0.221024 -3.171441
C 2.284151 0.292295 -3.568046
C 2.080535 0.340433 -3.873089
C 1.919213 0.240967 -4.003007
C 1.965331 0.193782 -4.025544
C 2.060933 0.132089 -3.795090
C 2.175843 -0.120796 -3.467745
C 2.260313 -0.272255 -3.138526
C 2.626027 -0.571746 -2.712972
C 2.970577 -0.748841 -2.430332
C 3.075404 -0.802606 -2.381124
C 3.304918 -1.004906 -2.069945
C 3.338329 -1.026773 -2.175971
C 3.145340 -0.887859 -2.432189
C 2.968904 -0.813151 -2.672154
C 2.799589 -0.754815 -2.907618
C 2.533158 -0.733614 -3.197900
C 2.502638 -0.872705 -3.134126
C 2.320416 -0.907517 -3.284680
C 2.143634 -1.007836 -3.358385
C 2.298734 -1.260275 -3.237226
C 2.450929 -1.461304 -3.301268
C 2.235193 -1.422756 -3.361879
C 2.261917 -1.488797 -3.026604
C 2.239686 -1.564420 -2.861235
C 2.167700 -1.567809 -2.942439
C 2.197495 -1.642722 -2.783212
C 2.167064 -1.627890 -2.732425
C 2.131219 -1.691108 -2.652721
C 2.278237 -1.818754 -2.635459
C 2.173017 -1.853780 -2.814573
C 1.998537 -1.843341 -3.055453
C 1.844886 -1.813360 -3.183582
C 1.375946 -1.650159 -3.606099
C 0.995716 -1.555195 -3.873429
C 0.650035 -1.367323 -4.128206
C 0.216035 -1.302709 -4.331092
C 0.056921 -1.336617 -4.493580
C -0.010478 -1.294706 -4.441130
C -0.184529 -1.377310 -4.482407
C -0.223696 -1.515016 -4.412174
C -0.316442 -1.612112 -4.502694
C -0.239515 -1.821478 -4.338540
C 0.096240 -1.974480 -3.972326
C 0.315889 -2.247870 -3.738063
C 0.429092 -2.474518 -3.635166
C 0.820833 -2.623646 -3.220611
C 1.311851 -2.751261 -2.663076
C 1.750529 -2.875162 -2.154306
C 1.913129 -2.898943 -1.777320
C 2.065429 -3.044092 -1.542483
C 2.187119 -2.922651 -1.177677
C 2.291351 -2.935184 -0.949962
C 2.069821 -2.929156 -1.202150
C 1.691447 -2.949059 -1.594294
C 1.224611 -2.919782 -1.888909
C 0.938254 -2.981323 -2.316956
C 0.639271 -2.951717 -2.586786
C 0.247157 -3.014079 -2.980975
C -0.042795 -3.061513 -3.258024
C -0.130525 -3.190256 -3.197741
C 0.013374 -3.405727 -2.930787
C 0.024941 -3.513196 -2.921520
C -0.038435 -3.581664 -2.800952
C 0.051077 -3.694260 -2.673172
C 0.244998 -3.810327 -2.397403
C 0.467954 -3.894222 -2.093196
C 0.556859 -3.870362 -1.913141
C 0.405525 -3.873295 -1.991999
C 0.258731 -3.994651 -1.919842
C 0.291413 -4.071138 -1.770581
C 0.049139 -4.122443 -1.826022
C -0.020583 -4.233785 -1.756658
C 0.096510 -4.229109 -1.452438
C 0.386876 -4.302521 -1.012793
C 0.686861 -4.253948 -0.436223
C 1.182979 -4.147821 0.123608
C 1.551251 -3.989203 0.572841
C 1.893278 -3.949199 1.076466
C 2.134690 -3.804447 1.345776
C 2.075047 -3.811049 1.403726
C 1.871610 -3.825221 1.298651
C 1.795028 -3.828728 1.048038
C 1.683030 -3.913328 0.770777
C 1.457844 -4.092184 0.573880
C 1.397561 -4.077055 0.367917
C 1.280521 -4.046658 0.152523
C 1.153706 -4.080500 -0.088589
C 1.029976 -4.039047 -0.317506
C 0.922385 -3.946265 -0.416014
C 0.640902 -3.971567 -0.548588
C 0.489889 -4.014841 -0.687636
C 0.270847 -4.140039 -0.714944
C 0.084881 -4.211619 -0.712603
C 0.151788 -4.105002 -0.542724
C 0.317453 -4.060289 -0.233056
C 0.412536 -4.097145 0.093000
C 0.771165 -3.973639 0.608050
C 1.103031 -3.907190 1.171786
C 1.339477 -3.786043 1.654711
C 1.620696 -3.669041 2.121946
C 1.745830 -3.665965 2.458673
C 1.621597 -3.806812 2.666929
C 1.268048 -4.095176 2.636767
C 1.164375 -4.172585 2.679387
C 0.989345 -4.189209 2.625968
C 0.863095 -4.235844 2.494946
