397
chr3 3D structure from Hi-C (resolution 500000bp)
C -3.588211 -1.920607 -0.897400
C -3.647163 -2.022906 -0.795305
C -3.628538 -2.090802 -0.687970
C -3.613545 -2.153813 -0.628807
C -3.715204 -2.314346 -0.685007
C -3.571622 -2.422138 -0.372996
C -3.407469 -2.503453 -0.081990
C -3.296122 -2.680007 0.228479
C -3.227543 -2.826919 0.314541
C -3.188753 -2.977820 0.422651
C -3.161725 -3.043022 0.552410
C -3.202198 -3.073088 0.657179
C -3.322239 -3.033551 0.590448
C -3.486281 -3.031572 0.543872
C -3.422229 -2.917481 0.664759
C -3.232765 -2.825708 0.971863
C -2.892918 -2.709998 1.332370
C -2.552196 -2.597423 1.720725
C -2.296766 -2.467616 2.194712
C -2.047159 -2.496412 2.651998
C -1.722218 -2.424547 3.032045
C -1.634182 -2.403935 3.240357
C -1.533646 -2.325312 3.397650
C -1.536160 -2.334687 3.473457
C -1.685863 -2.262164 3.519172
C -1.572344 -2.309120 3.496133
C -1.399044 -2.253426 3.525082
C -1.423418 -2.471384 3.465352
C -1.465778 -2.718105 3.333990
C -1.500636 -2.639717 3.125265
C -1.840919 -2.653790 2.931631
C -1.968779 -2.664121 2.659293
C -2.226831 -2.555554 2.407415
C -2.631155 -2.479586 2.014604
C -2.943907 -2.075895 1.539060
C -3.296318 -1.776251 0.973395
C -3.699466 -1.770297 0.727527
C -3.853793 -1.579066 0.479766
C -4.057870 -1.487371 0.090310
C -4.227172 -1.407376 -0.289668
C -4.339533 -1.215991 -0.593001
C -4.411189 -1.125170 -0.696306
C -4.426148 -0.987200 -0.712364
C -4.277094 -0.918756 -0.670932
C -4.104104 -0.887174 -0.563977
C -4.089374 -0.844419 -0.384928
C -4.071414 -0.687748 -0.268679
C -3.978913 -0.618458 -0.052612
C -3.935261 -0.669007 0.121743
C -3.950721 -0.568135 0.152947
C -4.068634 -0.371395 -0.015875
C -4.287229 -0.200632 -0.256919
C -4.218178 -0.116603 -0.262641
C -4.253294 -0.084357 -0.166473
C -4.309665 -0.066874 -0.127206
C -4.300729 0.029882 -0.047291
C -4.314264 0.061219 0.249288
C -4.379947 0.117129 0.359004
C -4.299371 0.029622 0.617304
C -4.378474 -0.084157 0.893443
C -4.316556 -0.158754 1.117974
C -4.144454 -0.259938 1.344466
C -4.021920 -0.327151 1.613388
C -3.754861 -0.447583 1.876688
C -3.677969 -0.542686 2.166074
C -3.679080 -0.400220 2.249113
C -3.627917 -0.131707 2.054631
C -3.703646 0.078744 1.900638
C -3.939337 0.328172 1.751392
C -4.024724 0.542923 1.604373
C -4.111063 0.678556 1.538906
C -3.975788 0.538260 1.720302
C -3.762816 0.526962 1.889108
C -3.539041 0.322633 2.328217
C -3.245154 0.169309 2.723497
C -2.758595 0.020293 3.095735
C -2.517812 -0.112969 3.355394
C -2.283950 -0.110686 3.574087
C -2.244612 0.116393 3.638785
C -2.125435 0.070173 3.729103
C -2.068518 0.145814 3.763924
C -1.902393 0.134459 3.805470
C -1.840053 0.097282 3.934397
C -1.614616 0.067089 4.012200
C -1.402148 -0.062651 4.135365
C -1.082015 -0.246141 4.235132
C -0.908613 -0.309344 4.430123
C -0.642149 -0.383464 4.534530
C -0.407302 -0.466312 4.610919
C -0.200355 -0.510876 4.619523
C -0.017640 -0.590155 4.696754
C 0.264986 -0.644093 4.737739
C 0.480214 -0.828656 4.785107
C 0.765917 -0.977222 4.793672
C 1.004112 -1.201312 4.813159
C 1.151574 -1.386536 4.928305
C 1.310949 -1.224848 5.057430
C 1.374569 -1.069069 5.175239
C 1.201780 -0.732585 5.219644
C 1.104623 -0.245238 5.248659
C 1.004987 0.232645 5.206585
C 0.968575 0.862322 5.201429
C 0.947024 1.557363 5.082494
C 0.791626 1.827130 4.946169
C 0.523485 1.977716 4.732568
C 0.275825 2.024886 4.502992
C 0.131298 2.156016 4.227071
C -0.200665 2.208047 4.043074
C -0.480049 2.161287 3.761009
C -0.789007 1.937760 3.560156
C -0.939655 1.870415 3.466350
C -0.862388 1.813302 3.431916
C -0.670673 1.717206 3.475579
C -0.555382 1.642008 3.476715
C -0.457214 1.805522 3.451369
C -0.458385 1.992720 3.512145
C -0.519578 2.024415 3.435070
C -0.741470 2.064667 3.217466
C -0.985758 2.185336 3.021107
C -1.088140 2.350394 2.801314
C -1.265970 2.446200 2.683769
C -1.439568 2.389184 2.506482
C -1.775927 2.318509 2.361909
C -1.972555 2.584109 2.312209
C -2.010377 2.651715 2.334297
C -1.996588 2.628484 2.189090
C -2.338637 2.707979 2.022501
C -2.601322 2.785219 1.841495
C -2.708607 2.812385 1.789583
C -2.629411 2.763207 1.654260
C -2.598775 2.649344 1.548728
C -2.542076 2.692913 1.436121
C -2.593127 2.737262 1.360651
C -2.534715 2.777519 1.317459
C -2.448785 2.803775 1.289841
C -2.231205 2.726834 1.258284
C -2.210828 2.937044 1.193572
C -2.137118 3.107851 1.150543
C -2.077846 3.267211 1.136553
C -1.933958 3.449242 1.235522
C -1.667977 3.369971 1.343609
C -1.343449 3.332534 1.539191
C -1.268162 3.488883 1.593873
C -1.112935 3.389673 1.605854
C -1.099723 3.392294 1.529973
C -1.294866 3.218745 1.278482
C -1.447447 3.425790 1.115269
C -1.563518 3.724432 0.972719
C -1.919611 3.872123 0.627888
C -2.378457 3.757266 0.156481
C -2.609289 3.772974 -0.081146
C -2.765217 3.708220 -0.263357
C -2.878796 3.741177 -0.434215
C -3.058427 3.533137 -0.604742
C -3.341140 3.313965 -0.793304
C -3.407609 3.258423 -0.978483
C -3.335161 3.257727 -1.055172
C -3.346654 3.149679 -1.193180
C -3.260935 3.167115 -1.350686
C -3.072205 3.157357 -1.386158
C -2.748163 3.061414 -1.333327
C -2.529943 3.075977 -1.624594
C -2.463338 2.977534 -1.775233
C -2.397761 3.005786 -1.930779
C -2.387557 3.062345 -2.175784
C -2.456082 2.915227 -2.245594
C -2.553377 2.747386 -2.343432
C -2.895255 2.546252 -2.757178
C -2.993099 2.419815 -2.780371
C -2.915454 2.587193 -2.745486
C -2.795841 2.764110 -2.617650
C -2.626428 2.834935 -2.344799
C -2.469972 2.886256 -2.325551
C -2.203621 3.024483 -2.211012
C -2.084944 3.084611 -2.301263
C -2.079356 3.105936 -2.448798
C -1.924646 3.262562 -2.278136
C -1.778112 3.403196 -2.215247
C -2.024301 3.000849 -2.735778
C -2.282878 2.647171 -3.098990
C -2.685228 1.987035 -3.505164
C -2.852522 1.462807 -3.560540
C -2.974454 0.929731 -3.688297
C -3.292506 0.114602 -4.271684
C -3.297017 -0.254645 -4.714544
C -2.856278 0.098012 -4.463192
C -2.319148 0.449054 -4.314825
C -1.719613 1.165762 -4.206989
C -1.140917 1.878187 -4.028130
C -0.622130 2.465790 -3.818652
C -0.147315 3.008553 -3.722471
C 0.063131 3.128221 -3.651212
C 0.178305 3.250536 -3.490997
C 0.364680 3.473928 -2.990343
C 0.577162 3.549995 -2.420615
C 0.700677 3.620352 -2.114280
C 0.890562 3.624224 -1.784779
C 1.126377 3.710365 -1.183142
C 1.263702 3.631206 -0.684921
C 1.396146 3.677694 -0.521875
C 1.461743 3.584729 -0.517115
C 1.463455 3.615721 -0.745414
C 1.473429 3.587676 -0.945920
C 1.469088 3.806403 -1.066535
C 1.441112 3.902917 -1.337415
C 1.502631 4.017651 -1.530366
C 1.537502 3.918505 -1.705263
C 1.435296 3.971272 -1.986595
C 1.513426 4.009995 -1.863119
C 1.708328 4.135047 -1.500307
C 1.765240 4.002932 -1.656799
C 1.852559 3.905227 -1.678126
C 2.015414 3.973024 -1.431574
C 2.079921 3.776733 -1.221757
C 2.195457 3.581525 -1.194752
C 2.131036 3.315369 -1.502714
C 1.969473 3.138325 -2.060347
C 1.980891 3.088939 -2.149332
C 2.005240 2.965059 -2.312685
C 2.024217 2.836741 -2.669166
C 2.059906 2.929746 -2.710260
C 2.167411 3.005707 -2.285628
C 2.303270 3.006660 -1.801671
C 2.433368 2.833202 -1.200992
C 2.579208 2.773672 -0.547484
C 2.728910 2.727763 -0.082026
C 2.826184 2.661214 0.271653
C 3.036808 2.656726 0.295654
C 3.099437 2.536832 -0.045528
C 3.212185 2.549742 -0.400609
C 3.365396 2.621284 -0.690979
C 3.308495 2.559633 -1.174137
C 3.245978 2.494731 -1.408448
C 3.182246 2.459918 -1.655415
C 3.081880 2.350811 -1.698186
C 3.123020 2.293042 -1.549987
C 3.119737 2.313442 -1.147166
C 3.150565 2.422210 -0.735206
C 3.289919 2.436200 -0.343391
C 3.431632 2.470515 -0.013412
C 3.438538 2.353507 0.487498
C 3.483733 2.290889 0.918380
C 3.475334 2.220734 1.280992
C 3.440816 2.025369 1.515345
C 3.447360 1.724054 1.735089
C 3.512990 1.572963 2.003745
C 3.434356 1.290446 2.310255
C 3.530693 1.180943 2.564571
C 3.559870 1.152171 2.835151
C 3.543105 0.879507 2.888363
C 3.544836 0.662450 2.856271
C 3.495710 0.506762 2.936611
C 3.470995 0.254494 3.115288
C 3.490109 0.096602 3.207040
C 3.454558 -0.180020 3.160563
C 3.489057 -0.560498 3.115976
C 3.558325 -0.730159 3.140463
C 3.738784 -0.900359 3.128789
C 3.846945 -1.007435 2.975406
C 3.900111 -1.039640 2.726388
C 3.922271 -0.932035 2.402337
C 3.816526 -0.798153 2.145353
C 3.916957 -0.610566 1.915966
C 3.930960 -0.450499 1.730538
C 3.894275 -0.267382 1.555599
C 3.860099 -0.135539 1.303891
C 3.796289 0.017826 1.171463
C 3.828392 0.120353 1.176094
C 4.122743 0.225162 1.106850
C 4.160183 0.279263 0.921440
C 4.209235 0.385415 0.785629
C 4.114343 0.450820 0.564303
C 4.280376 0.452118 0.419006
C 4.430699 0.309210 0.366548
C 4.446016 0.103334 0.280324
C 4.219049 -0.079049 0.206715
C 3.965553 -0.178332 0.136312
C 3.847751 -0.317798 0.159353
C 3.858883 -0.508654 0.278045
C 3.698306 -0.742797 0.481101
C 3.639130 -0.932688 0.551689
C 3.642145 -1.011794 0.517769
C 3.678496 -1.043358 0.403293
C 3.790716 -1.139076 0.281549
C 3.733362 -1.080896 -0.038426
C 3.553835 -0.885192 -0.465224
C 3.412955 -0.532783 -1.137120
C 3.235984 -0.170420 -1.754799
C 3.068637 0.021676 -2.298901
C 2.900219 0.154518 -2.732043
C 2.665545 0.328418 -3.126852
C 2.485745 0.451177 -3.552425
C 2.391334 0.426423 -3.887658
C 2.264749 0.307334 -4.006613
C 2.051121 0.253408 -4.054092
C 2.131018 0.137521 -3.828841
C 2.367256 -0.073348 -3.494431
C 2.524048 -0.252402 -3.175057
C 2.883912 -0.548962 -2.707180
C 3.125290 -0.715658 -2.379802
C 3.360531 -0.781916 -2.246917
C 3.621653 -0.974861 -1.979921
C 3.698662 -0.935981 -2.080936
C 3.424966 -0.785120 -2.338227
C 3.228550 -0.717786 -2.546125
C 2.876699 -0.618034 -2.888601
C 2.502612 -0.517481 -3.217936
C 2.152519 -0.462150 -3.299446
C 2.051220 -0.501240 -3.457267
C 1.957727 -0.687850 -3.512206
C 2.157614 -0.998465 -3.345115
C 2.321025 -1.251598 -3.390521
C 2.407965 -1.342748 -3.360405
C 2.607321 -1.486188 -3.046875
C 2.714653 -1.681020 -2.873573
C 2.605173 -1.701894 -2.944076
C 2.493924 -1.723389 -2.860842
C 2.447873 -1.694454 -2.864647
C 2.379928 -1.646547 -2.894363
C 2.110842 -1.608824 -3.013415
C 1.969424 -1.624380 -3.183144
C 1.720765 -1.610024 -3.392638
C 1.568901 -1.622459 -3.506802
C 1.125525 -1.504058 -3.904638
C 0.786743 -1.421015 -4.154813
C 0.413311 -1.403018 -4.306767
C 0.196561 -1.556572 -4.359721
C -0.007724 -1.591727 -4.526453
C 0.085384 -1.590372 -4.492838
C -0.100875 -1.553690 -4.592126
C -0.129242 -1.625843 -4.556756
C -0.174583 -1.751582 -4.674148
C -0.015158 -1.789757 -4.603026
C 0.279138 -1.839971 -4.350767
C 0.507120 -2.039468 -4.172604
C 0.599465 -2.262243 -4.055759
C 0.930752 -2.518933 -3.698599
C 1.429534 -2.686083 -3.076991
C 1.727890 -2.818056 -2.553290
C 1.878782 -2.902645 -2.145796
C 2.074610 -2.988267 -1.855316
C 2.170692 -2.975481 -1.463845
C 2.236757 -2.993302 -1.223917
C 2.015973 -2.953328 -1.394475
C 1.613205 -3.003915 -1.798261
C 1.237696 -2.923261 -2.181433
C 0.755974 -3.025149 -2.544610
C 0.425778 -3.009635 -2.859840
C 0.001352 -3.041935 -3.214582
C -0.431792 -3.075845 -3.487466
C -0.506048 -3.203999 -3.427859
C -0.279237 -3.326160 -3.247803
C -0.267994 -3.451155 -3.185322
C -0.127370 -3.540475 -3.082442
C -0.038868 -3.640205 -3.003718
C 0.228801 -3.756351 -2.762832
C 0.594472 -3.869980 -2.447447
C 0.736864 -3.865999 -2.299001
C 0.477870 -3.898123 -2.310904
C 0.282262 -4.008954 -2.208212
C 0.307556 -4.023241 -2.134533
C 0.194939 -4.158925 -2.085315
C 0.266753 -4.257328 -2.003697
C 0.404303 -4.266116 -1.751049
C 0.733982 -4.322639 -1.319508
C 1.166664 -4.302487 -0.802359
C 1.698289 -4.177210 -0.264576
C 2.002785 -4.083630 0.261696
C 2.290156 -4.043232 0.734953
C 2.352992 -3.912508 1.038737
C 2.275922 -3.877478 1.144422
C 2.004880 -3.925963 1.079092
C 1.806591 -3.946973 0.905073
C 1.552534 -4.079076 0.724282
C 1.350189 -4.244086 0.503485
C 1.191712 -4.207178 0.308890
C 1.082923 -4.194832 0.110415
C 0.861595 -4.240628 -0.152876
C 0.840704 -4.166389 -0.340160
C 0.792708 -4.063816 -0.461401
C 0.645222 -4.071397 -0.616830
C 0.558315 -4.087422 -0.659747
C 0.419702 -4.194835 -0.764834
C 0.297807 -4.256391 -0.846316
C 0.475141 -4.187861 -0.676338
C 0.572719 -4.112736 -0.391905
C 0.735291 -4.082878 -0.042105
C 1.140327 -3.929507 0.441128
C 1.385941 -3.847849 0.995233
C 1.705960 -3.701665 1.560395
C 1.891151 -3.652485 2.116620
C 1.949659 -3.698732 2.449702
C 1.858365 -3.878299 2.689086
C 1.390508 -4.247893 2.649806
C 1.215425 -4.363976 2.699414
C 1.096239 -4.409785 2.558634
C 0.826199 -4.538532 2.435361
