319
chr7 3D structure from Hi-C (resolution 500000bp)
C -3.687317 -1.165538 1.929376
C -3.521373 -1.293679 1.919655
C -3.461023 -1.311892 1.780231
C -3.278108 -1.130096 1.400216
C -2.959542 -0.920155 0.775404
C -2.695294 -0.611280 0.192493
C -2.648136 -0.550434 -0.015692
C -2.675238 -0.427107 -0.181268
C -2.747096 -0.403343 -0.211331
C -2.704885 -0.495615 -0.164481
C -2.993438 -0.496935 0.074713
C -3.225963 -0.749467 0.451196
C -3.430188 -0.973846 0.783827
C -3.436965 -0.882033 0.662463
C -3.420949 -0.629682 0.345267
C -3.427690 -0.198415 -0.121763
C -3.479359 0.274464 -0.527027
C -3.406563 0.446789 -0.852931
C -3.329344 0.555009 -1.052061
C -3.386327 0.711313 -1.197482
C -3.363479 0.865882 -1.356766
C -3.391046 0.903488 -1.324975
C -3.311916 0.731512 -1.402547
C -3.311849 0.764812 -1.516483
C -3.143659 0.739004 -1.711577
C -3.104895 0.885723 -1.882381
C -2.943898 0.901016 -2.063575
C -2.864363 0.814659 -2.202059
C -2.779582 0.749866 -2.445920
C -2.749764 0.797786 -2.461095
C -2.653091 0.564195 -2.390395
C -2.732542 0.336779 -2.100858
C -2.805728 0.108280 -1.925745
C -2.821874 -0.033960 -2.000625
C -2.971383 -0.009660 -1.948263
C -3.039796 -0.107161 -1.899189
C -3.078150 -0.266730 -1.893211
C -3.170987 -0.407172 -1.760017
C -3.237280 -0.456042 -1.860968
C -3.186441 -0.557890 -1.876221
C -3.169145 -0.679632 -1.689857
C -3.115082 -0.944652 -1.503930
C -2.937050 -1.218358 -1.121657
C -2.871968 -1.524298 -0.746479
C -2.811968 -1.653492 -0.676636
C -2.597663 -1.734295 -0.532676
C -2.513518 -1.912523 -0.311299
C -2.459251 -2.063872 -0.222487
C -2.374316 -2.139681 -0.187174
C -2.432771 -2.244161 -0.102736
C -2.430879 -2.269693 -0.222267
C -2.516384 -2.358080 -0.207011
C -2.645587 -2.523028 -0.147583
C -2.602899 -2.540112 -0.289468
C -2.587189 -2.578829 -0.278551
C -2.580589 -2.607681 -0.379426
C -2.532683 -2.485252 -0.589797
C -2.478148 -2.513849 -0.458127
C -2.272829 -2.490391 -0.623668
C -2.191314 -2.390395 -0.916017
C -2.162542 -2.220414 -1.094525
C -2.033963 -2.061434 -1.268422
C -1.999049 -2.111932 -1.317464
C -1.964978 -2.155060 -1.564805
C -1.948209 -1.903033 -1.994026
C -1.921179 -1.716415 -2.275051
C -1.808104 -1.619498 -2.338874
C -1.744388 -1.702902 -2.420993
C -1.780371 -1.969675 -2.310328
C -1.652288 -2.033293 -2.247046
C -1.575798 -2.117022 -2.040347
C -1.456616 -2.412737 -1.815431
C -1.344928 -2.751170 -1.427742
C -1.249533 -2.950845 -1.182517
C -1.190772 -3.079576 -1.051983
C -1.049790 -3.049953 -1.149364
C -0.994874 -3.092335 -1.191005
C -0.843356 -3.202649 -1.356748
C -0.689405 -3.167551 -1.582639
C -0.599323 -3.109722 -1.861958
C -0.500056 -3.145510 -2.011179
C -0.438530 -3.124053 -2.159547
C -0.315832 -3.173551 -2.240063
C -0.231018 -3.121638 -2.212613
C -0.285469 -2.992852 -1.947629
C -0.374549 -3.129309 -1.587874
C -0.404212 -3.236731 -1.227662
C -0.410840 -3.275683 -1.113335
C -0.328036 -3.248786 -1.089302
C -0.336701 -3.088630 -1.212139
C -0.261257 -2.921397 -1.490431
C -0.207175 -2.809297 -1.786136
C -0.177998 -2.521943 -2.080435
C -0.153960 -2.148084 -2.470421
C -0.199897 -1.833230 -2.800388
C -0.252622 -1.644059 -2.870943
C -0.358149 -1.508047 -2.876809
C -0.457444 -1.487372 -2.791079
C -0.508963 -1.310430 -2.879022
C -0.481526 -1.074651 -3.175233
C -0.491843 -0.847144 -3.353997
C -0.485260 -0.682778 -3.414787
C -0.455401 -0.479603 -3.540617
C -0.452253 -0.175612 -3.639854
C -0.434880 0.154716 -3.780689
C -0.391645 0.326642 -3.792759
C -0.370866 0.396816 -3.609401
C -0.355265 0.301584 -3.389317
C -0.275132 0.220404 -3.235679
C -0.245881 0.290201 -3.158551
C -0.173336 0.473328 -3.186195
C -0.148138 0.681550 -3.213506
C -0.163329 1.026091 -3.280222
C -0.372247 1.573823 -3.250486
C -0.650034 2.211516 -3.157452
C -1.046194 2.855531 -2.940265
C -1.418915 3.335525 -2.629844
C -1.631747 3.681475 -2.302044
C -1.663355 3.994466 -2.077480
C -1.623063 4.190334 -1.925741
C -1.465808 4.208126 -1.965997
C -1.179463 4.102744 -2.193957
C -0.683582 4.012047 -2.475823
C -0.129285 3.825844 -2.800271
C 0.300154 3.572027 -3.063174
C 0.566815 3.233656 -3.264408
C 0.861005 2.845529 -3.423892
C 1.262521 2.294214 -3.560808
C 1.683958 1.359518 -3.320820
C 1.883277 0.387819 -3.032995
C 1.974579 -0.542736 -2.634800
C 2.047759 -1.164445 -2.522685
C 2.052518 -1.305183 -2.436107
C 1.957147 -1.377264 -2.355893
C 1.828228 -1.350578 -2.237567
C 1.669600 -0.963079 -2.370110
C 1.594173 -0.746876 -2.369571
C 1.543798 -0.484658 -2.514526
C 1.474119 -0.424030 -2.378262
C 1.515631 -0.503460 -2.446542
C 1.562955 -0.660198 -2.459279
C 1.636585 -0.811010 -2.481288
C 1.738466 -1.087276 -2.423961
C 1.733033 -1.451450 -2.194110
C 1.628023 -1.681189 -1.834220
C 1.392602 -2.069483 -1.325052
C 1.112285 -2.747239 -0.502357
C 0.887594 -3.362553 0.272473
C 0.707046 -3.739971 0.938254
C 0.554138 -3.863061 1.437188
C 0.717428 -3.830054 1.434695
C 0.866571 -3.789470 1.448015
C 1.191225 -3.625209 1.252569
C 1.542593 -3.059958 0.796205
C 1.891133 -2.427672 0.235468
C 2.146515 -1.841800 -0.189019
C 2.424123 -1.255878 -0.684264
C 2.477254 -0.584583 -1.022302
C 2.545575 -0.002231 -1.356129
C 2.574911 0.522898 -1.660119
C 2.727315 0.447905 -1.641577
C 2.834462 0.383452 -1.596203
C 2.907262 0.378993 -1.537387
C 2.945705 0.381608 -1.386290
C 2.944668 0.297091 -1.274818
C 3.074194 0.193453 -1.286351
C 3.271649 0.081689 -1.335107
C 3.321213 0.248137 -1.349117
C 3.419115 0.409205 -1.409110
C 3.440959 0.465471 -1.413676
C 3.346836 0.369353 -1.287820
C 3.178665 0.287067 -1.086487
C 3.189933 0.016191 -0.966207
C 3.098783 -0.125273 -0.644999
C 3.143245 -0.215306 -0.608590
C 3.174327 -0.318182 -0.482093
C 3.164058 -0.415662 -0.398542
C 3.300310 -0.590108 -0.432204
C 3.459279 -0.705314 -0.411900
C 3.479308 -0.532598 -0.389693
C 3.460143 -0.546627 -0.367247
C 3.269800 -0.759284 -0.085410
C 3.107106 -1.038727 0.237033
C 3.098499 -1.300441 0.445682
C 3.123558 -1.351166 0.614993
C 3.226848 -1.364473 0.679630
C 3.228147 -1.365541 0.804379
C 3.299877 -1.324923 0.903317
C 3.380550 -1.102714 0.894321
C 3.416078 -0.920099 0.865012
C 3.336178 -0.822878 0.826055
C 3.185522 -0.743145 0.851415
C 2.990936 -0.623157 0.864178
C 2.656192 -0.784002 1.071906
C 2.299841 -0.961999 1.206193
C 1.930594 -1.340775 1.443035
C 1.553870 -1.626489 1.671976
C 1.164614 -1.913703 1.999434
C 0.727259 -2.187176 2.319563
C 0.405598 -2.445791 2.631301
C 0.340442 -2.557112 2.774026
C 0.341375 -2.710282 2.905950
C 0.575950 -2.618454 2.923990
C 0.810076 -2.527208 2.999092
C 1.192584 -2.313265 2.874521
C 1.553379 -2.019101 2.730529
C 1.793285 -1.845256 2.627830
C 1.899043 -1.786836 2.702494
C 1.909834 -1.522021 2.683999
C 1.767639 -1.379553 2.642639
C 1.657074 -1.216609 2.541665
C 1.682259 -1.166510 2.717584
C 1.607329 -1.140427 2.791798
C 1.600244 -0.944930 2.746560
C 1.820547 -0.501066 2.424403
C 2.060789 -0.107978 2.134580
C 2.303631 0.384006 1.759254
C 2.572754 0.763684 1.503449
C 2.658084 1.149947 1.089743
C 2.937693 1.360870 1.008431
C 3.188369 1.556243 0.862131
C 3.103619 1.525843 0.913585
C 3.097090 1.533114 1.014887
C 3.133391 1.494641 1.165478
C 3.108065 1.660729 0.989348
C 3.076022 1.848255 0.908932
C 2.953576 1.864431 0.890602
C 2.846440 2.060035 0.849542
C 2.930389 2.323553 0.729860
C 2.830370 2.265840 0.785411
C 2.678398 2.150002 1.006916
C 2.537785 1.876832 1.451148
C 2.452765 1.795239 1.703079
C 2.337022 1.946631 1.515511
C 2.300923 2.032584 1.293715
C 2.164043 2.162312 1.093039
C 2.131664 2.513553 0.708439
C 2.080814 2.560939 0.588678
C 2.092489 2.679079 0.540083
C 1.983113 2.607481 0.589477
C 1.959091 2.693612 0.803324
C 1.864757 2.681437 1.120526
C 1.834446 2.574724 1.429350
C 1.830266 2.545433 1.634568
C 1.813472 2.775253 1.608281
C 1.693471 2.932751 1.414448
C 1.672756 2.968360 1.329635
C 1.632390 3.044510 1.063698
C 1.607151 3.024140 0.963093
C 1.544551 2.869795 1.124773
C 1.498865 2.604464 1.485892
C 1.408271 2.363458 1.522250
C 1.328507 2.010221 1.768028
C 1.119878 1.650886 2.082972
C 0.783485 1.001922 2.612597
C 0.450278 0.335234 3.043415
C 0.219204 -0.096915 3.217235
C -0.040090 -0.501847 3.318410
C -0.270013 -0.801867 3.585754
C -0.435095 -0.966066 3.689649
C -0.455977 -0.949089 3.645609
C -0.247899 -0.737882 3.554218
C -0.107259 -0.499584 3.507167
C -0.012417 -0.303527 3.461088
C 0.115000 -0.112557 3.451205
C 0.211298 0.097424 3.478770
C 0.298780 0.286138 3.487796
C 0.365535 0.357165 3.436076
C 0.320801 0.483697 3.403353
C 0.321490 0.826844 3.243662
C 0.276042 1.315582 3.060383
C 0.268849 1.799639 2.855365
C 0.276255 1.919042 2.784452
C 0.285395 2.027093 2.649224
C 0.250516 2.155951 2.635532
C 0.136087 2.052179 2.633032
C -0.064868 1.717456 2.859234
C -0.242594 1.219612 3.110077
C -0.446673 0.855856 3.359212
C -0.532269 0.879621 3.278158
C -0.732042 0.977616 3.408712
C -1.268143 1.159298 3.258135
C -1.799365 1.499701 2.990122
C -1.750782 1.828449 2.865566
C -1.927930 2.238303 2.692192
C -1.795055 2.504263 2.437009
C -1.660461 2.646263 2.240996
C -1.444405 2.870615 1.850750
C -0.916231 3.112935 1.649519
C -0.348674 3.274559 1.554744
C -0.265319 3.430815 1.275894
C 0.101445 3.528419 1.049997
C 0.091712 3.645256 0.857163
C -0.100514 3.852293 0.718875
C -0.218512 3.599210 0.937384
C -0.443536 3.123689 1.345360
C -0.748202 2.678311 1.726645
C -1.170491 2.273001 2.047127
C -1.368365 1.768488 2.323241
C -1.593287 1.283232 2.671254
C -1.704345 0.826043 2.999094
C -1.941293 0.777559 3.103008
C -1.931976 1.003669 2.991276
C -1.742282 1.352994 2.726393
C -1.521637 1.729211 2.409015
C -1.521191 2.241774 2.076260
C -1.444842 2.601776 1.814391
C -1.454381 2.766822 1.664067
C -1.371568 2.742635 1.591408
C -1.439290 2.725773 1.511648
C -1.531100 2.491606 1.648772
C -1.592229 2.282106 1.807996
C -1.668436 2.245743 1.774331
C -1.863234 2.356318 1.665957
C -1.924416 2.455013 1.609116
C -2.026343 2.767353 1.310500
C -2.033177 2.833983 1.221411
C -2.120518 3.082767 1.016265
C -2.146834 3.359508 0.735759
