319
chr7 3D structure from Hi-C (resolution 500000bp)
C -0.622711 3.345906 0.915776
C -0.852693 3.261996 0.786224
C -0.796688 3.220463 0.665627
C -0.576890 3.011869 0.468913
C -0.424226 2.685806 0.137301
C -0.039331 2.353644 -0.103367
C 0.204732 2.307895 -0.169594
C 0.310135 2.266854 -0.237030
C 0.440165 2.347264 -0.230860
C 0.364169 2.346309 -0.213577
C 0.277263 2.638524 -0.014678
C 0.026979 2.922025 0.122047
C -0.217242 3.176453 0.173239
C -0.116728 3.164262 0.118949
C 0.330041 3.078142 0.026043
C 0.844160 2.899304 -0.040719
C 1.372869 2.768256 -0.160524
C 1.678707 2.604159 -0.245264
C 1.783897 2.525227 -0.301469
C 1.953183 2.522392 -0.283021
C 2.096946 2.456866 -0.311757
C 2.118834 2.498309 -0.251025
C 1.954832 2.475207 -0.356070
C 1.998769 2.463471 -0.335780
C 2.076228 2.333611 -0.473175
C 2.306916 2.183144 -0.535506
C 2.404389 1.992941 -0.673500
C 2.441156 1.894400 -0.800242
C 2.501017 1.811025 -0.953521
C 2.583071 1.774703 -1.064490
C 2.358108 1.750733 -1.183700
C 2.029814 1.882347 -1.172342
C 1.729706 2.112915 -1.176772
C 1.585548 2.291612 -1.216292
C 1.541364 2.479678 -1.125208
C 1.433292 2.623046 -1.079932
C 1.320242 2.743560 -1.042384
C 1.182706 2.894308 -1.008350
C 1.335540 2.902048 -1.091181
C 1.221538 2.831795 -1.147999
C 1.103163 2.738545 -1.134718
C 0.814125 2.717502 -1.204400
C 0.484919 2.665038 -1.206596
C 0.042695 2.657156 -1.089692
C -0.092604 2.700328 -1.022759
C -0.413420 2.624590 -0.980070
C -0.629833 2.657977 -0.920462
C -0.806044 2.711671 -0.941993
C -0.954670 2.634596 -0.991828
C -1.162315 2.640141 -0.989203
C -1.115652 2.672927 -1.107973
C -1.273719 2.661647 -1.213440
C -1.330875 2.774149 -1.270784
C -1.274070 2.701810 -1.388307
C -1.323256 2.639151 -1.409886
C -1.216167 2.663996 -1.433229
C -1.042562 2.593004 -1.540660
C -1.125416 2.537680 -1.540611
C -1.017104 2.394205 -1.616446
C -0.808835 2.239554 -1.764668
C -0.639296 2.108594 -1.802565
C -0.434473 2.010474 -1.867648
C -0.360376 1.978033 -1.958620
C -0.110882 1.997437 -2.049751
C 0.333079 1.914986 -2.212411
C 0.714654 1.831325 -2.271153
C 0.795209 1.762712 -2.218601
C 0.814144 1.771902 -2.283973
C 0.593217 1.828277 -2.376543
C 0.404900 1.702746 -2.387962
C 0.118563 1.573711 -2.404290
C -0.249767 1.558786 -2.353946
C -0.785840 1.578480 -2.324310
C -0.999836 1.560081 -2.289521
C -1.089627 1.543728 -2.291787
C -0.960170 1.478503 -2.324139
C -0.879963 1.500934 -2.387017
C -0.723191 1.486934 -2.495271
C -0.310559 1.354002 -2.647702
C 0.153280 1.274565 -2.777622
C 0.266574 1.189104 -2.938399
C 0.310596 1.069402 -3.058588
C 0.308848 0.927568 -3.182600
C 0.287146 0.799080 -3.134294
C 0.089206 0.778860 -2.943699
C -0.471739 0.831274 -2.817962
C -0.981020 0.844801 -2.714615
C -1.206943 0.875766 -2.633453
C -1.275218 0.868006 -2.599118
C -1.150669 0.821701 -2.557443
C -0.875314 0.780174 -2.645898
C -0.639594 0.727581 -2.762036
C -0.323502 0.662603 -2.793622
C 0.075809 0.588642 -2.819722
C 0.536800 0.548037 -2.799073
C 0.775636 0.512398 -2.710092
C 0.920925 0.528854 -2.567135
C 0.785926 0.520205 -2.455699
C 0.914923 0.420185 -2.419220
C 1.253377 0.294537 -2.477157
C 1.545897 0.177892 -2.475979
C 1.622753 0.065803 -2.460572
C 1.772152 -0.035132 -2.469644
C 1.890862 -0.166471 -2.472775
C 2.192951 -0.240792 -2.465781
C 2.268603 -0.324676 -2.404616
C 2.186966 -0.288371 -2.210765
C 1.920805 -0.232295 -2.169547
C 1.607920 -0.256544 -2.192140
C 1.608503 -0.247374 -2.110586
C 1.733845 -0.302267 -2.044683
C 1.891779 -0.391819 -1.971369
C 2.187510 -0.377006 -1.851467
C 2.580161 -0.352189 -1.561783
C 3.085641 -0.310083 -1.095018
C 3.628917 -0.116527 -0.549130
C 3.841743 0.161699 -0.026948
C 3.904220 0.538236 0.494459
C 4.026647 0.580749 0.846032
C 4.077085 0.528723 1.085797
C 4.061161 0.327139 1.037311
C 4.020481 0.074611 0.782798
C 3.976907 -0.312105 0.463561
C 3.924272 -0.823723 0.045440
C 3.854896 -1.379802 -0.422670
C 3.584241 -1.645322 -0.807718
C 2.962609 -1.871472 -1.312649
C 2.263990 -1.991696 -1.803266
C 1.468483 -2.075910 -2.166149
C 0.615264 -1.967570 -2.420868
C -0.248961 -1.784846 -2.598082
C -0.825459 -1.652190 -2.822686
C -1.136273 -1.568026 -2.922050
C -0.953004 -1.470262 -2.840287
C -0.660749 -1.412778 -2.677613
C -0.418738 -1.403376 -2.558313
C -0.238395 -1.396528 -2.526475
C 0.071295 -1.454102 -2.503068
C 0.105418 -1.447745 -2.381781
C 0.303223 -1.453105 -2.346107
C 0.252265 -1.446736 -2.338802
C 0.161187 -1.496597 -2.393763
C -0.108035 -1.427401 -2.420589
C -0.425795 -1.366538 -2.426890
C -0.771473 -1.193348 -2.281742
C -1.183797 -0.889644 -2.139297
C -1.973314 -0.494843 -1.967108
C -2.667525 -0.242626 -1.843838
C -3.210678 0.081376 -1.567495
C -3.379110 0.232352 -1.326091
C -2.411823 -0.009782 -0.941839
C -2.379093 -0.215916 -0.985512
C -2.237827 -0.528689 -1.021753
C -1.679022 -0.919592 -1.002590
C -0.976149 -1.200971 -0.863744
C -0.380617 -1.558109 -0.876311
C 0.214457 -1.932800 -0.925414
C -0.129527 -2.019135 -1.110098
C 0.354095 -2.185533 -1.008640
C 0.810450 -2.344502 -0.925930
C 0.724136 -2.492336 -0.969349
C 0.580946 -2.650642 -1.037583
C 0.435945 -2.736098 -1.050070
C 0.276805 -2.734913 -1.018568
C 0.104664 -2.749578 -0.945283
C 0.069473 -2.856447 -0.943545
C 0.196309 -2.979199 -0.884743
C 0.350795 -3.017755 -0.749606
C 0.510172 -3.097919 -0.714110
C 0.577802 -3.113400 -0.621711
C 0.532729 -3.060935 -0.511783
C 0.437296 -2.868799 -0.482271
C 0.166389 -2.783068 -0.567604
C -0.200695 -2.656771 -0.612482
C -0.294970 -2.687775 -0.631557
C -0.331438 -2.684261 -0.516549
C -0.390007 -2.682318 -0.474376
C -0.549836 -2.775650 -0.550331
C -0.703214 -2.881232 -0.593460
C -0.668608 -2.895415 -0.489305
C -0.716013 -2.864688 -0.401112
C -1.003192 -2.621930 -0.408142
C -1.451622 -2.445684 -0.454811
C -1.646884 -2.417984 -0.434555
C -1.601785 -2.472776 -0.398576
C -1.620495 -2.596536 -0.368091
C -1.575807 -2.631828 -0.247657
C -1.627983 -2.714501 -0.226257
C -1.625813 -2.835545 -0.217621
C -1.583169 -2.813565 -0.172088
C -1.591720 -2.715416 -0.193318
C -1.705378 -2.487284 -0.211497
C -1.752775 -2.281446 -0.210009
C -1.953072 -1.940356 -0.215947
C -2.111966 -1.625675 -0.242780
C -2.327199 -1.273448 -0.124985
C -2.523451 -0.921542 -0.113647
C -2.845969 -0.566153 -0.122909
C -3.079805 -0.195030 0.017263
C -3.246269 0.118303 0.107819
C -3.396492 0.213783 0.154330
C -3.495185 0.402412 0.272515
C -2.675493 -0.012100 0.221546
C -2.692182 -0.221987 0.243787
C -2.503042 -0.545998 0.328669
C -2.253579 -0.831191 0.413587
C -2.092431 -1.133642 0.493261
C -2.128163 -1.261107 0.527194
C -1.996897 -1.428403 0.542801
C -2.644893 -1.109306 0.661537
C -2.443031 -1.109260 0.792459
C -2.550820 -1.077568 0.893995
C -2.619545 -1.064931 0.945463
C -2.500406 -1.004330 0.982096
C -2.049257 -1.240648 1.099956
C -1.548144 -1.486272 1.184417
C -0.970025 -1.754569 1.250999
C -0.480882 -1.995195 1.304694
C -0.045287 -2.195357 1.322884
C 0.079902 -2.435005 1.417357
C 0.386831 -2.663790 1.479244
C 0.378739 -2.578758 1.468218
C 0.327580 -2.570607 1.505391
C 0.283840 -2.554710 1.618361
C 0.326108 -2.558270 1.670242
C 0.397254 -2.620665 1.704750
C 0.428386 -2.544072 1.679167
C 0.277390 -2.574213 1.699793
C 0.484347 -2.721910 1.739484
C 0.295596 -2.705124 1.796910
C -0.039624 -2.628084 1.839946
C -0.453932 -2.488420 1.874492
C -0.526946 -2.377942 1.948461
C -0.330918 -2.357048 1.952735
C 0.074290 -2.266139 1.906303
C 0.296076 -2.157948 1.897058
C 0.738449 -2.181552 1.869112
C 0.760053 -2.166572 1.839831
C 0.908271 -2.188068 1.899386
C 0.892544 -2.093259 1.919615
C 1.008942 -2.065285 2.008830
C 0.753356 -2.046555 2.212514
C 0.420399 -1.980106 2.392286
C 0.148934 -1.928978 2.542636
C 0.355351 -1.873123 2.690433
C 0.507751 -1.805644 2.684535
C 0.570157 -1.689675 2.634771
C 0.670925 -1.633756 2.610197
C 0.776266 -1.527668 2.585672
C 0.630320 -1.489475 2.568970
C 0.445025 -1.422347 2.532985
C 0.325419 -1.370524 2.389044
C -0.038758 -1.211088 2.304440
C -0.415849 -0.982298 2.308961
C -1.083592 -0.598999 2.250633
C -1.734658 -0.267568 2.109062
C -2.007912 0.070201 1.966062
C -2.267457 0.384896 1.880009
C -2.596264 0.594397 1.902730
C -2.700136 0.722285 1.887587
C -2.713038 0.622034 1.881596
C -2.493575 0.480924 1.971884
C -2.297330 0.344897 2.072383
C -2.183184 0.192168 2.151895
C -2.148986 0.011527 2.224234
C -2.069778 -0.076046 2.325878
C -1.951107 -0.146993 2.462334
C -1.850443 -0.100236 2.496547
C -1.824376 -0.177552 2.511353
C -1.594618 -0.234179 2.619584
C -0.974234 -0.323208 2.600374
C -0.555572 -0.337735 2.761451
C -0.371967 -0.353711 2.786067
C -0.222541 -0.390581 2.747195
C -0.132507 -0.418175 2.812607
C -0.244924 -0.296638 2.745861
C -0.527415 -0.062560 2.662420
C -1.130577 0.197866 2.764045
C -1.374848 0.409350 2.731521
C -1.398755 0.524762 2.699231
C -1.370073 0.648570 2.855362
C -0.712789 0.634309 2.785723
C 0.136816 0.594447 2.752982
C 0.489495 0.537286 2.859693
C 1.089385 0.490449 2.901148
C 1.332863 0.299815 2.848018
C 1.567971 0.166465 2.796220
C 1.851271 0.014396 2.691924
C 1.688179 0.027071 2.794004
C 1.402093 -0.042875 2.930622
C 1.590426 -0.189235 2.880864
C 1.493856 -0.295686 2.829399
C 1.643392 -0.245356 2.811539
C 1.743081 -0.107371 2.953803
C 1.477029 0.041956 2.929415
C 0.962523 0.281410 2.908080
C 0.543478 0.573392 2.898076
C 0.186075 1.022917 2.865689
C -0.212128 1.219726 2.772500
C -0.680507 1.465311 2.678375
C -1.061029 1.620562 2.488664
C -1.084012 1.851331 2.504629
C -0.874692 1.839689 2.542722
C -0.556447 1.683254 2.513842
C -0.189142 1.420768 2.535167
C 0.227643 1.359797 2.596898
C 0.586748 1.241022 2.631762
C 0.828039 1.204352 2.709716
C 0.874859 1.058212 2.661385
C 0.955825 1.031519 2.628112
C 0.707958 1.148185 2.588835
C 0.460283 1.232617 2.554820
C 0.406982 1.351834 2.580166
C 0.564653 1.498350 2.608541
C 0.630729 1.601150 2.584876
C 0.871984 1.725184 2.647418
C 0.877825 1.789372 2.628660
C 1.146102 1.866598 2.698960
C 1.429445 1.930354 2.729090
