118
chr19 3D structure from Hi-C (resolution 500000bp)
C 0.537744 -3.014337 -1.030506
C 0.744899 -2.974963 -1.023431
C 0.932742 -2.895387 -0.978422
C 1.012897 -2.803179 -0.891746
C 1.222805 -2.731297 -0.728038
C 1.359617 -2.731653 -0.595443
C 1.434890 -2.692740 -0.348073
C 1.478019 -2.562395 -0.111776
C 1.526228 -2.451584 0.099154
C 1.525308 -2.416180 0.346547
C 1.595081 -2.299711 0.436455
C 1.780519 -2.106521 0.431929
C 1.920125 -1.822181 0.333314
C 1.952924 -1.450743 0.265974
C 1.782540 -1.056507 0.044635
C 1.736465 -0.427566 -0.126006
C 1.732215 0.131017 -0.242671
C 1.786107 0.404789 -0.287137
C 1.777474 0.578841 -0.262691
C 1.819122 0.745552 -0.142488
C 2.011656 0.977958 -0.188619
C 2.281240 1.130453 -0.076977
C 2.513483 0.866958 0.058478
C 2.622664 0.710734 0.187065
C 2.531464 0.616151 0.445747
C 2.565779 0.536487 0.728733
C 2.519439 0.520123 0.925180
C 2.463809 0.385992 1.241562
C 2.421827 0.164473 1.524912
C 2.273309 0.155843 1.724059
C 2.321706 0.043993 1.789650
C 2.437430 -0.005323 1.745514
C 2.365324 -0.046997 1.650018
C 2.419168 -0.150139 1.274475
C 2.415708 -0.275902 0.809146
C 2.400254 -0.318633 0.441128
C 2.306274 -0.190271 -0.067674
C 2.068677 0.062420 -0.648502
C 1.943858 0.294663 -1.327635
C 1.732338 0.616251 -1.927760
C 1.495761 0.994738 -2.233613
C 1.184688 1.350330 -2.433837
C 0.939008 1.617912 -2.651470
C 0.760460 1.741449 -2.675940
C 0.506709 1.759836 -2.719562
C 0.241712 1.775403 -2.645806
C 0.324168 1.462342 -2.790593
C 0.338233 0.958780 -2.914328
C 0.327386 0.350120 -3.040048
C 0.220025 -0.265456 -3.165337
C 0.013384 -0.909892 -3.326496
C -0.155921 -1.284152 -3.397578
C -0.408196 -1.434335 -3.360586
C -0.862310 -1.089993 -3.095110
C -1.303348 -0.673220 -2.850108
C -1.653942 -0.202025 -2.556081
C -1.842243 0.238753 -2.220674
C -2.048509 0.661696 -1.930255
C -2.196110 0.846731 -1.714423
C -2.230360 0.942990 -1.685053
C -2.300585 0.817600 -1.732137
C -2.316083 0.696230 -1.604286
C -2.327243 0.553997 -1.468125
C -2.402327 0.433592 -1.378635
C -2.449852 0.356668 -1.222132
C -2.513783 0.146538 -1.047830
C -2.393640 0.178640 -0.730629
C -2.074223 0.203835 -0.203334
C -1.713158 0.363668 0.306728
C -1.442713 0.683264 0.607252
C -1.105831 1.098261 0.807529
C -0.799313 1.502453 1.038603
C -0.546348 1.975868 1.389641
C -0.466012 2.020084 1.775450
C -0.484767 2.028994 2.017711
C -0.574681 1.811194 2.057353
C -0.586294 1.476934 2.250492
C -0.660464 1.061799 2.474864
C -0.684175 0.606257 2.644864
C -0.720323 0.226211 2.748063
C -0.841268 -0.066146 2.764432
C -1.133601 -0.294139 2.624192
C -1.524197 -0.318045 2.464141
C -1.854602 -0.332565 2.188180
C -2.053845 -0.234581 2.021351
C -2.179599 0.021878 1.816735
C -2.065931 0.076574 1.656295
C -1.902827 0.008207 1.596642
C -1.645677 -0.130781 1.566900
C -1.347898 -0.341363 1.543312
C -1.045848 -0.697847 1.663085
C -0.905084 -1.155063 1.644455
C -0.837318 -1.663577 1.687650
C -0.830737 -1.979435 1.712978
C -0.762569 -2.060691 1.652494
C -0.679689 -2.032185 1.671316
C -0.565091 -2.097278 1.790187
C -0.724661 -1.906471 1.672970
C -0.821190 -1.595114 1.652929
C -0.818457 -1.182890 1.589029
C -0.856400 -0.703560 1.433268
C -0.895228 -0.085561 1.212798
C -0.912246 0.450317 0.883284
C -1.030038 1.109496 0.526810
C -0.950294 1.573834 0.339192
C -1.071716 1.292363 -0.095514
C -1.218941 0.724383 -0.466086
C -1.322537 0.334645 -0.570654
C -1.500896 0.239706 -0.569621
C -1.722357 0.205074 -0.535673
C -1.749663 0.186537 -0.643063
C -1.613720 0.290954 -0.646212
C -1.229275 1.083587 -0.467013
C -0.842629 1.846116 -0.284957
C -0.368684 2.550520 -0.083639
C -0.172145 2.653366 -0.153206
C 0.128498 2.780184 -0.175740
C 0.448141 2.846996 0.023229
