118
chr19 3D structure from Hi-C (resolution 500000bp)
C 2.483387 0.296744 1.996892
C 2.468378 0.075220 2.065436
C 2.428016 -0.181978 2.049341
C 2.336740 -0.476145 1.897941
C 2.231607 -0.933971 1.972634
C 2.118546 -1.246913 1.906790
C 2.023565 -1.519312 1.741110
C 1.919909 -1.740227 1.612017
C 1.937715 -1.869715 1.353876
C 2.036674 -1.860003 1.128394
C 2.123681 -1.699757 1.063001
C 2.198383 -1.494872 0.942591
C 2.214883 -1.294218 0.884689
C 2.153681 -0.986666 0.862546
C 2.155412 -0.500546 0.560375
C 2.033872 0.058719 0.456623
C 1.895173 0.440608 0.408963
C 1.832465 0.585284 0.365389
C 1.722656 0.557847 0.268955
C 1.760720 0.577799 0.129457
C 2.000414 0.638801 -0.090038
C 2.212624 0.524665 -0.151212
C 2.349794 0.125282 -0.232018
C 2.369782 -0.205345 -0.390896
C 2.369894 -0.391056 -0.595046
C 2.366208 -0.602147 -0.816186
C 2.146983 -0.776155 -1.051502
C 1.872702 -1.149351 -1.184794
C 1.579399 -1.475420 -1.226666
C 1.417575 -1.712894 -1.242412
C 1.219697 -1.948179 -1.206264
C 1.026444 -2.126129 -1.120479
C 0.924693 -2.190476 -0.946615
C 0.951530 -2.318393 -0.786699
C 0.872898 -2.405422 -0.796772
C 0.877298 -2.302579 -0.850458
C 0.869954 -1.789792 -1.010831
C 0.954318 -1.136223 -1.187513
C 1.158878 -0.513862 -1.482029
C 1.178312 0.067951 -1.827812
C 1.156293 0.745210 -2.173433
C 1.160239 1.487377 -2.268511
C 1.115130 1.931435 -2.302756
C 0.963141 2.051604 -2.224071
C 0.946572 2.181395 -2.120385
C 0.729082 2.184060 -2.016945
C 0.704297 1.897652 -2.189273
C 0.716772 1.445157 -2.348750
C 0.598966 0.819168 -2.563693
C 0.390609 0.242533 -2.808533
C 0.154843 -0.212299 -3.131624
C -0.171156 -0.498241 -3.435898
C -0.438483 -0.435991 -3.460288
C -0.776676 -0.085788 -3.166281
C -1.094215 0.299868 -2.894724
C -1.299828 0.773815 -2.610377
C -1.430818 1.138623 -2.203073
C -1.607726 1.437661 -1.833227
C -1.796703 1.548785 -1.488296
C -1.935674 1.516976 -1.370067
C -2.070882 1.548931 -1.252513
C -2.149566 1.548990 -1.054490
C -2.218915 1.353703 -0.913479
C -2.241379 1.270233 -0.933450
C -2.278371 1.183874 -0.916706
C -2.389021 0.962559 -0.919469
C -2.223533 0.840913 -0.767817
C -1.984158 0.523575 -0.474484
C -1.907524 0.378027 -0.053206
C -1.674805 0.582029 0.306812
C -1.473712 0.894282 0.658264
C -1.149216 1.179967 1.087249
C -0.782994 1.421576 1.538883
C -0.736467 1.368509 1.980618
C -0.759558 1.371715 2.267599
C -0.653309 1.247892 2.334135
C -0.623375 0.959843 2.454058
C -0.614835 0.514056 2.567645
C -0.709266 0.066416 2.651495
C -0.913362 -0.287733 2.653617
C -1.089339 -0.551816 2.504932
C -1.372268 -0.683900 2.306580
C -1.682843 -0.706218 2.018979
C -2.038186 -0.610481 1.794934
C -2.203922 -0.459657 1.664696
C -2.301599 -0.197423 1.462984
C -2.173120 -0.118560 1.302045
C -2.022860 -0.145877 1.305593
C -1.776269 -0.239046 1.278639
C -1.563561 -0.425195 1.311027
C -1.387443 -0.808418 1.307137
C -1.308852 -1.245962 1.267773
C -1.200674 -1.700762 1.238394
C -1.153168 -2.001277 1.265744
C -1.062003 -2.086458 1.191602
C -0.980589 -2.127583 1.210160
C -0.978251 -2.249177 1.066908
C -0.943470 -2.173849 0.911338
C -0.999532 -1.930558 0.796427
C -1.119550 -1.815968 0.657324
C -1.092283 -1.334587 0.537465
C -0.982751 -0.729705 0.421108
C -1.000387 -0.205223 0.306094
C -0.811838 0.506652 0.335752
C -0.723271 1.154281 0.296539
C -0.873884 1.103146 -0.123495
C -0.937563 0.941510 -0.461798
C -1.077028 0.587347 -0.651196
C -1.267557 0.583286 -0.650901
C -1.351208 0.653796 -0.755223
C -1.415811 0.694700 -0.777344
C -1.309651 0.668909 -0.649063
C -0.845828 1.214398 -0.115085
C -0.432260 1.813383 0.374954
C 0.045462 2.403860 0.808228
C 0.211730 2.424063 0.855621
C 0.467663 2.443333 1.006672
C 0.739206 2.375088 1.236377
