485
chr2 3D structure from Hi-C (resolution 500000bp)
C 2.711427 -1.558880 -2.861840
C 2.691844 -1.569375 -2.907033
C 2.574827 -1.627020 -2.875403
C 2.480414 -1.593277 -2.996407
C 2.344478 -1.576974 -3.120640
C 2.459484 -1.572364 -3.051660
C 2.445398 -1.681351 -2.908790
C 2.487644 -1.726877 -2.854977
C 2.530398 -1.760312 -2.781359
C 2.441369 -1.761667 -2.833012
C 2.346473 -1.840469 -2.779013
C 2.142070 -1.854796 -2.749358
C 1.659690 -1.897896 -2.883811
C 1.081775 -1.886502 -3.016053
C 0.533347 -1.910248 -3.157191
C -0.054671 -1.928844 -3.219796
C -0.508288 -1.879615 -3.198838
C -0.920874 -1.865384 -3.189372
C -1.126087 -1.853132 -3.226701
C -1.249213 -1.829257 -3.253912
C -1.215663 -1.843665 -3.232953
C -1.108955 -1.833393 -3.221976
C -0.902767 -1.863132 -3.207663
C -0.580808 -1.889112 -3.342988
C -0.274245 -1.859197 -3.358174
C 0.007999 -1.841388 -3.414888
C 0.245076 -1.944221 -3.358179
C 0.424410 -2.004036 -3.368375
C 0.506929 -2.098308 -3.267412
C 0.651042 -2.185250 -3.249149
C 0.737044 -2.301128 -3.099508
C 0.852137 -2.456585 -2.973100
C 0.909660 -2.654421 -2.807120
C 1.062412 -2.668792 -2.696400
C 1.221466 -2.731208 -2.585968
C 1.415232 -2.719435 -2.495067
C 1.372463 -2.730923 -2.396462
C 1.205877 -2.766896 -2.309984
C 1.041569 -2.722161 -2.261921
C 1.241475 -2.691521 -2.138513
C 1.465994 -2.662545 -2.062129
C 1.631167 -2.645034 -2.005466
C 1.630371 -2.710477 -1.989856
C 1.517061 -2.736229 -1.990428
C 1.328680 -2.710448 -2.098297
C 0.947280 -2.655387 -2.148699
C 0.177668 -2.512452 -2.230306
C -0.768456 -2.422802 -2.224783
C -1.670270 -2.260702 -2.164826
C -2.444607 -2.051428 -2.175465
C -2.993753 -1.820747 -2.071947
C -3.265930 -1.692687 -1.948735
C -3.345529 -1.684480 -1.870442
C -3.308589 -1.697860 -1.758021
C -3.185977 -1.727260 -1.769784
C -3.003352 -1.804898 -1.880601
C -2.800333 -1.900370 -1.932663
C -2.537926 -2.045915 -2.041765
C -2.298217 -2.164061 -2.079627
C -2.019083 -2.238749 -2.070712
C -1.831358 -2.449229 -2.179417
C -1.798618 -2.582220 -2.261797
C -1.555798 -2.797249 -2.256911
C -1.223535 -2.967561 -2.152139
C -0.898664 -3.135146 -2.049235
C -0.477560 -3.196805 -1.898524
C 0.145623 -3.185949 -1.771378
C 0.658598 -3.155175 -1.540453
C 1.255970 -3.177043 -1.359513
C 1.529136 -3.235421 -1.266906
C 1.493674 -3.272125 -1.215711
C 1.158708 -3.235388 -1.250750
C 0.729146 -3.273709 -1.259741
C -0.034852 -3.401802 -1.339164
C -0.563943 -3.433655 -1.444734
C -0.973403 -3.543144 -1.524816
C -1.091427 -3.497198 -1.477093
C -0.913891 -3.508145 -1.448565
C -0.333792 -3.564394 -1.338783
C 0.075488 -3.558157 -1.264797
C 0.430700 -3.496284 -1.156413
C 0.476195 -3.460734 -1.099289
C 0.353199 -3.239057 -1.004609
C -0.171825 -3.068229 -0.956012
C -0.741474 -2.889994 -0.948263
C -1.511939 -2.670882 -0.926409
C -2.117619 -2.604255 -0.938240
C -2.542179 -2.551558 -0.931815
C -2.697326 -2.444477 -0.871785
C -2.757515 -2.477541 -0.812294
C -2.612492 -2.528064 -0.797403
C -2.488201 -2.588569 -0.766256
C -2.283956 -2.782913 -0.760176
C -1.998836 -2.906097 -0.724077
C -1.488823 -2.993947 -0.664564
C -0.981195 -3.123033 -0.577487
C -0.330819 -3.221191 -0.480466
C 0.196081 -3.292540 -0.417908
C 0.845545 -3.299166 -0.287482
C 1.511911 -3.210794 -0.186208
C 2.109656 -3.123938 -0.087396
C 2.419817 -3.067556 -0.022253
C 2.732665 -2.984480 0.026844
C 2.732962 -2.972227 0.068829
C 2.513908 -2.967946 0.090213
C 2.122333 -3.117722 0.089531
C 1.643051 -3.232199 0.080094
C 1.074366 -3.253710 0.053304
C 0.699729 -3.366803 0.065674
C 0.405017 -3.529289 0.129679
C 0.367291 -3.636341 0.192638
C 0.564160 -3.682805 0.301136
C 0.640624 -3.614507 0.413701
C 0.761136 -3.667986 0.487163
C 1.006575 -3.793006 0.595371
C 1.093071 -3.867003 0.688147
C 1.012151 -3.890316 0.734695
C 0.730549 -3.922382 0.712426
C 0.370582 -3.916107 0.669812
C -0.110684 -3.778062 0.596850
C -0.569908 -3.602946 0.562081
C -1.070971 -3.482994 0.525033
C -1.514615 -3.406052 0.472484
C -2.053811 -3.319673 0.489805
C -2.430492 -3.236297 0.552759
C -2.601933 -3.196062 0.681404
C -2.520749 -3.278813 0.747347
C -2.396097 -3.276274 0.830105
C -2.081054 -3.312737 0.969821
C -1.795765 -3.357607 1.197990
C -1.366957 -3.380402 1.319047
C -1.025576 -3.401424 1.389938
C -0.729104 -3.471711 1.446449
C -0.569115 -3.447146 1.481412
C -0.439974 -3.543783 1.560476
C -0.569692 -3.507007 1.545497
C -1.003229 -3.315775 1.384982
C -1.298545 -3.272176 1.382702
C -1.471425 -3.165079 1.331613
C -1.744247 -3.049951 1.355320
C -1.636872 -3.085951 1.532900
C -1.451646 -3.044252 1.690360
C -1.382795 -3.065514 1.871885
C -1.181003 -3.184439 1.979384
C -1.274638 -3.088437 1.919760
C -1.496849 -3.018804 1.934800
C -1.534685 -2.916273 1.940452
C -1.635739 -2.856390 1.889829
C -1.621953 -2.793645 1.821527
C -1.323749 -2.781353 1.860298
C -0.846482 -2.725832 1.946967
C -0.138305 -2.774133 2.041526
C 0.718897 -2.822926 2.102865
C 1.351990 -2.925824 2.120606
C 1.796432 -2.973377 2.128580
C 2.000240 -2.972845 2.131509
C 2.077293 -2.888109 2.098894
C 2.118735 -2.850059 2.158305
C 1.955016 -2.814988 2.182667
C 1.982517 -2.774766 2.194409
C 2.015663 -2.696754 2.270624
C 2.209120 -2.551332 2.308627
C 2.427245 -2.431975 2.365042
C 2.535900 -2.384293 2.328443
C 2.571723 -2.318279 2.310757
C 2.546317 -2.315888 2.332168
C 2.054639 -2.354738 2.510519
C 1.597218 -2.340199 2.456004
C 0.703398 -2.316116 2.279980
C -0.242769 -2.254451 2.151587
C -0.155528 -2.208000 2.055978
C 0.158405 -2.098215 1.721277
C 0.661741 -1.922636 1.385720
C 0.657167 -1.836722 1.271181
C 0.607426 -1.899253 1.411549
C 0.365527 -1.766605 1.311589
C 1.437042 -1.792963 1.264712
C 1.625106 -1.719894 1.162000
C 1.642634 -1.637277 0.958704
C 0.388121 -1.132741 1.132176
C -0.084520 -1.042847 1.236949
C -0.574541 -0.469223 0.905992
C -0.558019 -0.072065 0.950771
C -1.774989 0.476924 0.877845
C -1.734540 0.560849 0.648343
C -1.728357 0.532829 0.729554
C -1.353721 -0.054584 1.091760
C -1.317373 0.011250 1.004443
C -1.244855 -0.282105 1.104016
C -1.205810 -0.536232 1.185708
C -1.190911 -0.827418 1.223055
C -2.529821 -0.731157 1.425897
C -3.811605 -0.643145 1.563238
C -4.151839 -0.387250 1.249990
C -4.212231 -0.276979 1.159325
C -4.142814 -0.259695 1.254353
C -3.921254 -0.360340 1.458205
C -3.742415 -0.410151 1.712409
C -3.388927 -0.414331 1.982377
C -3.161859 -0.414343 2.255641
C -2.926025 -0.481465 2.502379
C -2.681155 -0.548946 2.716138
C -2.273616 -0.602855 2.922425
C -1.596258 -0.694814 3.052032
C -0.980904 -0.915488 3.247157
C -0.559710 -1.099635 3.438445
C -0.306161 -1.170987 3.666562
C -0.137092 -1.136312 3.628316
C -0.043675 -1.109598 3.565158
C -0.117777 -1.082651 3.543806
C -0.435559 -1.024598 3.578147
C -0.656568 -0.924061 3.586501
C -0.786024 -0.863460 3.626296
C -0.835441 -0.825519 3.588709
C -0.956687 -0.792397 3.591910
C -1.104405 -0.768616 3.604120
C -1.341158 -0.601096 3.487599
C -0.742874 -0.607187 3.220148
C -1.173898 -0.312409 2.960295
C -1.700078 0.003736 2.627566
C -2.059692 0.268179 2.385695
C -2.257705 0.364745 2.197975
C -2.349411 0.484809 2.058729
C -2.252700 0.498752 2.071374
C -3.124096 0.694066 2.256981
C -2.598335 0.445318 2.530799
C -1.923163 0.194306 2.856886
C -1.215348 -0.097793 3.177947
C -0.480974 -0.288615 3.463406
C 0.122146 -0.374038 3.769669
C 0.718258 -0.500488 3.968888
C 1.137496 -0.602759 4.075074
C 1.076986 -0.459385 3.958717
C 0.782529 -0.240012 3.848147
C 0.481877 -0.056406 3.728365
C -0.065311 0.203604 3.610133
C -0.568942 0.430788 3.470504
C -1.155948 0.655618 3.249799
C -1.616515 0.854165 3.102446
C -1.823622 0.951219 3.105838
C -1.830519 0.927387 3.210588
C -1.723005 0.939990 3.304932
C -1.443885 0.869126 3.415050
C -1.047252 0.724803 3.578499
C -0.573928 0.615066 3.798895
C -0.121657 0.524685 3.982411
C 0.075636 0.522303 4.123172
C 0.200306 0.575159 4.181904
C 0.287403 0.642299 4.236351
C 0.405107 0.675244 4.207498
C 0.306761 0.761064 4.073951
C -0.011738 0.895079 3.839200
C -0.413653 1.083222 3.536742
C -0.692245 1.216887 3.300318
C -0.809781 1.275719 3.083078
C -1.015916 1.383619 2.959814
C -1.317670 1.534972 2.918548
C -1.627262 1.738285 2.888558
C -1.738180 1.842458 2.989219
C -1.833942 1.912432 3.046268
C -1.196326 1.613866 3.135265
C -0.666370 1.402711 3.237306
C -0.385888 1.304048 3.237828
C 0.057334 1.140006 3.292509
C 0.385944 0.998325 3.305016
C 0.552682 0.986544 3.217260
C 0.836537 1.028252 3.309911
C 0.204548 1.489918 3.200779
C -0.394237 1.907919 3.054593
C -0.670262 2.169318 2.946968
C -0.806372 2.366218 2.919891
C -0.565116 2.372750 2.950375
C -0.262047 2.332497 3.012046
C -0.003605 2.255894 3.012499
C 0.492309 2.115051 3.091582
C 1.038348 1.858509 3.152099
C 1.520059 1.592171 3.185952
C 1.783317 1.455752 3.111628
C 1.965463 1.394684 3.024318
C 2.111968 1.357813 3.008206
C 2.280728 1.321813 2.913259
C 2.447121 1.251918 2.830974
C 2.477760 1.410754 2.824373
C 2.258018 1.633641 2.727305
C 1.932225 1.857832 2.675500
C 1.563185 2.127211 2.665717
C 1.752499 1.953380 2.613505
C 1.938434 1.775669 2.593986
C 1.945367 1.851646 2.570664
C 2.079390 1.658028 2.524025
C 2.325190 1.607545 2.531407
C 2.553818 1.624567 2.532180
C 2.577598 1.603867 2.484693
C 2.000964 2.035079 2.471073
C 1.452297 2.450100 2.536762
C 1.171996 2.572834 2.487439
C 1.037009 2.636840 2.383805
C 0.884664 2.765513 2.407140
C 0.817344 2.813885 2.357601
C 0.892206 2.819605 2.283888
C 0.961451 2.901597 2.257009
C 1.111222 2.869160 2.157556
C 1.230617 2.810220 2.101211
C 1.337945 2.869564 2.026884
C 1.608460 2.616878 1.873992
C 1.942219 2.293500 1.801003
C 2.331031 2.084610 1.740225
C 2.848686 1.734106 1.625736
C 3.252672 1.426932 1.469635
C 3.560959 1.244801 1.391237
C 3.650982 1.134227 1.296446
C 3.642200 1.236646 1.226753
C 3.533530 1.458763 1.166871
C 3.438913 1.583495 1.110945
C 3.161582 1.845721 1.105348
C 2.708555 2.122982 1.121679
C 2.188971 2.387866 1.128106
C 1.942008 2.664725 1.189332
C 1.802054 2.725099 1.216277
C 1.682690 2.864638 1.164734
C 1.693702 3.002926 1.119520
C 1.828415 2.991868 1.056192
C 2.295662 2.867381 0.960843
C 2.880326 2.541464 0.791260
C 3.214029 2.192522 0.614825
C 3.473824 1.984785 0.474532
C 3.599335 1.811036 0.409408
C 3.729696 1.564189 0.308356
C 3.829807 1.423018 0.169101
C 3.907790 1.164280 0.220000
C 3.942198 1.058635 0.303558
C 3.513986 1.603418 0.453002
C 3.155308 1.954038 0.593012
C 2.826823 2.083019 0.591279
C 2.248847 2.423517 0.688197
C 1.693707 2.636473 0.802256
C 0.941651 3.058995 0.740158
C 0.078842 3.571970 0.757595
C -0.395773 3.396932 0.711265
C -1.054838 3.334863 0.634616
C -1.541075 3.325411 0.624778
C -1.840664 3.186945 0.617670
C -1.982784 3.094594 0.591096
C -2.113786 3.071761 0.667961
C -2.107865 3.022713 0.610527
C -2.144263 3.053814 0.570592
C -1.909826 3.108140 0.604462
C -1.836762 3.220482 0.617895
C -1.690504 3.333490 0.610789
C -1.651945 3.452019 0.543049
C -1.577825 3.578684 0.461441
C -1.520312 3.705103 0.451713
C -1.220486 3.781390 0.391010
C -1.060468 3.842669 0.277957
C -0.790031 3.906257 0.202572
C -0.532453 3.899243 0.067417
C -0.151961 3.836545 0.001515
C 0.281516 3.797049 -0.075303
C 0.781294 3.754178 -0.116530
C 0.981899 3.803251 -0.170417
C 1.282586 3.793202 -0.238948
C 1.701590 3.681642 -0.360671
C 1.967365 3.654664 -0.416787
C 2.033103 3.620958 -0.481475
C 2.184012 3.481377 -0.551036
C 2.350021 3.304338 -0.687998
C 2.735074 2.882601 -0.797711
C 2.995799 2.590551 -0.908788
C 3.110453 2.351270 -0.954829
C 3.163159 2.168068 -1.028156
C 3.261667 2.083299 -1.082752
C 3.353552 1.994157 -1.229242
C 3.356028 1.882563 -1.332061
C 3.315546 1.889406 -1.447247
C 3.342462 1.777625 -1.520627
C 3.226640 1.853588 -1.540127
C 3.030280 1.878650 -1.570822
C 2.859044 2.003941 -1.641503
C 2.590967 2.230643 -1.613915
C 2.353769 2.345167 -1.633791
C 2.153063 2.561227 -1.642753
C 2.072077 2.638516 -1.698557
C 2.225818 2.405944 -1.844840
C 2.558966 2.139542 -1.965728
C 2.841953 1.777076 -2.118159
C 3.116857 1.400866 -2.289401
C 3.311558 1.211015 -2.395054
C 3.311565 1.191497 -2.438687
C 3.094319 1.392745 -2.442539
C 2.572103 1.847312 -2.304067
C 2.097292 2.308321 -2.189127
C 1.536372 2.651563 -1.933855
C 1.064203 2.976820 -1.751595
C 0.698258 3.295835 -1.635698
C 0.493412 3.442657 -1.618003
C 0.389290 3.499053 -1.642544
C 0.423974 3.434518 -1.734805
C 0.265271 3.412223 -1.739147
C 0.141129 3.426854 -1.811248
C -0.183392 3.384905 -1.783404
C -0.526258 3.305570 -1.743958
C -0.921397 3.264332 -1.592301
C -1.336498 3.276082 -1.440815
C -1.596750 3.261690 -1.418291
C -1.601586 3.205657 -1.495483
C -1.397285 3.142656 -1.658601
C -0.941488 2.848825 -2.060968
C -0.571761 2.780824 -2.201261
C -0.288752 2.683300 -2.386576
C -0.089744 2.608684 -2.553130
C 0.035748 2.561333 -2.646706
C -0.010201 2.508903 -2.663246
C -0.138694 2.575752 -2.597364
C -0.172525 2.843316 -2.406535
C 0.009209 2.788806 -2.476254
C 0.255830 2.675009 -2.611820
C 0.618023 2.523232 -2.778345
C 0.940106 2.402643 -2.864985
C 1.361283 2.226434 -2.989578
C 1.764068 1.907142 -3.184109
C 1.950534 1.671450 -3.329111
C 1.901741 1.569972 -3.404594
C 1.817517 1.519932 -3.385174
C 1.646446 1.460275 -3.397474
C 1.548813 1.444656 -3.461533
C 1.459268 1.352754 -3.618078
C 1.321728 1.449514 -3.663587
C 1.112227 1.519527 -3.696616
C 0.894058 1.616933 -3.684068
C 0.473610 1.739601 -3.544449
C 0.055715 1.833193 -3.344899
C -0.402848 1.878318 -3.214807
C -0.934347 2.053320 -3.018186
C -1.444615 2.091178 -2.646412
C -1.994279 2.233612 -2.217414
C -2.434753 2.332653 -1.998799
C -2.439535 2.239698 -2.139232
C -2.212858 2.195560 -2.267974
C -2.132535 2.075981 -2.428273
C -1.957233 2.088356 -2.484366
C -1.782267 1.965642 -2.876875
C -1.496215 1.852062 -3.236428
C -1.251605 1.708385 -3.501303
C -1.081963 1.772362 -3.546047
C -1.131580 1.806512 -3.554443
C -0.998161 1.871665 -3.462206
C -0.938817 1.768810 -3.505361
C -0.751547 1.803028 -3.418556
C -0.574084 1.696761 -3.503147
C -0.383212 1.563073 -3.568899
C -0.368132 1.417655 -3.623526
C -0.398594 1.315734 -3.689357
C -0.376109 1.221321 -3.750360
C -0.384790 1.103780 -3.864972
C -0.461702 0.982716 -3.986892
C -0.576885 0.967969 -3.938598
C -0.886508 1.025662 -3.809144
C -1.094578 1.089293 -3.531162
C -1.336460 1.182908 -3.299887
C -1.688831 1.277456 -3.012530
C -2.099220 1.429080 -2.617749
C -2.450771 1.535686 -2.333092
C -2.816188 1.586737 -2.098774
C -2.968326 1.608815 -1.874040
C -3.191689 1.513641 -1.920410
C -3.245477 1.373316 -1.990477
C -3.187545 1.278327 -2.144304
C -3.067975 1.168496 -2.309456
C -3.062234 1.092950 -2.371852
C -3.045245 0.978296 -2.486610
C -3.021792 0.919870 -2.550644
C -2.959039 0.888056 -2.631059
C -3.052613 0.971522 -2.450784
C -3.180855 0.918943 -2.307902
C -3.322582 0.924803 -2.164178
C -3.436490 0.992430 -2.044366
C -3.483600 0.989440 -1.907494
C -3.641393 0.955821 -1.841843
C -3.801694 0.979236 -1.596549
C -3.832428 0.903108 -1.557077
C -3.969684 0.890487 -1.409411
C -4.132355 0.795752 -1.203006
C -4.190643 0.714358 -1.096506
C -4.302992 0.751264 -0.933824
C -4.376823 0.759409 -0.735272
