485
chr2 3D structure from Hi-C (resolution 500000bp)
C 1.945183 3.433055 -1.524271
C 1.993307 3.501899 -1.384818
C 1.940482 3.480091 -1.464873
C 1.994489 3.443083 -1.599499
C 2.015425 3.443959 -1.559637
C 2.113790 3.481292 -1.573717
C 1.984907 3.474418 -1.667652
C 2.008161 3.486820 -1.740391
C 1.985939 3.429086 -1.899645
C 1.873823 3.391943 -1.968798
C 1.666740 3.338649 -2.002624
C 1.477220 3.254657 -2.075262
C 1.108253 3.047133 -2.280450
C 0.727457 2.804236 -2.574937
C 0.293873 2.529911 -2.924360
C -0.140918 2.267804 -3.138378
C -0.541425 1.964039 -3.272571
C -0.861222 1.760534 -3.437112
C -1.070467 1.654019 -3.529252
C -1.155421 1.651777 -3.568485
C -1.173560 1.753049 -3.514364
C -1.095545 1.853339 -3.396357
C -0.916695 2.065894 -3.252639
C -0.568612 2.338044 -3.258236
C -0.410741 2.514804 -3.167893
C -0.136427 2.641488 -3.137867
C 0.077004 2.769722 -3.036455
C 0.162868 2.834352 -2.959140
C 0.211981 2.930867 -2.885756
C 0.252879 3.000941 -2.862473
C 0.223151 3.100618 -2.729768
C 0.331057 3.247876 -2.533776
C 0.226344 3.425473 -2.323442
C 0.206944 3.530075 -2.174819
C 0.250294 3.594364 -1.969342
C 0.238346 3.706932 -1.821548
C 0.107154 3.668055 -1.719363
C -0.122427 3.538191 -1.711025
C -0.311685 3.409819 -1.787582
C -0.131897 3.413928 -1.664421
C 0.029475 3.473476 -1.490387
C 0.159510 3.574753 -1.455319
C 0.237150 3.583697 -1.449904
C 0.163970 3.582205 -1.547961
C 0.110690 3.565979 -1.619558
C -0.130585 3.307895 -1.745178
C -0.635487 2.880569 -2.118988
C -1.309885 2.306579 -2.440813
C -1.958747 1.697849 -2.717559
C -2.443327 1.128553 -3.007359
C -2.735230 0.698499 -3.144895
C -2.946895 0.381461 -3.197168
C -3.030334 0.273856 -3.162972
C -3.076949 0.271724 -2.980970
C -2.979740 0.431110 -2.970931
C -2.876617 0.673466 -2.918001
C -2.793783 0.956654 -2.815922
C -2.732571 1.188714 -2.726925
C -2.620346 1.436984 -2.618804
C -2.436891 1.659623 -2.511096
C -2.434256 1.813095 -2.576832
C -2.464224 1.882816 -2.647625
C -2.362773 2.110530 -2.596172
C -2.270938 2.289335 -2.415021
C -2.005485 2.567546 -2.166663
C -1.651704 2.783872 -1.861342
C -1.221620 3.141216 -1.566263
C -0.757074 3.415240 -1.119472
C -0.252517 3.701025 -0.654109
C -0.072407 3.854134 -0.464078
C -0.056865 3.873741 -0.381550
C -0.379449 3.733402 -0.532676
C -0.803925 3.550884 -0.738409
C -1.467586 3.220898 -0.994728
C -1.951814 3.015108 -1.236147
C -2.396970 2.988258 -1.454030
C -2.438497 2.882532 -1.472239
C -2.278800 3.019095 -1.366195
C -1.887429 3.264751 -1.089042
C -1.530101 3.482274 -0.867697
C -1.167402 3.630307 -0.648644
C -1.069509 3.642825 -0.580983
C -1.078473 3.388321 -0.557861
C -1.431535 3.007577 -0.701766
C -1.862173 2.539247 -0.900097
C -2.373487 1.978328 -1.144836
C -2.846881 1.501054 -1.364351
C -3.169849 1.204776 -1.581167
C -3.304204 0.943913 -1.675794
C -3.401440 0.769085 -1.741984
C -3.304317 0.863506 -1.661134
C -3.254216 0.917682 -1.633721
C -3.122489 1.260792 -1.533280
C -3.013699 1.527386 -1.422496
C -2.731651 1.863379 -1.141401
C -2.369273 2.249444 -0.829102
C -1.893115 2.742041 -0.475976
C -1.515390 3.031001 -0.158511
C -1.040670 3.402174 0.214118
C -0.578750 3.552191 0.568228
C -0.068357 3.780240 0.967774
C 0.209613 3.897589 1.185452
C 0.465974 4.000582 1.309552
C 0.380584 3.985862 1.419674
C 0.165295 3.936292 1.327387
C -0.149191 3.867710 1.188563
C -0.549216 3.737491 0.986225
C -0.965756 3.511399 0.705565
C -1.311633 3.429394 0.562358
C -1.635207 3.416942 0.526642
C -1.405063 3.414855 0.577926
C -1.297236 3.489023 0.742074
C -1.273915 3.495340 0.856762
C -1.245553 3.549914 1.032360
C -1.196218 3.729262 1.271535
C -1.158137 3.766364 1.405200
C -1.241683 3.722297 1.448319
C -1.824866 3.631351 1.279017
C -2.114464 3.461244 1.086153
C -2.435860 3.108198 0.829789
C -2.692553 2.775152 0.576874
C -2.986765 2.354896 0.270892
C -3.316780 2.068301 0.045522
C -3.697483 1.767883 -0.049116
C -3.897497 1.524915 -0.068747
C -4.029106 1.409908 -0.057119
C -4.007574 1.439447 0.024210
C -3.913786 1.517315 0.115846
C -3.737198 1.768446 0.418526
C -3.462078 1.974072 0.783925
C -3.130191 2.145858 1.001518
C -2.861787 2.304553 1.214482
C -2.647721 2.431083 1.437977
C -2.471217 2.474733 1.526362
C -2.478582 2.513565 1.681313
C -2.551793 2.403733 1.583687
C -2.878993 2.033276 1.227241
C -3.134160 1.903807 1.071801
C -3.246396 1.750480 0.944423
C -3.460800 1.548132 0.906382
C -3.492151 1.651699 1.136071
C -3.368696 1.695341 1.334288
C -3.358528 1.721447 1.563997
C -3.339477 1.776411 1.712070
C -3.379933 1.571317 1.655743
C -3.532272 1.358394 1.472846
C -3.532597 1.281300 1.371477
C -3.566255 1.096379 1.263109
C -3.505774 1.057080 1.202565
C -3.296222 1.161474 1.320832
C -2.831587 1.419632 1.614238
C -2.334417 1.786317 1.964171
C -1.710160 2.213099 2.475360
C -1.175330 2.526717 2.770452
C -0.860758 2.835419 2.994862
C -0.608500 2.994754 3.053297
C -0.503713 3.024314 3.027779
C -0.569204 3.002692 3.070838
C -0.633058 2.894961 3.074514
C -0.684941 2.833026 3.129187
C -0.647592 2.817365 3.130952
C -0.349940 2.825377 3.149270
C -0.156766 2.827504 3.250593
C 0.048180 2.872348 3.248917
C 0.221979 2.854633 3.229731
C 0.150086 2.814901 3.154137
C -0.297754 2.613463 2.962772
C -0.765111 2.268321 2.768835
C -1.485279 1.791465 2.424844
C -2.227425 1.324686 2.099142
C -2.938215 0.817736 1.704178
C -2.607707 0.896614 1.666785
C -2.997431 0.249839 1.116823
C -2.891537 0.179169 1.013011
C -3.052016 0.014985 0.705727
C -3.139088 -0.237321 0.444512
C -3.180508 -0.455361 0.159104
C -3.069705 -0.850875 -0.038727
C -3.826956 -1.879192 -0.601992
C -2.818378 -1.039617 -0.122758
C -2.044200 -0.644877 -0.102326
C -0.911546 -0.043867 0.067889
C 0.264774 0.705380 0.325291
C 1.412168 1.427627 0.600900
C 2.432407 2.380999 0.924748
C 2.241112 2.687149 0.796979
C 1.361337 2.251491 0.971848
C 0.417394 1.573594 1.000634
C -0.727515 0.825255 0.961079
C -1.861576 0.056402 0.883529
C -2.918608 -0.785061 0.750262
C -3.108033 -0.904720 1.070863
C -3.113890 -0.878908 1.505196
C -3.180396 -1.241206 1.145533
C -3.145540 -1.374947 1.027991
C -3.067041 -1.440573 1.154824
C -2.911896 -1.456263 1.417463
C -2.825639 -1.346614 1.755172
C -3.515097 -1.890466 1.602424
C -3.314160 -1.869592 1.737473
C -3.231018 -1.696133 1.958669
C -3.112908 -1.493481 2.165244
C -2.903862 -1.229207 2.454836
C -2.639864 -0.813642 2.795143
C -2.407723 -0.473139 3.085160
C -2.225000 -0.220695 3.327732
C -2.124629 -0.000935 3.525589
C -1.963340 0.008362 3.573630
C -1.833736 -0.027478 3.527213
C -1.838868 -0.069319 3.562774
C -1.840904 -0.207440 3.471847
C -1.829996 -0.323677 3.428399
C -1.930385 -0.407661 3.429713
C -1.956568 -0.546450 3.349125
C -2.076970 -0.669898 3.217322
C -2.191405 -0.840826 3.157413
C -2.287327 -1.152249 2.842346
C -2.509976 -1.695380 2.335294
C -2.675447 -2.108625 1.846180
C -2.822211 -2.587846 1.258425
C -2.932629 -2.912498 0.906259
C -2.948672 -3.050934 0.649830
C -2.957810 -3.090327 0.484047
C -2.859789 -3.012648 0.500045
C -2.736492 -2.730919 0.859169
C -2.574100 -2.415172 1.326967
C -2.183693 -1.831199 1.944228
C -1.721686 -1.229353 2.513696
C -1.207676 -0.717703 3.136344
C -0.810269 -0.324089 3.654391
C -0.423229 0.150340 4.108558
C -0.118542 0.502840 4.335806
C 0.023101 0.508226 4.227896
C -0.055174 0.154394 4.067469
C -0.235434 -0.140282 3.866728
C -0.572660 -0.510620 3.655708
C -0.871135 -1.074294 3.186669
C -1.172747 -1.599427 2.854495
C -1.453061 -2.028816 2.656169
C -1.615037 -2.273610 2.526115
C -1.733505 -2.354789 2.572270
C -1.674478 -2.445383 2.668968
C -1.475365 -2.415189 2.769997
C -1.290199 -2.113751 3.213465
C -1.042684 -1.857768 3.516922
C -0.807479 -1.636053 3.755530
C -0.633811 -1.315830 4.091579
C -0.360431 -1.057873 4.258146
C -0.271045 -0.853468 4.373122
C -0.237911 -0.775472 4.392605
C -0.189510 -0.762482 4.241420
C -0.327031 -0.927625 3.893365
C -0.542213 -1.171059 3.432278
C -0.732368 -1.577709 3.017399
C -0.904642 -1.923424 2.689503
C -1.032206 -2.277215 2.394285
C -1.163206 -2.532397 2.239758
C -1.387309 -2.911566 1.982489
C -1.447231 -3.145869 1.987806
C -1.413220 -3.324944 2.058110
C -1.291366 -3.450413 2.111434
C -1.227374 -3.575576 2.191153
C -1.199881 -3.533723 2.299452
C -1.108893 -3.534109 2.429334
C -0.851934 -3.316768 2.635975
C -0.686215 -3.200367 2.625060
C -0.532060 -3.133330 2.658300
C -0.412799 -3.155379 2.585408
C -0.367032 -3.223256 2.400367
C -0.253861 -3.383675 2.236481
C -0.086633 -3.367825 2.206320
C 0.042609 -3.317781 2.311202
C 0.235961 -3.166001 2.538812
C 0.447266 -3.041903 2.687466
C 0.630583 -2.763205 2.904068
C 0.888114 -2.289891 3.200479
C 1.145843 -1.819539 3.436112
C 1.274747 -1.514054 3.504587
C 1.421415 -1.327942 3.559059
C 1.563583 -1.149126 3.553365
C 1.670972 -0.786991 3.600760
C 1.794433 -0.388847 3.672466
C 1.859823 -0.216741 3.725814
C 1.839591 -0.321754 3.569032
C 1.896623 -0.428235 3.443325
C 1.901823 -0.527188 3.314670
C 1.960097 -0.277315 3.343018
C 2.076346 -0.188423 3.383176
C 2.158908 -0.271989 3.305081
C 2.236156 -0.298156 3.258282
C 2.367102 -0.130127 3.374145
C 2.392543 -0.143145 3.421239
C 2.381869 -0.305645 3.297080
C 2.271939 -0.898849 3.084887
C 2.104831 -1.517499 2.874093
C 1.984820 -1.859506 2.789066
C 1.954224 -2.163666 2.663857
C 1.962357 -2.454809 2.562170
C 2.024538 -2.573834 2.496389
C 1.988671 -2.507105 2.469120
C 1.997340 -2.580935 2.497493
C 2.084908 -2.444676 2.515381
C 2.099394 -2.365160 2.456441
C 2.204259 -2.177144 2.457079
C 2.293113 -1.900630 2.456252
C 2.396207 -1.444571 2.436980
C 2.654838 -1.034889 2.520109
C 2.902286 -0.477837 2.556179
C 3.072898 -0.026956 2.578214
C 3.313185 0.170966 2.569652
C 3.412976 0.215040 2.499509
C 3.461113 -0.007059 2.388048
C 3.475268 -0.350468 2.275032
C 3.495243 -0.590654 2.238930
C 3.425191 -0.893659 2.091080
C 3.244939 -1.198402 1.930487
C 2.999604 -1.388689 1.729752
C 2.885687 -1.429836 1.666106
C 2.842207 -1.347113 1.597954
C 2.861114 -1.268150 1.553637
C 2.838177 -0.869805 1.548547
C 2.966842 -0.659699 1.545708
C 3.257208 -0.421454 1.592469
C 3.593289 -0.101105 1.732412
C 3.774435 0.163741 1.660084
C 3.870123 0.463574 1.672343
C 3.837038 0.662337 1.656146
C 3.906707 0.683454 1.484341
C 3.862273 0.902307 1.438774
C 3.830952 1.143053 1.453309
C 3.770192 0.708300 1.449520
C 3.654505 0.111514 1.461303
C 3.612037 -0.336647 1.388764
C 3.470501 -0.784204 1.338884
C 3.195392 -1.532154 1.326016
C 2.923749 -2.171456 1.223626
C 2.489843 -2.917487 1.018505
C 1.973425 -3.141026 0.799279
C 1.518890 -3.263898 0.568163
C 0.919656 -3.603308 0.379254
C 0.493283 -3.829440 0.183067
C 0.191187 -3.883075 0.008804
C 0.002270 -3.933756 -0.082698
C -0.049030 -3.967540 -0.210678
C -0.063582 -3.901751 -0.291296
C 0.014139 -3.914721 -0.349383
C 0.206714 -3.841785 -0.368355
C 0.379492 -3.894711 -0.371694
C 0.586697 -3.920435 -0.341820
C 0.751278 -3.952241 -0.400834
C 0.938078 -3.954251 -0.323750
C 1.166576 -4.031160 -0.311806
C 1.368575 -3.987593 -0.249242
C 1.600879 -3.858928 -0.209292
C 1.856973 -3.699972 -0.202683
C 2.111578 -3.498819 -0.225531
C 2.366258 -3.278522 -0.123212
C 2.630431 -3.026270 -0.069674
C 2.887655 -2.877936 0.011053
C 3.046163 -2.817579 0.005843
C 3.236420 -2.750683 -0.019291
C 3.521241 -2.126162 0.077470
C 3.670205 -2.008819 0.056500
C 3.722203 -1.885858 0.020381
C 3.795089 -1.699671 -0.038926
C 3.948231 -1.283471 -0.130138
C 4.143861 -0.782366 -0.163288
C 4.223752 -0.424635 -0.164127
C 4.226615 -0.566455 -0.254388
C 4.238051 -0.465560 -0.293242
C 4.281114 -0.364392 -0.329213
C 4.297293 -0.156045 -0.346368
C 4.271605 0.001554 -0.340473
C 4.230951 0.161003 -0.316817
C 4.228655 0.398159 -0.345099
C 4.133744 0.391461 -0.414144
C 3.994800 0.360590 -0.471858
C 3.930268 0.237008 -0.631195
C 3.811348 -0.155344 -0.823599
C 3.678864 -0.427291 -0.938173
C 3.626510 -0.691040 -1.103459
C 3.593323 -0.801679 -1.211383
C 3.646831 -0.535206 -1.267109
C 3.775357 -0.104157 -1.346862
C 3.847122 0.333490 -1.355815
C 3.923905 0.823748 -1.382526
C 4.008202 1.063189 -1.462766
C 4.021309 1.137783 -1.497554
C 3.996007 0.998370 -1.566014
C 3.900025 0.598871 -1.702352
C 3.715234 0.086813 -1.802797
C 3.442247 -0.386071 -1.788016
C 3.263920 -0.878575 -1.781906
C 3.158614 -1.250698 -1.812782
C 3.077886 -1.483823 -1.917620
C 3.017540 -1.680245 -2.013135
C 2.916703 -1.830945 -2.051254
C 2.770296 -1.958140 -2.053956
C 2.630428 -2.130519 -2.152099
C 2.296701 -2.310556 -2.169874
C 1.951089 -2.480680 -2.183073
C 1.520098 -2.684960 -2.145240
C 1.057091 -2.993199 -2.083621
C 0.728529 -3.208041 -2.087281
C 0.651854 -3.302293 -2.032293
C 0.749308 -3.337285 -2.007648
C 1.026489 -3.349030 -2.006029
C 1.261663 -3.237503 -2.034868
C 1.444589 -3.223596 -2.037638
C 1.695268 -3.051058 -2.102098
C 1.935199 -2.864394 -2.143376
C 2.033896 -2.686204 -2.222050
C 1.992070 -2.506409 -2.336397
C 2.051943 -2.171101 -2.505007
C 2.185014 -1.813413 -2.565561
C 2.428388 -1.438602 -2.642491
C 2.607315 -0.965616 -2.763287
C 2.735813 -0.705393 -2.862195
C 2.913797 -0.348766 -2.898747
C 3.146346 0.064302 -2.915001
C 3.236206 0.349898 -2.903091
C 3.180815 0.325012 -2.959944
C 3.066685 0.354404 -3.044236
C 2.972259 0.138670 -3.027097
C 2.901306 0.247729 -3.050062
C 2.827764 0.271861 -3.171243
C 2.717555 0.171834 -3.316310
C 2.557023 0.087615 -3.461317
C 2.384774 -0.161054 -3.507247
C 2.052252 -0.511131 -3.450359
C 1.677783 -0.750340 -3.452737
C 1.348741 -1.216730 -3.410673
C 0.925771 -1.733587 -3.352073
C 0.507786 -2.148862 -3.158548
C 0.047748 -2.737665 -2.937906
C -0.341437 -3.003008 -2.807872
C -0.349215 -2.985290 -2.909129
C -0.257558 -2.930974 -2.946134
C -0.186684 -2.836848 -3.054694
C -0.028830 -2.644899 -3.099253
C 0.156179 -2.560462 -3.308376
C 0.388200 -2.247427 -3.518981
C 0.558317 -1.872692 -3.790756
C 0.734752 -1.685520 -3.853467
C 0.736544 -1.595932 -3.919344
C 0.753653 -1.443280 -3.920668
C 0.737052 -1.308193 -4.014158
C 0.866989 -1.131481 -3.928996
C 1.001424 -0.882164 -3.929555
C 1.133503 -0.703943 -3.922285
C 1.098805 -0.538207 -3.966583
C 1.142191 -0.479293 -3.974743
C 1.191555 -0.455928 -3.917804
C 1.261374 -0.378667 -3.966156
C 1.220322 -0.327030 -4.079541
C 1.195642 -0.453772 -4.068898
C 1.010299 -0.618069 -4.016937
C 0.769641 -0.778706 -3.888109
C 0.516445 -0.834775 -3.866425
C 0.180632 -0.889579 -3.913882
C -0.303194 -1.125854 -3.734254
C -0.714768 -1.413759 -3.501483
C -1.172326 -1.699716 -3.321267
C -1.379347 -1.911256 -3.065177
C -1.528106 -2.167091 -2.967543
C -1.566427 -2.289521 -2.916541
C -1.526088 -2.358399 -2.834366
C -1.317842 -2.382035 -2.855253
C -1.298864 -2.310520 -3.013700
C -1.283469 -2.233893 -3.168564
C -1.278002 -2.188767 -3.290546
C -1.288293 -2.156201 -3.354837
C -1.385429 -2.139471 -3.349105
C -1.521915 -2.224969 -3.307904
C -1.663345 -2.301148 -3.243658
C -1.790685 -2.373422 -3.117774
C -1.847948 -2.354411 -3.037881
C -1.971425 -2.500267 -2.942568
C -2.120939 -2.534170 -2.862020
C -2.212201 -2.640009 -2.690222
C -2.416610 -2.656284 -2.594690
C -1.683141 -1.839330 -1.892354
C -1.587468 -1.730474 -1.743273
C -1.483746 -1.649350 -1.477380
C -1.262637 -1.284791 -1.241267
