118
chr19 3D structure from Hi-C (resolution 500000bp)
C -2.126131 1.688318 -2.030684
C -2.276781 1.693139 -2.006997
C -2.291325 1.720790 -1.902526
C -2.397489 1.600126 -1.806031
C -2.736471 1.365496 -1.743661
C -2.862650 1.179966 -1.605612
C -2.838342 1.026194 -1.423826
C -2.828603 0.887233 -1.224684
C -2.808029 0.713035 -1.006508
C -2.853565 0.594091 -0.877622
C -2.755602 0.691704 -0.735453
C -2.699872 0.823196 -0.535533
C -2.617075 0.938918 -0.337386
C -2.353187 0.991476 -0.195620
C -1.907337 1.091485 0.033656
C -1.433726 1.159758 0.265318
C -1.052869 1.094619 0.444521
C -0.915420 1.029241 0.455580
C -0.814508 1.006606 0.382216
C -0.743101 1.048008 0.411956
C -0.683732 1.155453 0.513629
C -0.829966 1.249493 0.552538
C -1.136857 1.274379 0.477469
C -1.356612 1.240620 0.522441
C -1.410396 1.132426 0.724589
C -1.489294 0.975924 0.946745
C -1.465232 0.709489 1.102752
C -1.674730 0.440220 1.220046
C -1.855625 0.129503 1.291210
C -1.996002 -0.097751 1.368183
C -2.128790 -0.212542 1.346627
C -2.268771 -0.344486 1.257780
C -2.331687 -0.443914 1.192375
C -2.472408 -0.414509 1.101547
C -2.459050 -0.435960 0.982191
C -2.316372 -0.379268 0.888275
C -1.887161 -0.254323 0.959214
C -1.347447 -0.069627 1.243201
C -0.643956 0.282166 1.655277
C -0.093144 0.483526 1.905621
C 0.545253 0.562212 2.216981
C 1.125801 0.740768 2.595783
C 1.534224 0.877189 2.816458
C 1.709587 0.875938 2.890261
C 1.794770 0.842640 2.792257
C 1.814401 0.773103 2.609370
C 1.916591 1.499604 2.547755
C 1.804595 2.377856 2.179844
C 1.699388 3.187733 1.460781
C 1.758299 3.873654 0.651777
C 2.024556 4.506697 -0.098386
C 2.372308 4.543527 -0.173057
C 2.424665 4.250207 -0.187699
C 2.600060 3.270206 -0.256440
C 2.873308 2.198146 -0.087536
C 2.971127 1.106729 0.392148
C 2.768591 0.073534 1.036057
C 2.462570 -0.879983 1.718209
C 2.185553 -1.268492 1.704181
C 2.170336 -1.381949 1.636728
C 2.132137 -1.502499 1.623489
C 1.935973 -1.611459 1.608812
C 1.742859 -1.727118 1.541602
C 1.667216 -1.828579 1.501638
C 1.600836 -1.925373 1.387188
C 1.337555 -2.045737 1.293337
C 1.109058 -2.053380 1.192469
C 0.662395 -2.018562 1.098144
C 0.373386 -1.964030 0.913665
C 0.365112 -1.772375 0.832565
C 0.548729 -1.461162 0.752136
C 0.682348 -1.186526 0.724076
C 0.760767 -0.910992 0.682426
C 0.596631 -0.960218 0.550661
C 0.473369 -1.030406 0.420190
C 0.335560 -1.160891 0.352503
C 0.069015 -1.352069 0.172635
C -0.336719 -1.581640 -0.013230
C -0.717630 -1.822969 -0.231327
C -1.000713 -2.042242 -0.428546
C -1.167566 -2.154113 -0.575779
C -1.066990 -2.122565 -0.667485
C -0.780392 -2.154360 -0.691402
C -0.450364 -2.180113 -0.677329
C -0.206751 -2.092239 -0.668458
C 0.059127 -1.921433 -0.649540
C 0.218431 -1.791588 -0.681118
C 0.260621 -1.592284 -0.767086
C 0.154346 -1.529100 -0.883635
C -0.051152 -1.467767 -1.075806
C -0.396884 -1.376238 -1.290413
C -0.687532 -1.402404 -1.550730
C -0.945515 -1.448652 -1.777511
C -1.120473 -1.382202 -1.955547
C -1.141294 -1.293337 -2.053274
C -1.083883 -1.194489 -2.162780
C -1.081030 -0.966461 -2.199522
C -0.905446 -0.814303 -2.165128
C -0.663759 -0.775892 -2.061437
C -0.480675 -0.702403 -1.905896
C -0.150990 -0.620093 -1.697211
C 0.264763 -0.509393 -1.467422
C 0.633683 -0.381060 -1.233045
C 1.080419 -0.318451 -0.994810
C 1.454500 -0.275553 -0.789829
C 2.096820 -0.073271 -0.957225
C 2.555462 0.244626 -1.577694
C 2.466587 0.270223 -1.770911
C 2.464258 0.174033 -1.766491
C 2.508968 0.035974 -1.705612
C 2.574598 0.047725 -1.632367
C 2.455824 0.126701 -1.631158
C 2.019600 0.201265 -1.290887
C 1.664945 0.109754 -0.585779
C 1.839482 0.282831 -0.814241
C 1.861719 0.415512 -0.843756
C 1.841345 0.615279 -0.941489
C 1.626238 0.720571 -1.223463
