118
chr19 3D structure from Hi-C (resolution 500000bp)
C -1.947729 2.187985 -1.129315
C -1.999339 2.284286 -1.037881
C -2.025916 2.298495 -0.922851
C -1.976287 2.374271 -0.876165
C -1.721244 2.759849 -0.764944
C -1.605808 2.873067 -0.615879
C -1.454474 2.835380 -0.489938
C -1.247344 2.785372 -0.405547
C -0.944637 2.779520 -0.296768
C -0.788305 2.806167 -0.181805
C -0.745249 2.747905 -0.048185
C -0.859184 2.638472 0.098117
C -0.903090 2.490261 0.160010
C -0.905782 2.223769 0.239796
C -0.967955 1.727727 0.430025
C -1.032254 1.243491 0.570148
C -0.932416 0.848100 0.609663
C -0.884589 0.663796 0.647537
C -0.821136 0.581295 0.640857
C -0.807212 0.535115 0.820517
C -0.886891 0.482500 0.970862
C -1.044913 0.594188 1.006630
C -1.123968 0.887608 1.009785
C -1.079610 1.106390 1.121478
C -0.929786 1.168126 1.274286
C -0.808331 1.166641 1.408455
C -0.527405 1.165494 1.447080
C -0.213294 1.341012 1.478283
C 0.163806 1.531479 1.568634
C 0.410939 1.680791 1.615816
C 0.483638 1.787282 1.626075
C 0.521107 1.930084 1.575267
C 0.574902 2.016279 1.542038
C 0.471056 2.135840 1.480199
C 0.393869 2.163402 1.401070
C 0.253093 2.056742 1.301649
C 0.118614 1.634117 1.340782
C 0.012151 1.084248 1.415631
C -0.165238 0.374975 1.649469
C -0.265735 -0.173074 1.730383
C -0.324340 -0.832324 1.931361
C -0.393604 -1.491478 2.152545
C -0.394548 -1.966167 2.262221
C -0.383198 -2.218345 2.249235
C -0.324906 -2.246719 2.250157
C -0.300544 -2.253951 2.090944
C -0.958970 -2.385074 2.220381
C -1.775649 -2.281975 2.071157
C -2.660349 -2.099391 1.638170
C -3.486157 -2.002126 1.025038
C -4.184286 -2.079407 0.411808
C -4.201354 -2.447345 0.222394
C -3.973122 -2.540377 0.059253
C -3.065852 -2.588398 -0.216178
C -1.992120 -2.762922 -0.261939
C -0.873077 -2.880398 -0.061000
C 0.197133 -2.744748 0.400983
C 1.214321 -2.523498 0.951811
C 1.488270 -2.225482 0.909813
C 1.650703 -2.137908 0.933096
C 1.778247 -2.144518 0.867770
C 1.863090 -1.993375 0.809331
C 1.957322 -1.783200 0.799190
C 2.049970 -1.701801 0.784428
C 2.126478 -1.658226 0.666141
C 2.209481 -1.386896 0.667657
C 2.130940 -1.161103 0.622783
C 2.028464 -0.716123 0.615246
C 1.908406 -0.387483 0.508382
C 1.705641 -0.401014 0.423027
C 1.418232 -0.567907 0.346089
C 1.156775 -0.655880 0.351786
C 0.934681 -0.722491 0.285557
C 0.986099 -0.541272 0.192764
C 1.070765 -0.420570 0.110480
C 1.213236 -0.314642 0.045185
C 1.347040 -0.004093 -0.052622
C 1.522421 0.393596 -0.139305
C 1.694263 0.806266 -0.333687
C 1.855633 1.098511 -0.457646
C 1.958230 1.218391 -0.624653
C 1.898243 1.173824 -0.738794
C 1.942000 0.915571 -0.814825
C 2.011815 0.594092 -0.882079
C 1.948225 0.394900 -0.954970
C 1.819048 0.102910 -0.939147
C 1.695906 -0.041533 -0.993470
C 1.498707 0.003944 -1.009479
C 1.423585 0.126676 -1.060129
C 1.273825 0.333718 -1.202257
C 1.081392 0.744223 -1.345004
C 1.009584 0.995389 -1.548773
C 1.023972 1.262827 -1.736809
C 0.946598 1.427873 -1.810336
C 0.818623 1.456048 -1.889303
C 0.696267 1.402720 -1.987270
C 0.496027 1.431562 -1.946885
C 0.412161 1.224122 -1.908401
C 0.417855 1.054736 -1.845886
C 0.342271 0.882777 -1.717216
C 0.321846 0.534759 -1.625523
C 0.251464 0.082197 -1.507700
C 0.181990 -0.316693 -1.377377
C 0.193466 -0.789109 -1.272308
C 0.193187 -1.184132 -1.181720
C -0.076957 -1.828694 -1.410422
C -0.506883 -2.189275 -1.995302
C -0.618006 -2.042775 -2.126053
C -0.555944 -2.018646 -2.090680
C -0.432360 -2.065133 -2.048883
C -0.370199 -2.155439 -2.006377
C -0.459779 -2.041625 -1.938957
C -0.377748 -1.704852 -1.532984
C -0.140557 -1.501424 -0.876274
C -0.267109 -1.550224 -1.122575
C -0.332632 -1.594226 -1.165774
C -0.493304 -1.571434 -1.244006
C -0.736262 -1.282595 -1.398702
