167
chr17 3D structure from Hi-C (resolution 500000bp)
C -1.964074 2.517311 1.546365
C -2.001250 2.254930 1.581548
C -1.991318 2.150658 1.429820
C -1.922825 2.189369 1.258683
C -1.951918 1.803928 1.299130
C -2.092789 1.691056 1.471947
C -2.157760 1.510717 1.345102
C -2.185182 1.544963 1.203333
C -2.077441 1.547333 0.937539
C -2.031108 1.509585 0.824298
C -2.052594 1.300055 0.879647
C -2.114737 1.255761 0.884383
C -2.052068 1.217131 0.806737
C -2.000278 1.154031 0.640800
C -1.980126 0.984383 0.414797
C -1.984484 0.931210 0.301737
C -1.959852 0.968943 0.106216
C -1.880142 1.098476 -0.175881
C -1.574738 1.297681 -0.608303
C -1.323026 1.553954 -1.176326
C -1.045159 1.732413 -1.573595
C -0.840739 1.772712 -1.807576
C -0.769576 1.823355 -2.008015
C -0.581744 1.831654 -2.145169
C -0.469169 1.842437 -2.326039
C -0.493578 1.685472 -2.378642
C -0.458006 1.513961 -2.425817
C -0.511892 1.482700 -2.462748
C -0.665913 1.522661 -2.530015
C -0.864211 1.444612 -2.450660
C -1.221093 1.280723 -2.358181
C -1.506244 1.010444 -2.150599
C -1.842379 0.867535 -1.913702
C -2.273382 0.715213 -1.586974
C -2.658207 0.596603 -1.353426
C -2.884373 0.565880 -1.173889
C -2.881266 0.517500 -1.241502
C -2.808669 0.469312 -1.449371
C -2.696409 0.502518 -1.730599
C -2.400486 0.553403 -2.017925
C -1.929256 0.750556 -2.432938
C -1.380659 0.917677 -2.748272
C -0.739742 1.146954 -2.965210
C -0.010748 1.636770 -2.716113
C 0.729962 2.117235 -2.203838
C 1.341373 2.602548 -1.622366
C 1.758996 3.072968 -1.086937
C 1.923773 3.456848 -0.496240
C 1.936604 3.845830 -0.010186
C 1.851890 4.116402 0.327019
C 1.567635 4.059170 0.072290
C 1.062372 3.560795 -0.242989
C 0.516380 2.995227 -0.630192
C -0.035104 2.248112 -0.965182
C -0.490582 1.404858 -1.022965
C -0.887898 0.481462 -1.053563
C -1.185713 -0.637400 -1.137571
C -1.587122 -1.591662 -0.910286
C -1.894278 -2.025070 -0.651240
C -2.100186 -2.346598 -0.421971
C -2.072608 -2.421380 -0.241266
C -2.012749 -2.495394 -0.313231
C -1.905285 -2.476451 -0.462707
C -1.792996 -2.216561 -0.574980
C -1.624785 -1.884269 -0.696988
C -1.415000 -1.663952 -0.928813
C -1.221455 -1.511501 -1.099665
C -1.216689 -1.544595 -1.227169
C -1.386567 -1.543807 -1.318071
C -1.317090 -0.715381 -0.875630
C -1.266806 0.017564 -0.267998
C -1.090539 0.721458 0.313512
C -0.794073 1.435865 0.938626
C -0.480066 2.110598 1.592325
C -0.587728 2.335397 2.195331
C -0.407594 2.434914 2.548612
C -0.500431 1.655055 2.527506
C -0.721576 0.929914 2.440028
C -1.184600 0.149019 2.274623
C -1.799763 -0.589571 1.985741
C -2.247017 -1.275268 1.754758
C -2.168810 -1.496039 1.598837
C -2.162887 -1.609279 1.633326
C -2.094123 -1.602334 1.540029
C -2.037321 -1.736155 1.485118
C -1.814465 -1.787837 1.568677
C -1.508839 -1.759983 1.863882
C -1.282527 -1.833500 2.008031
C -0.551006 -1.212178 2.018644
C 0.153197 -0.604604 2.085944
C 0.766413 -0.298673 2.288400
C 0.942608 -0.318807 2.299354
C 1.110009 -0.415441 2.209672
C 1.303218 -0.546993 1.975005
C 1.389891 -0.642947 1.736215
C 0.899036 -1.335158 1.512473
C 0.362111 -2.030116 1.282500
C -0.100167 -2.529019 0.927080
C -0.018733 -2.503164 0.656083
C 0.051059 -2.319893 0.288548
C 0.194219 -2.057123 -0.238371
C 0.460263 -1.655464 -0.795775
C 0.691530 -1.279474 -1.254062
C 1.003717 -0.831929 -1.826407
C 1.256870 -0.355758 -2.273210
C 1.514868 0.052607 -2.650249
C 1.624497 0.216855 -2.787471
C 1.592113 0.146198 -2.699439
C 1.483350 0.008285 -2.635418
C 1.460633 -0.179938 -2.658045
C 1.292388 -0.439870 -2.374292
C 1.137758 -0.768729 -2.094936
C 1.014651 -1.193688 -1.839694
C 0.980930 -1.524725 -1.554523
C 0.965622 -1.747675 -1.345455
C 0.927101 -1.996514 -0.981019
C 0.927888 -2.223314 -0.564359
C 1.053444 -2.521198 -0.410996
C 1.292273 -2.686739 -0.444893
C 1.410347 -2.674210 -0.492205
C 1.527127 -2.623006 -0.554556
C 1.810375 -2.520212 -0.607846
C 2.066321 -2.364203 -0.764612
C 2.267197 -2.193925 -1.008675
C 2.228540 -1.945544 -0.900322
C 2.207351 -1.827524 -0.600633
C 2.379998 -1.693575 -0.190795
C 2.458070 -1.541428 -0.093047
C 2.302820 -1.414412 -0.078293
C 2.287983 -1.287422 -0.025095
C 2.203388 -1.195782 0.097954
C 2.363402 -1.134397 0.096865
C 2.423795 -1.097879 0.081929
C 2.323413 -1.035756 -0.053168
C 2.333608 -0.921549 -0.168734
C 2.466871 -0.831292 -0.114972
C 2.415407 -0.676834 -0.169905
C 2.572765 -0.417148 -0.212695
C 2.608860 -0.171997 -0.498299
C 2.714838 0.168683 -0.757502
C 2.790055 0.377192 -0.968396
C 2.782291 0.453767 -0.947745
C 2.770821 0.535158 -0.917762
C 2.724534 0.502841 -0.751187
C 2.456497 0.371007 -0.664131
C 2.212941 0.265751 -0.457513
C 1.948925 0.098811 -0.060556
C 1.690978 -0.177605 0.442998
C 1.493432 -0.411820 0.931367
C 1.199056 -0.624333 1.346182
C 1.003824 -0.782271 1.676871
C 0.945763 -0.882264 2.086821
C 0.935342 -0.888321 2.484027
C 0.744039 -0.832312 2.591384
C 0.672032 -0.697575 2.553264
C 0.701411 -0.502334 2.448835
C 0.782624 -0.302863 2.397362
C 0.783765 -0.179799 2.466423
C 0.652503 -0.109357 2.517951
C 0.638427 -0.042882 2.610367
C 0.669449 0.010148 2.768726
C 0.588922 0.121484 2.941094
C 0.455028 0.230722 3.125321
C 0.541188 0.384592 3.318869
C 0.534848 0.454445 3.391932
C 0.629357 0.574109 3.481103
C 0.570322 0.687764 3.499980
