167
chr17 3D structure from Hi-C (resolution 500000bp)
C -1.582706 2.591384 1.615155
C -1.713268 2.343381 1.628622
C -1.599580 2.231114 1.548001
C -1.544290 2.295208 1.386018
C -1.681826 1.976319 1.309515
C -1.682814 1.982604 1.459339
C -1.624592 1.788877 1.424350
C -1.573805 1.777250 1.367304
C -1.415585 1.828906 1.128848
C -1.418467 1.840017 0.940114
C -1.479423 1.672456 0.926545
C -1.491260 1.590345 0.923105
C -1.649074 1.465626 0.781780
C -1.706710 1.453243 0.603682
C -1.691002 1.422037 0.337687
C -1.703628 1.300656 0.242779
C -1.693726 1.329426 0.071467
C -1.555480 1.387012 -0.144931
C -1.335206 1.620631 -0.541232
C -0.974724 1.765011 -1.011836
C -0.662973 1.886031 -1.400206
C -0.479793 1.874398 -1.646559
C -0.374530 1.992342 -1.850758
C -0.276751 1.962676 -2.005605
C -0.211023 1.949682 -2.200758
C -0.195264 1.750849 -2.276764
C -0.213711 1.654449 -2.267448
C -0.307833 1.586684 -2.303908
C -0.502815 1.680248 -2.339831
C -0.766308 1.595491 -2.206341
C -1.087249 1.528354 -1.991102
C -1.408571 1.402314 -1.715687
C -1.697246 1.273854 -1.543929
C -2.122077 1.095801 -1.278856
C -2.488795 0.934139 -1.007961
C -2.711070 0.760079 -0.918026
C -2.675230 0.656879 -1.077237
C -2.611246 0.575974 -1.356159
C -2.535807 0.542391 -1.631580
C -2.388282 0.666525 -1.771707
C -2.029747 0.796108 -2.170691
C -1.561809 1.040342 -2.534046
C -0.933830 1.340684 -2.640935
C -0.251062 1.781976 -2.403556
C 0.464479 2.163209 -1.964786
C 1.110823 2.562725 -1.483060
C 1.573552 2.917064 -1.004736
C 1.800191 3.299508 -0.357962
C 1.884441 3.618359 0.157036
C 1.843474 3.852220 0.483169
C 1.628175 3.775895 0.311333
C 1.109672 3.341725 0.080064
C 0.599188 2.829035 -0.245407
C 0.046368 2.167112 -0.559118
C -0.434408 1.492107 -0.649364
C -0.900922 0.731244 -0.610666
C -1.488928 -0.080770 -0.635405
C -2.088120 -0.789403 -0.450247
C -2.464710 -1.049140 -0.107491
C -2.776822 -1.226493 0.189954
C -2.747628 -1.246346 0.304192
C -2.701781 -1.356814 0.180937
C -2.604652 -1.388315 -0.021999
C -2.266530 -1.309709 -0.219165
C -1.981339 -1.134875 -0.314167
C -1.666037 -1.101701 -0.673484
C -1.413948 -1.089212 -0.976691
C -1.392172 -1.173256 -1.113342
C -1.422692 -1.288813 -1.219893
C -0.591754 -0.850669 -0.989728
C 0.083849 -0.494646 -0.564542
C 0.739611 -0.129460 -0.104739
C 1.339153 0.322425 0.485839
C 1.895385 0.826790 1.110112
C 1.778023 1.015796 1.689317
C 1.824397 1.146892 2.010351
C 1.025024 0.642642 2.032488
C 0.182333 0.116457 1.921333
C -0.580734 -0.578177 1.628528
C -1.220907 -1.197839 0.984990
C -1.832983 -1.843834 0.754759
C -1.732933 -2.069808 0.563069
C -1.770638 -2.058378 0.648391
C -1.746855 -1.963577 0.702382
C -1.659270 -1.818702 0.917681
C -1.620705 -1.543315 1.209821
C -1.582245 -1.483377 1.854577
C -1.517694 -1.367913 2.068731
C -1.154396 -0.638226 2.247644
C -0.669284 -0.026953 2.400084
C -0.062841 0.116590 2.626229
C 0.104386 -0.104591 2.529284
C 0.259555 -0.237370 2.457582
C 0.351312 -0.249470 2.165170
C 0.466413 -0.370414 1.929735
C 0.289735 -1.150187 1.656969
C 0.046035 -1.961254 1.339283
C -0.316589 -2.312682 1.035432
C -0.301466 -2.180246 0.833808
C -0.234436 -2.026103 0.465710
C -0.021724 -1.784539 0.071810
C 0.300814 -1.474055 -0.504375
C 0.561264 -1.197682 -0.997252
C 0.847616 -0.739539 -1.543547
C 1.057802 -0.347991 -2.109096
C 1.277305 -0.113092 -2.566952
C 1.433905 -0.010855 -2.740950
C 1.394132 -0.099878 -2.706927
C 1.248349 -0.189148 -2.639299
C 1.196777 -0.329998 -2.694336
C 1.034204 -0.610527 -2.466952
C 0.892138 -0.860124 -2.170270
C 0.753507 -1.183842 -1.903904
C 0.667021 -1.477580 -1.638308
C 0.644074 -1.707440 -1.430226
C 0.635201 -1.958030 -1.083632
C 0.571932 -2.174732 -0.642871
C 0.683846 -2.469562 -0.419199
C 0.771568 -2.690613 -0.408410
C 0.957028 -2.745672 -0.366392
C 1.035036 -2.728682 -0.452836
C 1.173584 -2.679595 -0.560440
C 1.347085 -2.624520 -0.739786
C 1.639856 -2.517933 -0.911413
C 1.609693 -2.305071 -0.873990
C 1.689342 -2.161296 -0.610909
C 1.840397 -2.077407 -0.350327
C 1.958293 -1.940142 -0.305557
C 1.958654 -1.718229 -0.258082
C 2.029021 -1.582091 -0.249221
C 1.892917 -1.454213 -0.238459
C 2.112845 -1.344053 -0.255225
C 2.186789 -1.297098 -0.355364
C 2.115618 -1.177074 -0.468746
C 2.136603 -1.059093 -0.496470
C 2.235472 -1.045907 -0.428748
C 2.235396 -0.893133 -0.448910
C 2.435167 -0.702198 -0.523159
C 2.416976 -0.453987 -0.781791
C 2.490112 -0.107115 -1.031896
C 2.556282 0.075448 -1.246961
C 2.580023 0.134210 -1.226281
C 2.643136 0.221005 -1.208869
C 2.564877 0.169510 -1.005828
C 2.332458 0.091827 -0.851327
C 2.133053 -0.083297 -0.593987
C 1.915711 -0.326142 -0.182550
C 1.635753 -0.576322 0.324708
C 1.404460 -0.740917 0.811945
C 1.085430 -0.886203 1.228117
C 0.897975 -0.951730 1.517796
C 0.801224 -1.033100 1.899410
C 0.831605 -1.045625 2.202650
C 0.720639 -0.993186 2.343669
C 0.670109 -0.822416 2.344561
C 0.743314 -0.701338 2.260430
C 0.811701 -0.572863 2.243233
C 0.802574 -0.460433 2.351260
C 0.672112 -0.360710 2.429248
C 0.542502 -0.262564 2.588127
C 0.491095 -0.129904 2.736457
C 0.392301 -0.016270 2.910195
C 0.239407 0.137715 3.073924
C 0.203332 0.378986 3.239679
C 0.166765 0.459532 3.306630
C 0.221845 0.592871 3.382757
C 0.171433 0.752521 3.375536
