268
chr10 3D structure from Hi-C (resolution 500000bp)
C -1.291473 2.825558 1.519310
C -1.002720 2.737657 1.674394
C -0.835833 2.687679 1.811938
C -0.853098 2.761167 1.736452
C -0.715889 2.766605 1.650502
C -0.531442 2.816164 1.646625
C -0.359019 2.824919 1.671485
C -0.385031 2.901808 1.636479
C -0.501152 2.983605 1.362630
C -0.600227 3.092951 1.077598
C -0.520978 3.108147 1.001227
C -0.421064 3.093332 0.872732
C -0.365629 3.106852 0.753183
C -0.338984 3.108330 0.703444
C -0.236701 3.108465 0.827763
C -0.162160 3.152544 1.124597
C 0.076062 3.071348 1.403362
C 0.270264 2.949443 1.666804
C 0.425597 2.924992 1.936550
C 0.443921 2.873268 1.888327
C 0.325522 2.970127 1.632178
C 0.129838 2.999697 1.158185
C 0.001082 2.991629 0.795670
C -0.265143 3.063376 0.373568
C -0.469562 3.196602 -0.118230
C -0.591934 3.194244 -0.484903
C -0.640931 3.187831 -0.654076
C -0.499598 3.142750 -0.606777
C -0.228968 3.190822 -0.306907
C 0.107386 3.212154 -0.084668
C 0.411823 3.185165 0.150690
C 0.639199 3.063396 0.395761
C 0.814445 3.088582 0.542346
C 1.067602 3.092897 0.781407
C 1.289919 3.028987 1.003124
C 1.505363 2.839399 1.089261
C 1.635439 2.682438 1.137713
C 1.779779 2.554736 1.191247
C 1.939125 2.590390 1.295886
C 2.046409 2.547502 1.278732
C 2.009082 2.648185 1.082328
C 2.025094 2.733061 0.784082
C 1.879478 2.816045 0.516679
C 1.910552 2.905585 0.269792
C 1.929526 2.898909 0.415214
C 1.973306 2.823462 0.353783
C 1.959696 2.777247 0.286410
C 2.118059 2.602401 0.484966
C 2.114231 2.424435 0.652944
C 2.141927 2.376673 0.585273
C 1.928302 2.376743 0.385250
C 1.739200 2.438033 -0.165050
C 1.794181 2.428412 -0.331676
C 1.923033 2.370745 -0.335860
C 1.920190 2.309384 -0.469776
C 1.995130 2.259380 -0.539655
C 1.983438 2.158063 -0.467285
C 2.074284 2.118351 -0.492621
C 2.071785 2.070539 -0.500859
C 1.791894 2.141948 -0.806484
C 1.561313 2.241535 -1.041165
C 1.508157 2.215514 -1.215634
C 1.555369 2.187271 -1.282303
C 1.754670 2.184443 -1.206006
C 1.974486 2.028318 -0.859507
C 2.270919 1.909409 -0.593003
C 2.443101 1.778103 -0.402738
C 2.679839 1.709091 -0.342159
C 2.889178 1.559616 0.063887
C 2.954224 1.477645 0.343637
C 3.003507 1.388644 0.537653
C 3.046782 1.287884 0.762343
C 3.009114 1.255826 0.990827
C 3.126863 1.079985 1.500896
C 3.163788 0.715680 2.227823
C 3.076812 0.613394 2.543390
C 2.831634 0.523971 2.973776
C 2.527691 0.390860 3.416455
C 2.309117 0.114968 3.701260
C 2.273610 -0.292290 3.956867
C 2.340636 -0.547458 3.973305
C 2.430649 -0.605690 3.745191
C 2.416650 -0.655005 3.431853
C 2.513565 -0.595126 2.562545
C 2.753967 -0.504882 1.640008
C 2.722587 -0.275741 1.011479
C 2.538051 0.091050 0.244240
C 2.268828 0.437798 -0.678252
C 1.903777 0.817274 -1.489686
C 1.687078 1.027178 -2.133547
C 1.510796 1.079234 -2.554189
C 1.197966 1.041173 -2.661803
C 0.507104 1.361969 -2.299798
C 0.350832 1.423314 -2.504694
C 0.133976 1.327493 -2.323426
C 0.107196 1.134069 -2.178407
C 0.061441 1.013710 -2.142440
C 0.130295 0.911336 -1.949813
C 0.415326 0.844780 -1.988758
C 1.341952 0.351547 -2.402436
C 1.684718 0.077015 -2.171636
C 2.070586 -0.100547 -1.942820
C 2.347614 -0.320022 -1.618142
C 2.660064 -0.501783 -1.309963
C 2.986777 -0.694724 -1.020966
C 3.134609 -0.816816 -0.757555
C 3.059282 -0.875105 -0.684682
C 3.125578 -0.989355 -0.466135
C 3.177317 -1.116958 -0.412717
C 3.156134 -1.150900 -0.371919
C 3.057599 -1.196955 -0.331372
C 2.882782 -1.253335 -0.179901
C 2.695677 -1.322734 -0.100324
C 2.658941 -1.328946 -0.437676
C 2.536353 -1.254159 -0.730182
C 2.366531 -1.202806 -0.992334
C 2.271891 -1.206933 -1.343630
C 2.247164 -1.293387 -1.602479
C 2.180967 -1.337184 -1.901036
C 2.237371 -1.435527 -2.154267
C 2.086291 -1.497210 -2.198669
C 1.910694 -1.555814 -2.272205
C 1.781056 -1.480748 -2.387737
C 1.592227 -1.443942 -2.430797
C 1.440364 -1.353074 -2.310634
C 1.457900 -1.512324 -2.172947
C 1.457299 -1.561858 -2.053026
C 1.630354 -1.725481 -1.764379
C 1.816274 -1.837128 -1.544994
C 1.966674 -2.006599 -1.180128
C 2.086076 -2.143717 -0.921418
C 2.232873 -2.352688 -0.919621
C 2.075974 -2.163091 -1.244707
C 1.704926 -1.919187 -1.558165
C 1.171482 -1.404935 -1.966726
C 0.635851 -0.984520 -2.279345
C 0.151184 -0.635346 -2.485658
C -0.338520 -0.240440 -2.716730
C -0.899132 0.263143 -2.785790
C -1.356160 0.630979 -2.615148
C -1.677146 0.899238 -2.419919
C -1.896094 1.008804 -2.312910
C -2.057954 1.234810 -2.212703
C -2.276391 1.464995 -2.258682
C -2.327161 1.614756 -2.319618
C -2.324202 1.732113 -2.506395
C -2.326961 1.725091 -2.673547
C -2.171219 1.508365 -2.750847
C -1.815401 0.912327 -2.738167
C -1.224575 0.184212 -2.250278
C -0.662027 -0.413015 -1.838129
C -0.374388 -1.019204 -1.613622
C -0.132915 -1.600043 -1.529290
C 0.064450 -2.110274 -1.262774
C 0.102641 -2.279829 -1.104666
C -0.033254 -2.040335 -0.931994
C -0.305135 -2.058507 -1.376712
C -0.538326 -2.018372 -1.657994
C -0.402628 -2.037238 -1.532431
C -0.224870 -2.074689 -1.128124
C 0.089728 -2.135731 -0.839246
C 0.328660 -2.318072 -0.665104
C 0.641268 -2.709439 -0.519390
C 0.805911 -2.687530 -0.280010
C 0.941570 -2.835744 -0.229042
C 0.849235 -2.833234 -0.305421
C 0.761979 -2.952891 -0.470584
C 0.534616 -2.863067 -0.621465
C 0.324079 -2.903264 -0.723252
C 0.019384 -2.804609 -0.937955
C -0.305518 -2.596332 -1.207410
C -0.691405 -2.417173 -1.580572
C -0.986310 -2.190936 -1.770635
C -1.333653 -1.775548 -2.100464
C -1.549357 -1.572287 -2.435012
C -1.745402 -1.302409 -2.708462
C -1.839530 -1.045390 -2.795587
C -1.840817 -1.139904 -2.786057
C -1.779280 -1.236708 -2.603790
C -1.824518 -1.401708 -2.595423
C -1.844992 -1.537108 -2.411060
C -2.009480 -1.474061 -2.320251
C -2.130042 -1.384741 -2.207008
C -2.203478 -1.422233 -2.072689
C -2.306160 -1.373273 -1.948083
C -2.427465 -1.307515 -1.788679
C -2.312664 -1.215793 -1.522375
C -2.283155 -1.186831 -1.350812
C -2.197608 -1.219882 -1.226200
C -2.214990 -1.223918 -1.140584
C -2.418565 -1.060375 -1.156741
C -2.555043 -0.812410 -1.164549
C -2.591292 -0.606895 -1.114990
C -2.758112 -0.506416 -1.076556
C -2.946381 -0.530623 -0.940157
C -2.988838 -0.629574 -0.725155
C -3.050212 -0.576198 -0.573799
C -3.076417 -0.437042 -0.488571
C -3.131715 -0.361540 -0.419496
C -3.186947 -0.272687 -0.410113
C -3.311548 0.026428 -0.483365
C -3.417429 0.444890 -0.563743
C -3.573077 0.811450 -0.650691
C -3.539323 0.954665 -0.716023
C -3.508315 0.873717 -0.578133
C -3.436787 0.505991 -0.442647
C -3.132941 0.151486 -0.176936
C -2.572952 -0.441266 0.276126
C -1.983499 -1.036276 0.569188
C -1.407129 -1.655824 0.893514
C -1.025593 -2.188708 1.159967
C -0.535331 -2.627111 1.307873
C -0.133565 -2.820195 1.435806
C 0.001063 -3.027765 1.388230
C -0.093464 -3.067845 1.185970
C -0.095744 -3.120501 1.218078
C -0.256486 -3.023059 1.124165
C -0.496829 -2.943539 0.966548
C -0.769747 -2.960291 0.831134
C -0.885719 -2.899575 0.778172
C -0.907183 -2.831657 0.984966
C -1.080782 -2.764372 0.976503
C -1.336756 -2.760609 0.860690
C -1.471852 -2.791478 0.914788
C -1.472039 -2.765930 1.010976
C -1.495435 -2.704727 1.135609
C -1.573219 -2.624697 1.194514
C -1.637393 -2.575966 1.138634
C -1.441908 -2.578897 1.295094
C -1.289533 -2.516270 1.448094
C -1.288277 -2.500399 1.558511
C -1.261944 -2.399927 1.625536
C -1.292763 -2.276246 1.648690
C -1.421681 -2.196712 1.694222
C -1.697211 -1.956018 1.651939
C -2.159619 -1.521455 1.500763
C -2.520082 -1.204000 1.305883
C -2.671750 -0.944462 1.232228
C -2.687480 -0.907916 1.293776
C -2.659326 -0.816586 1.420703
C -2.640007 -0.737835 1.502671
C -2.559869 -0.690723 1.496252
C -2.518197 -0.784037 1.635175
C -2.486358 -0.783056 1.662513
C -2.507665 -0.702106 1.651361
C -2.664420 -0.496685 1.693097
C -2.736134 -0.349573 1.548887
C -2.767670 -0.284527 1.649519
C -2.722288 -0.257222 1.774348
C -2.404362 -0.426235 1.895050
C -2.082035 -0.626813 2.244838
C -1.747152 -0.798268 2.500633
C -1.396243 -1.051466 2.637052
C -1.160463 -1.211852 2.854985
C -0.881897 -1.265925 2.955575
C -0.738213 -1.308242 3.102267
C -0.798869 -1.178258 3.211367
C -0.836314 -1.061086 3.102122
C -0.914832 -1.051451 3.083577
C -0.928052 -0.953561 3.212567
C -0.936398 -0.839743 3.334230
C -1.083825 -0.721043 3.281931
C -1.219361 -0.579627 3.283289
C -1.342145 -0.440146 3.244803
C -1.478728 -0.272787 3.392810
C -1.562178 -0.100381 3.398267
C -1.720336 0.055196 3.343635
C -1.872296 0.166100 3.315308
