268
chr10 3D structure from Hi-C (resolution 500000bp)
C -1.683737 2.291866 2.138007
C -1.431862 2.214811 2.223443
C -1.324328 2.276883 2.262526
C -1.336770 2.327904 2.265699
C -1.235339 2.387833 2.135343
C -1.164511 2.465181 2.019699
C -1.053922 2.510434 2.031114
C -1.008570 2.614292 2.089268
C -1.134626 2.737179 1.840480
C -1.218452 2.791898 1.550609
C -1.125321 2.894437 1.425936
C -1.031622 2.900509 1.310167
C -0.949781 2.974428 1.253561
C -0.763082 2.944540 1.237045
C -0.637548 2.943108 1.347514
C -0.440338 2.919767 1.690582
C -0.104069 2.845514 2.024592
C 0.080487 2.772296 2.207125
C 0.258063 2.725946 2.397262
C 0.287246 2.685085 2.288983
C 0.015710 2.836645 2.046486
C -0.275907 2.902535 1.581587
C -0.549638 2.976154 1.096585
C -0.940078 3.071608 0.682672
C -1.216503 3.086702 0.274031
C -1.375352 3.061533 0.087516
C -1.457211 3.046751 -0.101784
C -1.308680 3.018405 -0.112677
C -1.017508 3.032263 0.223037
C -0.624853 3.108189 0.505948
C -0.306208 3.138234 0.690284
C 0.006958 3.098494 0.923680
C 0.288951 3.204636 0.982352
C 0.636951 3.201452 1.271409
C 0.945533 3.152614 1.523595
C 1.169826 3.019867 1.563238
C 1.331270 2.846840 1.561450
C 1.516726 2.709413 1.656466
C 1.684201 2.709043 1.750690
C 1.719556 2.674854 1.704803
C 1.534066 2.838964 1.462833
C 1.534119 2.972233 1.129852
C 1.357997 3.088232 0.770440
C 1.265478 3.264130 0.560460
C 1.418424 3.381465 0.471611
C 1.320877 3.546431 0.175072
C 1.272990 3.554473 0.057745
C 1.624113 3.285974 0.298047
C 1.654172 3.077981 0.454162
C 1.675608 3.013049 0.472713
C 1.621492 2.938509 0.259554
C 1.229959 2.922919 -0.026178
C 1.322407 2.817875 -0.104567
C 1.389256 2.783755 -0.145499
C 1.266654 2.802048 -0.316159
C 1.206165 2.862610 -0.377704
C 1.185417 2.804650 -0.319187
C 1.021782 2.843862 -0.330643
C 1.030120 2.778168 -0.402553
C 0.769327 2.806809 -0.609224
C 0.606945 2.835386 -0.848614
C 0.412915 2.928432 -1.053657
C 0.536979 2.828815 -1.109064
C 0.823036 2.826106 -1.135222
C 1.251884 2.602911 -0.839418
C 1.581473 2.579167 -0.750963
C 1.824165 2.404729 -0.521980
C 2.218364 2.303921 -0.231758
C 2.654009 2.115994 0.037860
C 2.762927 2.036086 0.277404
C 2.828867 1.892544 0.524619
C 2.933043 1.785777 0.742119
C 2.989438 1.613330 1.126869
C 3.239276 1.397332 1.517721
C 3.278197 1.094187 2.011926
C 3.247276 0.909474 2.407358
C 2.968840 0.749885 2.888698
C 2.682411 0.581211 3.365901
C 2.471310 0.316281 3.695706
C 2.480421 -0.052033 3.987285
C 2.496949 -0.251260 4.082410
C 2.506863 -0.320823 3.915472
C 2.503043 -0.339999 3.561982
C 2.596414 -0.157620 2.660725
C 2.664584 0.077545 1.649566
C 2.551117 0.350993 0.822088
C 2.339729 0.722986 0.016514
C 2.000452 1.165752 -0.877116
C 1.541220 1.496126 -1.733413
C 1.243374 1.708002 -2.341238
C 1.130805 1.686184 -2.817445
C 0.993942 1.610981 -2.904154
C 0.198481 1.805529 -2.558372
C -0.014726 1.832209 -2.745402
C -0.230171 1.641230 -2.623675
C -0.243749 1.502176 -2.496534
C -0.254122 1.354509 -2.462736
C -0.219402 1.268153 -2.228776
C 0.026181 1.201023 -2.247715
C 1.056115 0.868738 -2.710064
C 1.389212 0.659497 -2.583491
C 1.777195 0.531470 -2.477824
C 2.167518 0.432094 -2.291404
C 2.487197 0.317395 -2.016461
C 2.859566 0.189756 -1.725915
C 3.077707 -0.012641 -1.391788
C 3.078436 -0.111502 -1.197228
C 3.239648 -0.119695 -1.052091
C 3.332898 -0.181058 -0.966046
C 3.326704 -0.304836 -0.855419
C 3.263355 -0.373533 -0.766408
C 3.118547 -0.494874 -0.721866
C 2.890542 -0.463475 -0.784856
C 2.923504 -0.477390 -0.947100
C 2.793789 -0.614578 -1.022742
C 2.667091 -0.686425 -1.154351
C 2.609342 -0.751622 -1.383232
C 2.631152 -0.834205 -1.641766
C 2.608889 -0.910304 -1.836543
C 2.801444 -1.032507 -1.956523
C 2.587780 -1.099987 -2.067258
C 2.435398 -1.067274 -2.139564
C 2.290242 -1.104304 -2.310408
C 2.089789 -1.047846 -2.392708
C 1.920543 -1.053264 -2.248836
C 2.003838 -1.135515 -1.991672
C 1.951506 -1.185031 -1.736131
C 2.158159 -1.346479 -1.403012
C 2.362279 -1.480088 -1.099928
C 2.603639 -1.530755 -0.658893
C 2.769760 -1.641793 -0.302911
C 2.991196 -1.738509 -0.060888
C 2.804991 -1.738493 -0.444645
C 2.327828 -1.539713 -0.879608
C 1.667860 -1.107042 -1.255634
C 1.045722 -0.762314 -1.668989
C 0.361514 -0.449161 -1.930856
C -0.274452 -0.100163 -2.204672
C -1.038380 0.255191 -2.542401
C -1.666022 0.713388 -2.402579
C -2.012717 0.861283 -2.315486
C -2.189197 0.957192 -2.298170
C -2.415360 1.097780 -2.283124
C -2.626201 1.238399 -2.359564
C -2.662783 1.343973 -2.448560
C -2.666131 1.396189 -2.656022
C -2.521437 1.340116 -2.915928
C -2.295580 1.190752 -3.014825
C -1.835130 0.609915 -2.994949
C -1.319201 -0.033795 -2.910561
C -0.759678 -0.509489 -2.874159
C -0.427209 -0.962508 -2.834546
C -0.173898 -1.367515 -2.824744
C -0.064291 -1.774998 -2.645044
C 0.025542 -1.961210 -2.459151
C -0.162717 -1.781085 -2.370586
C -0.232003 -1.692959 -2.441163
C -0.303052 -1.720488 -2.353747
C -0.093321 -1.895398 -2.135270
C 0.210945 -2.033066 -1.753174
C 0.555561 -2.159278 -1.493674
C 0.814945 -2.318781 -1.315879
C 1.147388 -2.612896 -1.224498
C 1.303301 -2.667888 -0.994662
C 1.420719 -2.780285 -0.962865
C 1.289986 -2.738726 -0.908194
C 1.152792 -2.854851 -0.969443
C 0.959076 -2.788437 -0.940794
C 0.756389 -2.827306 -1.081331
C 0.444989 -2.778498 -1.130123
C 0.059178 -2.629486 -1.359048
C -0.308840 -2.473542 -1.749912
C -0.624023 -2.253053 -1.998153
C -1.144649 -1.888767 -2.190825
C -1.528698 -1.646831 -2.493790
C -1.844659 -1.350369 -2.709078
C -1.990288 -1.193442 -2.784303
C -2.002547 -1.280719 -2.687359
C -2.021309 -1.439078 -2.392451
C -2.098059 -1.605910 -2.366670
C -1.955597 -1.662547 -2.324895
C -1.998423 -1.626367 -2.274977
C -2.092950 -1.695994 -2.165507
C -2.148156 -1.544459 -2.006753
C -2.250351 -1.441011 -1.914305
C -2.325838 -1.363173 -1.851680
C -2.213710 -1.395892 -1.632704
C -2.164892 -1.434460 -1.438454
C -2.134138 -1.537604 -1.315578
C -2.167273 -1.513575 -1.189793
C -2.418853 -1.501275 -1.238700
C -2.564827 -1.326183 -1.212344
C -2.673230 -1.173816 -1.109157
C -2.811506 -1.117069 -1.050589
C -2.989120 -1.154563 -0.963024
C -3.000572 -1.212159 -0.780218
C -3.027616 -1.074213 -0.668553
C -3.055475 -0.923006 -0.452963
C -3.099548 -0.894657 -0.302531
C -3.159229 -0.778213 -0.244719
C -3.389791 -0.521721 -0.216806
C -3.584658 -0.133989 -0.218776
C -3.786200 0.129893 -0.313375
C -3.823582 0.195960 -0.307762
C -3.713228 -0.022444 -0.360150
C -3.579484 -0.369064 -0.258275
C -3.116155 -0.689204 -0.016472
C -2.410605 -1.161746 0.248844
C -1.709276 -1.716807 0.428638
C -0.969923 -2.212015 0.797052
C -0.453004 -2.693886 1.015504
C 0.056538 -2.965003 1.102686
C 0.630274 -3.017631 1.183819
C 0.836062 -3.146563 1.158987
C 0.832290 -3.083169 1.085866
C 0.917132 -3.064058 1.188664
C 0.682034 -3.031578 0.998193
C 0.421655 -2.987875 0.868807
C 0.163985 -3.035804 0.828821
C -0.069826 -3.115392 0.812069
C -0.282464 -3.171720 0.855084
C -0.540051 -3.191737 0.767952
C -0.896707 -3.200691 0.679051
C -1.002054 -3.207124 0.802377
C -0.946579 -3.161173 0.899812
C -0.862844 -3.181853 1.002318
C -0.927258 -3.146213 0.914411
C -0.818908 -3.012782 0.942792
C -0.574822 -2.974344 1.152307
C -0.271473 -2.927406 1.284836
C -0.120449 -2.911891 1.437905
C -0.121213 -2.889230 1.520563
C -0.220339 -2.704350 1.637448
C -0.412687 -2.614164 1.802199
C -0.837391 -2.419636 1.851472
C -1.425322 -2.152741 1.746362
C -1.980883 -1.946088 1.589650
C -2.308288 -1.804270 1.510036
C -2.426915 -1.696787 1.540048
C -2.459079 -1.616442 1.591848
C -2.438389 -1.528087 1.591657
C -2.384893 -1.508464 1.534773
C -2.303557 -1.551869 1.623254
C -2.233140 -1.480911 1.588288
C -2.302402 -1.340338 1.528232
C -2.479353 -1.187957 1.564710
C -2.588322 -1.054702 1.435968
C -2.616829 -0.968295 1.587645
C -2.506568 -1.034243 1.695728
C -2.179355 -1.090852 1.821186
C -1.855528 -1.210472 2.222450
C -1.438351 -1.345604 2.510098
C -0.988050 -1.517248 2.683105
C -0.771928 -1.648773 2.893044
C -0.554299 -1.735978 2.942112
C -0.444002 -1.762536 3.075217
C -0.500790 -1.801484 3.154549
C -0.589389 -1.764467 3.055346
C -0.677530 -1.676814 3.093721
C -0.687642 -1.617721 3.197303
C -0.654007 -1.508907 3.316094
C -0.799118 -1.370789 3.302247
C -1.003065 -1.144491 3.347313
C -1.150050 -0.955617 3.393380
C -1.290675 -0.815191 3.542063
C -1.439129 -0.738603 3.521024
C -1.689275 -0.613686 3.476335
C -1.905465 -0.522609 3.497464
