268
chr10 3D structure from Hi-C (resolution 500000bp)
C -2.767548 1.643607 1.357759
C -2.996014 1.413073 1.094744
C -3.070546 1.320756 1.038138
C -3.101816 1.281936 1.173274
C -3.130940 1.212176 1.328566
C -3.299077 1.133663 1.339734
C -3.480863 1.026472 1.306658
C -3.541245 0.916433 1.349478
C -3.333392 1.014699 1.707728
C -3.188365 1.023272 2.026661
C -3.145893 0.955868 2.081820
C -3.063626 0.825981 2.139518
C -2.935073 0.658631 2.245891
C -2.857835 0.544696 2.327486
C -2.967121 0.413552 2.293155
C -3.223639 0.190556 2.119738
C -3.507690 -0.037805 1.770049
C -3.701114 -0.188012 1.491366
C -3.898376 -0.301557 1.277606
C -3.829723 -0.320553 1.269485
C -3.557266 -0.247417 1.483624
C -3.090899 -0.034563 1.837890
C -2.709065 0.162772 2.100193
C -2.317579 0.405589 2.430479
C -1.878374 0.573860 2.754425
C -1.610700 0.738687 2.975735
C -1.478912 0.831122 3.122921
C -1.566899 0.717728 2.966940
C -1.844524 0.457987 2.690345
C -2.117782 0.143482 2.433770
C -2.262902 -0.208932 2.319740
C -2.508829 -0.521761 2.230037
C -2.631489 -0.783498 2.115928
C -2.848771 -1.078674 1.870449
C -3.031574 -1.329938 1.762445
C -3.159862 -1.555734 1.595217
C -3.190845 -1.719415 1.476271
C -3.352368 -1.875865 1.241292
C -3.473834 -1.936921 1.069916
C -3.483020 -2.053930 1.023164
C -3.355343 -2.013247 1.225084
C -3.155813 -2.013080 1.369897
C -2.817890 -1.901316 1.706205
C -2.606403 -1.932089 1.886878
C -2.523582 -1.903641 1.964509
C -2.278438 -1.950710 2.093224
C -2.128934 -1.891673 2.159383
C -2.199138 -2.153773 1.856121
C -2.281314 -2.251354 1.603177
C -2.278244 -2.343654 1.511992
C -2.091797 -2.194626 1.665668
C -1.815295 -2.122913 2.015643
C -1.763131 -2.182309 1.948251
C -1.786414 -2.320016 1.831985
C -1.749701 -2.120390 1.859149
C -1.727949 -1.985813 1.866228
C -1.795699 -1.814732 1.735220
C -1.836972 -1.711599 1.643827
C -1.791316 -1.575051 1.625894
C -1.646673 -1.366926 1.915399
C -1.485171 -1.210160 2.163154
C -1.348120 -1.218450 2.308595
C -1.305676 -1.374989 2.300551
C -1.377875 -1.568789 2.149628
C -1.648141 -1.753839 1.775966
C -1.882523 -1.865053 1.304162
C -2.109065 -1.897095 0.910787
C -2.229039 -1.921936 0.637768
C -2.472717 -1.919948 0.246671
C -2.614775 -1.892343 -0.006335
C -2.771387 -1.909456 -0.184217
C -2.908119 -1.931910 -0.330124
C -3.072510 -1.996416 -0.489271
C -3.294105 -2.038316 -0.738721
C -3.743814 -2.067832 -1.291658
C -3.974112 -2.062172 -1.572859
C -4.310455 -1.525191 -1.951457
C -4.401765 -0.391122 -1.755003
C -4.444076 0.708250 -1.564211
C -4.631068 1.634774 -1.660941
C -4.684845 1.745733 -2.136808
C -4.454502 1.628964 -2.225520
C -4.053218 1.594023 -2.047986
C -3.411246 1.289430 -1.533731
C -2.993221 0.339537 -1.607326
C -2.556638 -0.565711 -1.703772
C -1.940266 -1.323864 -1.441387
C -1.202611 -1.629101 -0.371387
C -0.595430 -1.426492 0.612366
C -0.182457 -1.359732 1.268705
C 0.228505 -1.668474 1.836811
C 0.475677 -1.652143 2.059848
C 1.064790 -1.961328 2.892183
C 1.420764 -2.005887 3.295125
C 1.488475 -1.693490 3.195141
C 1.462121 -1.648719 2.925342
C 1.503090 -1.672826 2.726131
C 1.415158 -1.470850 2.456043
C 1.497828 -1.658987 2.439262
C 1.132007 -1.660291 1.725232
C 0.914577 -1.942269 1.309567
C 0.740523 -2.254930 0.905114
C 0.582586 -2.542324 0.575705
C 0.395207 -2.803732 0.245519
C 0.219346 -3.099654 -0.179782
C 0.053746 -3.240632 -0.549475
C -0.009736 -3.266779 -0.816334
C -0.044750 -3.279054 -1.053623
C -0.036819 -3.365694 -1.188778
C 0.081866 -3.472742 -1.191113
C 0.176512 -3.552704 -1.224223
C 0.244149 -3.524335 -1.283433
C 0.324245 -3.484817 -1.292911
C 0.497587 -3.381310 -1.076373
C 0.662796 -3.327917 -0.915206
C 0.827586 -3.183388 -0.665789
C 0.907191 -3.037995 -0.556471
C 1.024936 -2.849983 -0.436378
C 1.149854 -2.709824 -0.309075
C 1.301963 -2.675021 -0.203356
C 1.448190 -2.659519 -0.128767
C 1.588200 -2.540751 0.034165
C 1.687259 -2.405589 0.142065
C 1.833233 -2.254366 0.300634
C 1.829091 -2.163959 0.273535
C 1.684774 -2.137093 0.035282
C 1.647265 -2.173932 -0.169244
C 1.563018 -2.255790 -0.493231
C 1.554798 -2.322869 -0.664186
C 1.526317 -2.485118 -1.024978
C 1.352471 -2.624490 -1.480787
C 1.289530 -2.729608 -1.741879
C 1.522278 -2.618323 -1.403539
C 1.660837 -2.280819 -0.866695
C 1.704297 -1.770304 -0.209314
C 1.635524 -1.274715 0.206324
C 1.538657 -0.693946 0.677528
C 1.602130 -0.132824 1.259324
C 1.622973 0.510602 1.833697
C 1.529258 1.007493 2.089324
C 1.472316 1.366997 2.262497
C 1.492936 1.539817 2.323903
C 1.569094 1.635778 2.397980
C 1.659848 1.683346 2.582121
C 1.808804 1.685824 2.702397
C 1.994955 1.572552 2.754381
C 2.140305 1.426430 2.869396
C 2.158435 1.211528 2.628326
C 2.002264 0.955006 2.123681
C 1.782157 0.665094 1.481404
C 1.663671 0.362889 0.845607
C 1.495036 0.150493 0.354400
C 1.544891 -0.056956 0.061534
C 1.389074 -0.083623 -0.341307
C 1.352530 -0.053755 -0.479614
C 1.521676 0.030725 -0.316776
C 1.941226 -0.048729 -0.138320
C 2.086636 -0.020127 0.035444
C 2.135809 -0.138480 -0.092912
C 1.940591 -0.308975 -0.479807
C 1.912665 -0.624520 -0.928850
C 1.833710 -0.897207 -1.377459
C 1.829124 -1.185947 -1.799552
C 1.658433 -1.242621 -2.044518
C 1.688274 -1.350808 -2.227065
C 1.752420 -1.291140 -2.157900
C 1.856924 -1.185970 -2.088172
C 1.967408 -1.061771 -1.978750
C 2.153875 -0.922992 -1.743672
C 2.175573 -0.697820 -1.475758
C 2.246495 -0.414100 -1.036043
C 2.582076 -0.052731 -0.633026
C 2.771683 0.119941 -0.266587
C 2.924113 0.374596 0.211409
C 3.142010 0.537354 0.767413
C 3.249224 0.655635 1.152421
C 3.442508 0.643855 1.280063
C 3.572189 0.568084 1.052307
C 3.437822 0.428000 0.837729
C 3.447492 0.476592 0.576210
C 3.491071 0.465541 0.356484
C 3.472194 0.627745 0.324195
C 3.478622 0.819335 0.286041
C 3.412202 1.028859 0.267346
C 3.267647 1.171408 0.326426
C 3.144819 1.277472 0.302402
C 3.063063 1.183652 0.173927
C 2.945170 1.185299 0.084592
C 2.898056 1.197718 -0.015505
C 2.825878 1.256116 -0.032502
C 2.776372 1.376856 0.084346
C 2.719658 1.594026 0.308484
C 2.584344 1.769824 0.418758
C 2.480564 1.993981 0.517333
C 2.466558 2.033323 0.328482
C 2.396346 1.994523 0.051039
C 2.271884 2.053120 0.005521
C 2.106625 2.136301 0.033877
C 2.011758 2.223266 -0.025086
C 2.013614 2.350841 0.082811
C 2.017541 2.540109 0.345643
C 1.899144 2.896335 0.882775
C 1.799603 3.194122 1.316963
C 1.772939 3.341787 1.415937
C 1.742706 3.289517 1.307575
C 1.664285 3.095101 1.137482
C 1.507779 2.761025 0.663524
C 1.277279 2.318508 -0.014379
C 1.114123 1.791756 -0.776133
C 0.965958 1.291911 -1.552723
C 0.899323 0.804817 -2.125473
C 0.980793 0.431118 -2.666137
C 1.153851 0.257552 -3.044230
C 1.388001 0.169460 -3.181177
C 1.541509 0.161941 -3.182541
C 1.588531 0.212781 -3.254291
C 1.755877 0.309732 -3.103400
C 1.905042 0.626719 -2.844745
C 1.986015 0.947851 -2.540586
C 1.898934 1.032382 -2.473221
C 1.755538 1.124074 -2.507001
C 1.767831 1.310798 -2.375771
C 1.817948 1.502702 -2.149928
C 1.718381 1.653026 -2.112041
C 1.654911 1.622271 -2.207715
C 1.553255 1.577327 -2.283797
C 1.544763 1.639128 -2.213331
C 1.510858 1.572025 -2.249648
C 1.324535 1.442996 -2.457682
C 1.211115 1.340189 -2.598077
C 1.194984 1.333656 -2.686973
C 1.044876 1.260690 -2.737658
C 0.933078 1.305548 -2.773662
C 0.890765 1.441869 -2.782164
C 0.884173 1.753534 -2.450018
C 0.952809 2.122342 -1.913743
C 1.035768 2.446158 -1.497362
C 1.028476 2.624248 -1.294576
C 1.022269 2.793760 -1.304202
C 0.951671 2.860032 -1.342902
C 0.856617 2.908628 -1.234692
C 0.797221 2.947807 -1.275670
C 0.716216 2.941535 -1.463686
C 0.610912 2.998410 -1.488628
C 0.564233 3.089940 -1.367752
C 0.550034 3.178230 -1.134823
C 0.579097 3.236081 -0.888319
C 0.487466 3.198399 -0.943387
C 0.389858 3.091239 -0.989519
C 0.233940 2.907528 -1.239989
C 0.006016 2.633523 -1.658568
C -0.213907 2.330093 -2.092015
C -0.365856 2.029018 -2.496132
C -0.499097 1.868520 -2.786801
C -0.567162 1.743893 -3.003844
C -0.704016 1.738705 -3.180015
C -0.707610 1.791685 -3.196273
C -0.674965 1.870653 -3.117609
C -0.744840 1.911808 -3.130181
C -0.811334 2.001716 -3.196068
C -0.921485 2.119903 -3.220565
C -0.947000 2.309742 -3.083785
C -0.940024 2.478221 -2.908184
C -0.984223 2.669904 -2.685224
C -1.146774 2.993833 -2.668881
C -1.108981 3.216604 -2.460334
C -1.132667 3.459706 -2.221179
C -1.152528 3.625760 -2.123141
