268
chr10 3D structure from Hi-C (resolution 500000bp)
C 0.910658 2.977398 0.985690
C 0.632067 3.079958 0.867107
C 0.535974 3.118544 0.779101
C 0.617956 3.152716 0.756021
C 0.769738 3.173760 0.664868
C 0.742821 3.347972 0.564108
C 0.752194 3.428085 0.480222
C 0.805467 3.492430 0.385904
C 1.219937 3.388361 0.379055
C 1.580596 3.307588 0.375416
C 1.673553 3.283874 0.272763
C 1.672195 3.207545 0.180739
C 1.708883 3.124950 0.019577
C 1.685287 3.070917 -0.108544
C 1.494058 3.158855 -0.229264
C 1.226822 3.368066 -0.414922
C 0.793100 3.584041 -0.600796
C 0.519410 3.719550 -0.736397
C 0.216413 3.859094 -0.818810
C 0.209498 3.749159 -0.799636
C 0.560960 3.576031 -0.710392
C 1.089664 3.250182 -0.601909
C 1.399965 2.938939 -0.420439
C 1.835385 2.635858 -0.251290
C 2.208063 2.300889 -0.137502
C 2.557380 2.085958 -0.059304
C 2.740610 2.010858 -0.016400
C 2.507746 2.063318 -0.091552
C 2.127207 2.246120 -0.290279
C 1.850065 2.405779 -0.563300
C 1.651544 2.467487 -0.867723
C 1.446346 2.653443 -1.043823
C 1.296009 2.752084 -1.283541
C 1.011576 2.876457 -1.516577
C 0.839151 2.979516 -1.783669
C 0.634576 3.050622 -1.954950
C 0.478286 3.051505 -2.095424
C 0.205155 3.181117 -2.112850
C -0.006125 3.225680 -2.246999
C -0.092687 3.217288 -2.385706
C 0.105132 3.130361 -2.408182
C 0.309364 2.955641 -2.474718
C 0.678813 2.708812 -2.431762
C 0.864141 2.583192 -2.456043
C 0.863071 2.472724 -2.574501
C 0.998903 2.289351 -2.569849
C 1.083502 2.138763 -2.512712
C 0.765034 2.190115 -2.612373
C 0.512096 2.197608 -2.605991
C 0.392329 2.159306 -2.634902
C 0.588433 2.034108 -2.541737
C 1.083060 1.895165 -2.478100
C 1.099401 1.832430 -2.545753
C 0.975200 1.869988 -2.590601
C 1.004232 1.802160 -2.437742
C 1.015630 1.789943 -2.286581
C 0.925050 1.850063 -2.140943
C 0.845020 1.876368 -2.039723
C 0.838165 1.833335 -1.896270
C 1.146832 1.796621 -1.714406
C 1.478488 1.732291 -1.566026
C 1.714045 1.637763 -1.633152
C 1.645165 1.636422 -1.699241
C 1.452577 1.695465 -1.736742
C 1.027861 1.785677 -1.860585
C 0.558028 1.849251 -2.008713
C 0.124659 1.965874 -1.957329
C -0.177486 2.004214 -1.869699
C -0.671657 2.147866 -1.785526
C -0.869172 2.233211 -1.822822
C -1.034930 2.322065 -1.890503
C -1.244062 2.387360 -1.928663
C -1.477909 2.498423 -1.869874
C -1.740173 2.572263 -1.999694
C -2.347228 2.798782 -2.126186
C -2.606139 2.958572 -2.125697
C -2.929460 3.230442 -1.607702
C -2.606461 3.466860 -0.632895
C -2.253535 3.757624 0.392976
C -2.228975 4.085966 1.240782
C -2.659314 4.093801 1.391463
C -2.710457 3.903647 1.397728
C -2.445811 3.572627 1.450626
C -1.875563 3.077854 1.169855
C -2.005178 2.534382 0.370636
C -2.061687 1.953145 -0.553333
C -1.759398 1.300817 -1.297761
C -0.723685 0.803966 -1.667147
C 0.302866 0.387624 -1.688226
C 0.869209 0.080121 -1.876209
C 1.323402 -0.393290 -2.322036
C 1.597235 -0.554227 -2.349087
C 2.298774 -0.911971 -2.657369
C 2.678696 -1.117440 -2.677154
C 2.673079 -1.113915 -2.260240
C 2.421661 -1.063929 -2.100010
C 2.374978 -1.078600 -1.954740
C 2.248593 -0.917198 -1.652301
C 2.183188 -0.973800 -1.824564
C 1.369651 -0.769204 -1.664080
C 0.932847 -0.711884 -1.885364
C 0.406088 -0.648873 -2.158338
C 0.001788 -0.620719 -2.369145
C -0.459147 -0.540570 -2.584787
C -1.030177 -0.475309 -2.740154
C -1.436366 -0.456002 -2.788578
C -1.422788 -0.527434 -2.817833
C -1.579724 -0.606564 -2.834487
C -1.619832 -0.722466 -2.909464
C -1.530947 -0.835928 -3.012364
C -1.529543 -0.923205 -3.033266
C -1.462738 -1.086140 -3.026622
C -1.366016 -1.187016 -3.035291
C -1.208529 -1.220411 -2.912522
C -1.098447 -1.255369 -2.823602
C -0.803993 -1.347674 -2.712802
C -0.682992 -1.385932 -2.563269
C -0.530588 -1.484304 -2.431974
C -0.368954 -1.491935 -2.345070
C -0.214688 -1.591589 -2.301772
C -0.168605 -1.695417 -2.301202
C 0.032029 -1.753727 -2.207924
C 0.165601 -1.775758 -2.065785
C 0.336168 -1.857010 -2.000221
C 0.338016 -1.877541 -1.915176
C 0.138746 -1.830252 -1.869534
C -0.124905 -1.790776 -1.818727
C -0.522484 -1.745853 -1.821597
C -0.730652 -1.821804 -1.870520
C -1.252552 -1.758619 -1.953951
C -1.737068 -1.678192 -1.990369
C -1.976138 -1.641808 -1.998726
C -1.666403 -1.732690 -1.918107
C -1.128439 -1.737990 -1.750481
C -0.400684 -1.764153 -1.473882
C 0.064610 -1.578126 -1.109842
C 0.694769 -1.475483 -0.674623
C 1.376404 -1.402674 -0.270962
C 1.995330 -1.262177 0.135041
C 2.324483 -1.036275 0.504341
C 2.559142 -0.935844 0.781722
C 2.712944 -0.821945 0.899525
C 2.824757 -0.834145 0.933446
C 3.065407 -0.930950 0.939339
C 3.210263 -1.028829 0.915776
C 3.294587 -1.151539 0.836122
C 3.362023 -1.302180 0.727210
C 3.148202 -1.365803 0.633724
C 2.603647 -1.390248 0.593684
C 1.941770 -1.331883 0.536050
C 1.240737 -1.345358 0.334871
C 0.717643 -1.313766 0.243062
C 0.383646 -1.527803 0.149649
C -0.021397 -1.600962 0.150784
C -0.223793 -1.575051 0.225364
C -0.054263 -1.656841 0.253399
C 0.143152 -2.107244 0.163200
C 0.325842 -2.225106 0.206224
C 0.167854 -2.363202 0.093821
C -0.230262 -2.262998 -0.020101
C -0.729351 -2.169489 -0.199078
C -1.110149 -2.284555 -0.445385
C -1.491400 -2.389327 -0.606281
C -1.720985 -2.229713 -0.649892
C -1.848887 -2.256688 -0.709656
C -1.745844 -2.240516 -0.629115
C -1.690363 -2.238418 -0.509025
C -1.496093 -2.345055 -0.409110
C -1.273845 -2.374697 -0.259538
C -0.974855 -2.268985 -0.093734
C -0.537094 -2.216593 0.097930
C -0.045727 -2.437603 0.280256
C 0.358036 -2.475852 0.400149
C 0.919992 -2.510071 0.497905
C 1.493619 -2.589058 0.624873
C 1.904607 -2.682553 0.639815
C 2.069858 -2.835613 0.610774
C 1.855527 -2.983012 0.561507
C 1.565482 -2.865862 0.530466
C 1.413372 -2.925985 0.547648
C 1.228205 -2.997656 0.582431
C 1.217255 -2.979851 0.678404
C 1.205465 -2.925944 0.854857
C 1.124541 -2.849114 1.036193
C 1.215808 -2.665432 1.215735
C 1.207626 -2.587350 1.357395
C 0.965839 -2.585989 1.398618
C 0.917194 -2.523060 1.523158
C 0.799832 -2.506339 1.581031
C 0.739907 -2.482720 1.659231
C 0.956006 -2.417711 1.754394
C 1.132825 -2.348461 1.895519
C 1.239142 -2.180086 2.022943
C 1.400690 -1.878688 2.180181
C 1.225966 -1.471384 2.261695
C 1.055046 -1.230511 2.293153
C 1.071843 -1.015341 2.316869
C 1.025926 -0.904551 2.360176
C 1.022395 -0.781704 2.427727
C 1.144933 -0.674124 2.526642
C 1.398110 -0.691979 2.620182
C 1.898110 -0.899671 2.723115
C 2.276191 -0.915521 2.819957
C 2.372606 -0.913691 2.920154
C 2.245103 -0.878693 2.921027
C 2.001032 -0.904921 2.766135
C 1.460320 -0.937968 2.495378
C 0.703187 -1.001125 2.224946
C -0.117516 -0.970785 1.924347
C -0.939714 -1.041986 1.633906
C -1.535842 -1.187843 1.348955
C -2.047196 -1.397546 1.103214
C -2.374820 -1.637308 0.996797
C -2.520573 -1.810253 0.955160
C -2.566075 -1.890679 0.939434
C -2.663245 -1.961266 0.945310
C -2.543032 -2.054224 1.014988
C -2.294434 -2.123618 1.190582
C -1.979865 -2.097731 1.425019
C -1.941271 -1.995948 1.550238
C -1.863115 -1.932276 1.677886
C -1.623625 -1.928594 1.824140
C -1.333916 -1.948064 1.948631
C -1.265392 -1.883484 2.076099
C -1.356714 -1.781904 2.057234
C -1.433496 -1.772296 2.014353
C -1.351748 -1.793546 2.001747
C -1.425097 -1.836019 1.939243
C -1.711201 -1.724832 1.800552
C -1.936957 -1.682818 1.777741
C -2.013237 -1.632089 1.751527
C -2.088848 -1.583988 1.785621
C -2.167653 -1.484476 1.868426
C -2.147893 -1.351873 1.979266
C -1.800142 -1.191256 2.186412
C -1.228569 -1.195840 2.494487
C -0.751644 -1.149635 2.707180
C -0.586354 -1.041320 2.866835
C -0.558760 -0.973181 2.955986
C -0.569758 -0.825645 2.953823
C -0.505638 -0.714239 2.998803
C -0.568005 -0.655731 3.041030
C -0.707212 -0.509604 2.990325
C -0.694997 -0.413541 3.025692
C -0.533190 -0.342807 3.071871
C -0.310031 -0.234731 3.103639
C -0.096259 -0.317185 3.192851
C -0.214177 -0.270127 3.169543
C -0.303793 -0.213657 3.094415
C -0.665175 -0.153222 2.950318
C -1.219382 -0.084262 2.796320
C -1.757692 -0.052187 2.529668
C -2.248483 -0.062601 2.369927
C -2.549525 0.089778 2.232095
C -2.690926 0.110596 2.195012
C -2.871434 0.149836 2.113583
C -2.815165 0.173900 2.208163
C -2.697005 0.251353 2.242018
C -2.657137 0.324768 2.363928
C -2.693338 0.451687 2.426890
C -2.715320 0.497246 2.551717
C -2.629243 0.554858 2.633147
C -2.410854 0.671153 2.822100
C -2.198207 0.726903 3.004168
C -2.253348 0.922042 3.223548
C -2.057066 0.954753 3.365435
C -1.807530 0.990146 3.538094
C -1.743859 1.094154 3.606060
