129
chr20 3D structure from Hi-C (resolution 500000bp)
C 0.343937 2.660706 0.781205
C 0.252425 2.574082 0.895549
C 0.238715 2.602253 0.994324
C 0.144538 2.615160 1.099041
C -0.008094 2.556266 1.283521
C -0.213200 2.444167 1.271717
C -0.352474 2.399693 1.261850
C -0.468987 2.326784 1.090382
C -0.568042 2.385587 0.908693
C -0.783177 2.288779 0.552399
C -0.863006 2.264706 0.033190
C -0.976391 2.251673 -0.483631
C -1.081387 2.401003 -0.864788
C -1.224581 2.503545 -1.155092
C -1.306668 2.522948 -1.392726
C -1.454667 2.413995 -1.666672
C -1.554687 2.358879 -1.829386
C -1.629656 2.187211 -1.762963
C -1.717798 2.075250 -1.658818
C -1.669441 1.823094 -1.628575
C -1.686971 1.539407 -1.835689
C -1.826515 1.393564 -2.023598
C -1.940747 1.226601 -2.150690
C -2.001125 1.141291 -2.057248
C -2.155544 1.157812 -1.932255
C -2.394583 1.096798 -1.923257
C -2.618946 1.135894 -1.683443
C -2.789389 1.214635 -1.361743
C -2.903071 1.187717 -1.045134
C -2.893284 1.176461 -0.789687
C -2.885058 1.106101 -0.654377
C -2.883534 0.887629 -0.663944
C -2.780848 0.871406 -0.298418
C -2.647808 0.790614 -0.185638
C -2.535634 0.716123 0.018416
C -2.488686 0.691234 0.169487
C -2.476669 0.691153 0.401405
C -2.526940 0.637181 0.615969
C -2.633352 0.601128 0.749361
C -2.639525 0.387299 0.555976
C -2.644368 0.177925 0.254262
C -2.588510 -0.075728 -0.167369
C -2.591754 -0.275219 -0.407089
C -2.474249 -0.431331 -0.558879
C -2.225924 -0.514813 -0.870405
C -1.923670 -0.546608 -1.119942
C -1.787103 -0.752670 -1.435774
C -1.450893 -0.557826 -1.560195
C -1.176170 -0.353940 -1.749792
C -0.772172 -0.064500 -2.219051
C -0.087271 0.580054 -2.641842
C 0.614716 1.200017 -2.844691
C 1.444690 1.695488 -3.046181
C 2.388483 2.149801 -3.242913
C 2.662201 1.956745 -3.526312
C 2.881667 1.720031 -3.647347
C 3.028444 1.375861 -3.551202
C 2.666535 0.578898 -3.711004
C 2.155387 -0.274444 -3.892867
C 1.627601 -0.826533 -3.874379
C 1.226417 -0.974366 -3.423524
C 1.223308 -0.714613 -2.650837
C 1.282895 -0.436594 -1.884666
C 1.414923 -0.090494 -1.080707
C 1.729458 0.426964 -0.204633
C 2.099269 1.042235 0.649512
C 2.378571 1.493845 1.437276
C 2.389589 1.648221 1.960659
C 2.404519 1.708984 2.331243
C 2.371945 1.751049 2.646047
C 2.264837 1.799007 2.957081
C 2.034289 1.615813 3.228672
C 1.716262 1.368247 3.348919
C 1.357770 1.109326 3.382198
C 1.044542 0.853246 3.275524
C 0.554871 0.474920 2.987535
C 0.126245 0.082878 2.758119
C -0.305937 -0.389438 2.386188
C -0.648262 -0.741625 2.091708
C -0.971671 -1.077673 2.110895
C -1.168197 -1.396423 1.965847
C -1.265882 -1.688920 1.767400
C -1.296683 -1.917012 1.663693
C -1.193832 -1.943050 1.596869
C -1.000057 -1.811296 1.795362
C -0.824228 -1.749617 1.914037
C -0.582153 -1.640972 1.940564
C -0.323762 -1.532993 2.038805
C -0.089655 -1.310214 2.176967
C 0.211681 -1.073497 2.494185
C 0.533649 -1.041710 2.572845
C 0.724482 -1.133816 2.573528
C 0.948847 -1.156429 2.675501
C 1.126636 -1.249138 2.552758
C 1.270329 -1.208920 2.558201
C 1.572072 -1.337636 2.622271
C 1.786713 -1.390389 2.542320
C 1.881072 -1.313329 2.517082
C 1.883485 -1.341225 2.353050
C 1.718900 -1.482700 2.043956
C 1.536787 -1.500429 1.741478
C 1.219660 -1.849009 1.328643
C 0.685812 -2.062292 0.884919
C 0.268919 -2.242373 0.498030
C -0.047586 -2.449908 0.310824
C -0.239032 -2.528112 0.038271
C -0.394817 -2.638502 -0.273305
C -0.475280 -2.868190 -0.537912
C -0.457512 -2.793158 -0.774459
C -0.273079 -2.763575 -0.813847
C -0.129696 -2.663738 -0.875385
C 0.006298 -2.547953 -0.941464
C 0.208989 -2.512252 -0.848083
C 0.551631 -2.297869 -0.675174
C 0.870419 -2.015767 -0.477117
C 1.134378 -1.884050 -0.243946
C 1.248861 -1.769679 -0.216362
C 1.269760 -1.823387 -0.402773
C 1.257604 -1.966190 -0.708317
C 1.272666 -2.014202 -1.033320
C 1.232230 -2.146097 -1.247451
C 1.418177 -2.154233 -1.242941
C 1.592901 -1.972471 -1.162201
C 1.954404 -1.695404 -0.963210
C 2.431222 -1.380816 -0.631758
C 3.083899 -1.015122 -0.500587
C 3.393269 -0.766458 -0.243650
C 3.780058 -0.405980 0.021961
C 3.961563 -0.135755 0.073800
