129
chr20 3D structure from Hi-C (resolution 500000bp)
C 2.133084 0.888842 1.016066
C 1.956101 0.949396 1.083367
C 1.926145 1.046404 1.175427
C 1.943678 1.117759 1.239930
C 1.850664 1.239740 1.300623
C 1.719764 1.395478 1.238557
C 1.674567 1.457976 1.133236
C 1.653804 1.421536 0.909655
C 1.793322 1.442366 0.697793
C 1.753359 1.517693 0.356717
C 1.768635 1.546793 -0.142483
C 1.745673 1.552406 -0.638744
C 1.840421 1.677526 -0.885200
C 1.872592 1.795755 -1.170709
C 1.850383 1.891596 -1.393519
C 1.681042 1.951198 -1.681416
C 1.664836 1.854307 -1.880790
C 1.492780 1.817113 -1.857506
C 1.357618 1.742259 -1.857025
C 1.226996 1.584021 -1.883679
C 1.037655 1.486363 -2.052162
C 0.916624 1.394014 -2.283723
C 0.819891 1.389304 -2.430829
C 0.638928 1.459443 -2.386086
C 0.561825 1.595456 -2.349810
C 0.403667 1.866399 -2.330948
C 0.291428 2.073854 -2.240916
C 0.213668 2.254597 -2.013461
C 0.081898 2.443872 -1.718145
C 0.018598 2.531867 -1.415471
C -0.071975 2.553166 -1.348497
C -0.216839 2.482293 -1.386782
C -0.205136 2.447949 -1.030869
C -0.283755 2.370519 -0.913698
C -0.307146 2.321635 -0.692726
C -0.345357 2.280456 -0.564033
C -0.438437 2.209474 -0.445930
C -0.456555 2.224004 -0.235968
C -0.563480 2.330057 -0.078576
C -0.713480 2.324834 -0.182591
C -0.814577 2.141784 -0.447957
C -0.963266 1.953028 -0.830216
C -1.051913 1.820166 -1.057108
C -1.109518 1.729496 -1.206091
C -1.073368 1.483329 -1.402029
C -0.959398 1.125183 -1.555659
C -0.629904 0.622947 -1.829204
C -0.240525 0.405622 -1.702962
C 0.003991 0.193533 -1.765810
C 0.353674 -0.119596 -2.046385
C 1.071666 -0.784852 -2.158752
C 1.775473 -1.290904 -2.145754
C 2.599799 -1.614943 -1.985279
C 3.173906 -1.742580 -1.795787
C 3.149156 -2.030591 -2.063739
C 3.014314 -2.328644 -2.139810
C 2.731214 -2.417371 -2.114098
C 1.969929 -2.070206 -2.359034
C 1.026323 -1.720990 -2.665742
C -0.023872 -1.504228 -2.878894
C -0.850892 -1.086502 -2.559094
C -0.877168 -0.741832 -1.821084
C -0.805647 -0.348585 -1.041597
C -0.546786 -0.121495 -0.123378
C -0.124762 0.015543 0.835650
C 0.356211 0.271457 1.827280
C 0.859665 0.460726 2.669978
C 1.007017 0.388147 3.028721
C 0.987996 0.335878 3.314319
C 0.984739 0.318767 3.512120
C 0.891269 0.290497 3.683636
C 0.588015 0.435645 3.768492
C 0.286566 0.369699 3.656977
C -0.056925 0.357936 3.458901
C -0.332676 0.369553 3.159984
C -0.799284 0.534216 2.682808
C -1.157898 0.569396 2.215916
C -1.511235 0.683019 1.723040
C -1.761446 0.572311 1.321816
C -2.060711 0.553760 1.143532
C -2.294528 0.485515 0.896980
C -2.456926 0.374500 0.626990
C -2.553144 0.253116 0.498431
C -2.530614 0.126376 0.515047
C -2.480761 0.021914 0.701577
C -2.337047 -0.002791 0.844602
C -2.157745 -0.131500 0.996925
C -2.002981 -0.219023 1.219980
C -1.750256 -0.311287 1.464855
C -1.626520 -0.440151 1.826988
C -1.507818 -0.615483 2.049951
C -1.401695 -0.791673 2.098791
C -1.331332 -0.971026 2.225645
C -1.241873 -1.151053 2.146302
C -1.117938 -1.338497 2.193198
C -1.036693 -1.571497 2.391203
C -0.832063 -1.650763 2.429259
C -0.598543 -1.658974 2.452630
C -0.440096 -1.669454 2.436529
C -0.539777 -1.718168 2.150461
C -0.573351 -1.590686 1.868183
C -0.769363 -1.566651 1.431476
C -1.088666 -1.459479 0.901164
C -1.276686 -1.351374 0.444854
C -1.232450 -1.346714 0.174441
C -1.404236 -1.314137 -0.164347
C -1.449477 -1.356029 -0.473787
C -1.518061 -1.519201 -0.768037
C -1.440809 -1.534059 -0.967151
C -1.289299 -1.640577 -1.015083
C -1.181090 -1.687659 -1.049306
C -1.347043 -1.676622 -1.082777
C -1.306278 -1.783734 -0.959985
C -1.131019 -1.861611 -0.677513
C -0.895556 -1.871772 -0.341357
C -0.742643 -1.991791 -0.088673
C -0.570581 -1.902137 -0.023502
C -0.523866 -2.044304 -0.129963
C -0.518363 -2.135856 -0.367026
C -0.452608 -2.226913 -0.652914
C -0.376221 -2.227356 -0.863437
C -0.240912 -2.354222 -0.815094
C 0.021429 -2.287091 -0.605981
C 0.251073 -2.449239 -0.287641
C 0.619588 -2.458121 0.238854
C 1.165594 -2.676373 0.721307
C 1.450392 -2.695707 1.101096
C 1.763100 -2.748628 1.531555
C 1.990501 -2.718536 1.725376
