167
chr17 3D structure from Hi-C (resolution 500000bp)
C 1.119407 -0.119150 3.441831
C 0.986123 -0.255335 3.275448
C 0.945437 -0.195134 3.079420
C 0.931990 0.017294 2.891746
C 0.677203 -0.193515 2.652672
C 0.568810 -0.339137 2.663001
C 0.432279 -0.258882 2.502267
C 0.381241 -0.179467 2.358773
C 0.405130 0.065375 2.200059
C 0.397763 0.205929 2.115770
C 0.328713 0.083808 2.079050
C 0.285112 0.093371 2.066406
C 0.256495 0.146805 2.044369
C 0.214921 0.270966 1.936688
C 0.166379 0.449829 1.842964
C 0.087537 0.516830 1.775994
C -0.003122 0.619333 1.633401
C -0.034157 0.790150 1.464222
C 0.003473 1.113131 1.129711
C 0.110623 1.606504 0.797143
C 0.195293 2.000724 0.504823
C 0.232562 2.230693 0.319154
C 0.204243 2.417025 0.211182
C 0.217697 2.603216 0.130576
C 0.236968 2.833447 0.111524
C 0.237433 2.917061 0.074017
C 0.160642 2.932853 0.002756
C 0.096688 2.914698 0.028790
C -0.006955 2.930752 0.100719
C -0.070625 2.702498 0.207722
C -0.189237 2.523759 0.437425
C -0.360008 2.201578 0.626703
C -0.532235 1.928430 0.912569
C -0.705670 1.559521 1.275284
C -0.882261 1.359677 1.636961
C -0.997490 1.207001 1.796792
C -1.069961 1.256007 1.759134
C -1.141675 1.296780 1.663902
C -1.174118 1.507302 1.522748
C -1.115458 1.677585 1.283921
C -0.941989 2.137808 0.954705
C -0.746548 2.475259 0.500686
C -0.376048 2.844906 0.121637
C 0.488469 3.070274 -0.023227
C 1.447299 3.023348 -0.199985
C 2.432842 2.737857 -0.365404
C 3.320647 2.334969 -0.591742
C 4.058146 1.593883 -0.894816
C 4.770068 0.945961 -1.241484
C 5.300510 0.508874 -1.546756
C 4.848082 0.643933 -1.710131
C 3.920196 0.638569 -1.698001
C 2.970509 0.740961 -1.574738
C 2.035823 0.930789 -1.305975
C 1.109278 1.052464 -0.773512
C 0.159855 1.082768 -0.154417
C -0.837756 0.839317 0.442242
C -1.400599 0.179476 0.816732
C -1.594778 -0.200426 1.073408
C -1.786498 -0.450228 1.186004
C -1.975993 -0.548130 1.265623
C -2.134312 -0.494307 1.183356
C -2.228182 -0.369881 1.025072
C -2.208965 -0.126853 0.800029
C -2.186074 0.156955 0.589024
C -2.157748 0.427241 0.358612
C -2.126503 0.626422 0.216622
C -2.057371 0.693166 0.170207
C -2.120865 0.731714 0.259496
C -1.200739 1.052641 0.668485
C -0.268228 1.164257 1.083469
C 0.759688 1.084629 1.431676
C 1.776685 0.801332 1.768327
C 2.759227 0.417697 2.140030
C 2.765992 0.013655 2.403950
C 2.969826 -0.236808 2.441254
C 2.156094 -0.878290 2.210726
C 1.260480 -1.409249 1.999387
C 0.155979 -1.640567 1.744371
C -1.110333 -1.299807 1.422804
C -2.023386 -1.176148 1.145831
C -2.013315 -1.046517 0.958661
C -1.972840 -1.077646 0.909224
C -1.875945 -1.005854 0.856178
C -1.746467 -0.864390 0.808381
C -1.558716 -0.988346 0.888168
C -1.133639 -1.458596 1.024225
C -1.083912 -1.706331 1.095202
C -0.184512 -1.550413 1.402189
C 0.730134 -1.641023 1.274738
C 0.611824 -1.963192 0.942702
C 0.469452 -2.158282 0.836955
C 0.407000 -2.225658 0.705067
C 0.245307 -2.247380 0.512934
C 0.109984 -2.093002 0.288745
C -0.751026 -2.231425 -0.247693
C -1.690733 -2.114736 -0.322650
C -1.637843 -1.736234 -0.178569
C -1.602709 -1.526146 -0.252879
C -1.548850 -1.126188 -0.422842
C -1.373385 -0.608763 -0.607487
C -1.118659 -0.078691 -0.885733
C -0.989693 0.435323 -1.210819
C -0.854810 0.976992 -1.560768
C -0.699673 1.437545 -1.871593
C -0.485036 1.837719 -2.163213
C -0.384055 2.015971 -2.299373
C -0.408582 1.940184 -2.295321
C -0.484740 1.832890 -2.229972
C -0.516006 1.700298 -2.143474
C -0.601966 1.451920 -1.985371
C -0.777728 1.114217 -1.823309
C -0.995610 0.798633 -1.661567
C -1.134023 0.421211 -1.516066
C -1.211285 0.164510 -1.454394
C -1.290185 -0.195219 -1.352462
C -1.406632 -0.615669 -1.272296
C -1.467497 -0.893271 -1.302610
C -1.467385 -0.931706 -1.409033
C -1.435738 -0.929698 -1.540130
C -1.403135 -0.905460 -1.688270
C -1.335030 -0.902865 -1.832651
C -1.244742 -0.760604 -1.959999
C -1.148862 -0.529836 -2.074510
C -1.054712 -0.491689 -2.016534
C -0.925028 -0.672275 -1.931311
C -0.800985 -0.880823 -1.859884
C -0.635021 -0.863439 -1.824302
C -0.515540 -0.746659 -1.840945
C -0.416202 -0.750279 -1.901237
C -0.315108 -0.739908 -1.912696
C -0.250375 -0.706387 -1.984657
C -0.196149 -0.649243 -1.995591
C -0.122814 -0.545444 -2.003444
C -0.064627 -0.445138 -2.079857
C 0.040859 -0.494416 -2.074077
C 0.098752 -0.356293 -2.082953
C 0.221629 -0.272693 -2.218397
C 0.387748 0.002024 -2.368592
C 0.533822 0.315787 -2.574243
C 0.683924 0.551234 -2.736648
C 0.738537 0.569961 -2.688940
C 0.774329 0.600489 -2.645690
C 0.818599 0.453730 -2.499690
C 0.820138 0.399856 -2.247180
C 0.758789 0.208866 -1.973002
C 0.672894 -0.117248 -1.634275
C 0.506361 -0.540261 -1.224456
C 0.420674 -0.962090 -0.918750
C 0.320221 -1.389048 -0.630175
C 0.274692 -1.728308 -0.455434
C 0.273580 -2.144885 -0.278273
C 0.344299 -2.443810 -0.211166
C 0.433442 -2.654868 -0.124638
C 0.547636 -2.659131 -0.102459
C 0.749263 -2.557084 -0.179135
C 0.932041 -2.412096 -0.240089
C 1.040484 -2.398538 -0.151235
C 1.066997 -2.365515 -0.060419
C 1.084644 -2.450050 0.099123
C 1.087557 -2.475351 0.248001
C 1.094583 -2.587592 0.425191
C 1.057633 -2.666000 0.670353
C 1.291583 -2.917375 0.737928
C 1.330410 -2.974413 0.805498
C 1.412665 -3.050651 0.885138
C 1.493612 -3.039280 0.931074
