167
chr17 3D structure from Hi-C (resolution 500000bp)
C -1.787067 2.038162 2.537528
C -1.688198 1.793450 2.501337
C -1.585056 1.725995 2.324144
C -1.513374 1.760439 2.079369
C -1.387933 1.454422 1.933863
C -1.363970 1.310435 2.030160
C -1.296299 1.099269 1.887468
C -1.287656 1.040053 1.713479
C -1.264956 1.129516 1.429032
C -1.330331 1.148908 1.248998
C -1.385104 1.025837 1.284465
C -1.405224 0.929324 1.284705
C -1.509695 0.899189 1.236920
C -1.505682 0.912801 1.099855
C -1.506204 0.929974 0.912262
C -1.515870 0.861998 0.828708
C -1.461704 0.791920 0.669746
C -1.398175 0.791718 0.401561
C -1.320131 0.880664 -0.068303
C -1.208903 1.051863 -0.693302
C -1.133696 1.260445 -1.184284
C -1.094134 1.318761 -1.495002
C -1.094232 1.413543 -1.708663
C -1.115779 1.523828 -1.872768
C -1.188852 1.612312 -2.067118
C -1.260781 1.604124 -2.149049
C -1.304230 1.621298 -2.113209
C -1.346974 1.520783 -2.119799
C -1.488805 1.499445 -2.070508
C -1.572541 1.317856 -1.869058
C -1.722310 1.155912 -1.607898
C -1.781816 0.942247 -1.237116
C -1.863123 0.789169 -0.906932
C -2.017073 0.539155 -0.504664
C -2.283883 0.372490 -0.095665
C -2.365423 0.260043 0.105230
C -2.364021 0.223975 0.043819
C -2.335535 0.164102 -0.081302
C -2.397372 0.184098 -0.307049
C -2.301566 0.280047 -0.496660
C -2.214610 0.508440 -0.968479
C -1.991531 0.801514 -1.467523
C -1.704645 1.214688 -1.869241
C -1.096232 1.894920 -2.011307
C -0.336288 2.550949 -1.918665
C 0.399309 3.219723 -1.642675
C 0.833971 3.888870 -1.282015
C 1.149317 4.459401 -0.692631
C 1.285286 4.920293 -0.378080
C 1.390674 5.299462 -0.054177
C 0.939007 4.989586 -0.288891
C 0.306134 4.333967 -0.429490
C -0.233378 3.615705 -0.638847
C -0.622945 2.760527 -0.849011
C -0.879282 1.796072 -0.895489
C -1.024017 0.863506 -0.650283
C -1.264671 -0.177820 -0.435817
C -1.410933 -0.817050 0.149061
C -1.493855 -1.133138 0.528866
C -1.623865 -1.379191 0.743994
C -1.710367 -1.511740 0.785738
C -1.747698 -1.590432 0.655826
C -1.756344 -1.630013 0.454722
C -1.691096 -1.543922 0.117681
C -1.658761 -1.447562 -0.176707
C -1.596273 -1.369518 -0.549839
C -1.515561 -1.284312 -0.774916
C -1.466001 -1.283508 -0.861355
C -1.502489 -1.389678 -0.868918
C -0.519403 -0.822061 -0.875844
C 0.410292 -0.342667 -0.658882
C 1.348704 0.149691 -0.269918
C 2.207431 0.707106 0.256930
C 2.958817 1.318147 0.804519
C 2.936318 1.293570 1.348826
C 3.061047 1.383936 1.611652
C 2.173490 0.770889 1.916421
C 1.253462 0.147849 2.125739
C 0.328512 -0.510316 2.003748
C -0.648472 -1.258070 1.458240
C -1.324574 -1.905575 1.199648
C -1.213268 -1.862387 1.004060
C -1.192402 -1.783204 1.015106
C -1.180257 -1.691948 1.039909
C -1.050729 -1.539092 0.982345
C -0.899426 -1.404935 1.149784
C -0.627270 -1.248523 1.598683
C -0.565238 -1.337541 1.802887
C -0.304629 -0.516747 2.050700
C 0.021779 0.266729 2.303622
C 0.233653 -0.158709 2.306582
C 0.307745 -0.409459 2.324867
C 0.366895 -0.597398 2.272540
C 0.384590 -0.753159 2.108727
C 0.488373 -0.814401 1.883564
C 0.326723 -1.711514 1.444425
C 0.135342 -2.603917 1.016488
C 0.081764 -2.240321 0.832266
C 0.061822 -2.072147 0.664098
C 0.044580 -1.804643 0.318996
C 0.082587 -1.466397 -0.063960
C 0.060551 -1.131793 -0.606950
C 0.162193 -0.869148 -1.152095
C 0.195217 -0.579938 -1.715333
C 0.244928 -0.335158 -2.269119
C 0.323178 -0.113639 -2.722866
C 0.382342 -0.062569 -2.973294
C 0.383291 -0.140183 -2.948256
C 0.400860 -0.203400 -2.841628
C 0.376112 -0.256994 -2.721097
C 0.384222 -0.380369 -2.458883
C 0.356570 -0.608816 -2.121592
C 0.318508 -0.857030 -1.798764
C 0.387214 -1.064932 -1.395693
C 0.456060 -1.225844 -1.158475
C 0.513186 -1.467552 -0.881432
C 0.575024 -1.755522 -0.545337
C 0.684732 -1.997573 -0.425928
C 0.793498 -2.054779 -0.413993
C 0.882334 -2.090452 -0.517469
C 0.918788 -2.093154 -0.661713
C 0.961517 -2.080624 -0.781675
C 1.011380 -1.963335 -0.946462
C 1.045614 -1.834347 -1.164824
C 1.080331 -1.729181 -1.104557
C 1.121420 -1.708251 -0.955007
C 1.230084 -1.724142 -0.789807
C 1.255333 -1.595417 -0.822594
C 1.339039 -1.443880 -0.899578
C 1.380879 -1.340909 -0.947091
C 1.452065 -1.249410 -0.923876
C 1.500956 -1.152371 -0.974584
C 1.555521 -1.086237 -1.038902
C 1.543645 -0.910120 -1.039521
C 1.604556 -0.813661 -1.062131
C 1.663833 -0.751464 -0.991609
C 1.736714 -0.643465 -1.057645
C 1.818646 -0.486730 -1.226642
C 1.859651 -0.253612 -1.532496
C 1.871942 -0.007951 -1.828577
C 1.989692 0.090774 -2.116760
C 1.991167 0.145323 -2.123060
C 2.031030 0.193216 -2.113508
C 1.955867 0.157456 -1.896089
C 1.838362 0.160136 -1.644188
C 1.723635 0.058419 -1.283574
C 1.626006 -0.107421 -0.856013
C 1.424752 -0.268325 -0.286482
C 1.354284 -0.452348 0.208314
C 1.226089 -0.595248 0.736910
C 1.255323 -0.693256 1.070879
C 1.303425 -0.857863 1.500851
C 1.414079 -0.934768 1.738262
C 1.509552 -1.002194 1.949975
C 1.566363 -0.920931 1.991135
C 1.696496 -0.779264 1.933244
C 1.741182 -0.623551 1.823475
C 1.730526 -0.526689 1.906015
C 1.644805 -0.449779 1.940280
C 1.600540 -0.376672 2.143420
C 1.482594 -0.302181 2.295796
C 1.360155 -0.263297 2.501991
C 1.168634 -0.180399 2.688819
C 1.243651 0.040266 2.994324
C 1.208110 0.074359 3.112803
C 1.219382 0.172270 3.241232
C 1.118217 0.259038 3.309611
