363
chr5 3D structure from Hi-C (resolution 500000bp)
C -4.067402 1.281429 0.102368
C -3.999509 0.886215 0.220088
C -3.981297 0.559243 0.274030
C -3.906560 0.278122 0.361463
C -3.879226 -0.140496 0.408412
C -3.862810 -0.584553 0.421393
C -3.785702 -0.905669 0.580939
C -3.797778 -1.044356 0.654403
C -3.791143 -0.929346 0.725326
C -3.765219 -0.743822 0.775600
C -3.751763 -0.502586 0.779416
C -3.736398 -0.441111 0.871856
C -3.645013 -0.317074 0.954340
C -3.510426 -0.307562 1.056704
C -3.479644 -0.340528 1.090756
C -3.538835 -0.376182 0.975924
C -3.518705 -0.439941 1.053407
C -3.556766 -0.406638 1.115047
C -3.463912 -0.236501 1.090702
C -3.449664 -0.318704 1.085561
C -3.452412 -0.473355 1.043617
C -3.504053 -0.709034 0.872034
C -3.411659 -1.047997 0.891159
C -3.302414 -1.247889 0.912931
C -3.196697 -1.497680 0.898976
C -3.181641 -1.454077 0.974749
C -3.177025 -1.303858 1.062491
C -3.198195 -1.226063 1.139013
C -3.111272 -1.148760 1.340883
C -3.096868 -0.987328 1.522228
C -3.092972 -0.873113 1.549952
C -3.047228 -0.761860 1.583999
C -3.103114 -1.163401 1.516532
C -3.090384 -1.398541 1.563380
C -2.997543 -1.388675 1.690344
C -2.904331 -1.468032 1.708982
C -2.748916 -1.650500 1.652434
C -2.713481 -1.906075 1.611505
C -2.687695 -2.206133 1.573508
C -2.629530 -2.348940 1.527248
C -2.558895 -2.588319 1.350721
C -2.458675 -2.834199 1.206355
C -2.339507 -2.801729 1.286999
C -2.278709 -2.668317 1.485425
C -2.260530 -2.689402 1.613982
C -2.203777 -2.681873 1.754981
C -2.053647 -2.552445 1.985316
C -1.945695 -2.371879 2.232232
C -1.864947 -2.281541 2.345826
C -1.866239 -2.441019 2.347360
C -1.810285 -2.580431 2.306380
C -1.681549 -2.678135 2.259006
C -1.579210 -2.681615 2.293064
C -1.514262 -2.635655 2.365954
C -1.459623 -2.786182 2.343514
C -1.446755 -2.894480 2.308570
C -1.405045 -2.681618 2.336456
C -1.427266 -2.578700 2.372468
C -1.527098 -2.284666 2.518458
C -1.629851 -2.030118 2.544646
C -1.764292 -1.716148 2.454008
C -1.899706 -1.108436 2.364031
C -2.059827 -0.655785 2.438859
C -2.194002 -0.437919 2.461280
C -2.386071 -0.027344 2.377749
C -2.509696 0.371902 2.282260
C -2.565077 0.583424 2.232045
C -2.612790 0.740465 2.224150
C -2.614097 0.664917 2.312208
C -2.573377 0.779271 2.255749
C -2.564342 1.005265 2.202342
C -2.486394 1.157084 2.186581
C -2.323524 1.039465 2.169529
C -2.280206 1.012629 2.246901
C -2.218525 0.921587 2.391470
C -2.164792 0.909424 2.531391
C -2.075438 0.709632 2.637973
C -1.944675 0.453173 2.690910
C -1.934130 0.269557 2.879097
C -1.864545 0.116999 3.045377
C -1.774274 0.030035 3.063187
C -1.632813 -0.126818 3.095814
C -1.546256 -0.194655 3.087106
C -1.615258 0.114980 2.972463
C -1.589026 0.136271 3.099672
C -1.401921 -0.090258 3.044071
C -1.340906 -0.242978 3.029169
C -1.243124 -0.614447 3.111443
C -1.136598 -0.983400 3.101283
C -0.940002 -1.616295 2.898517
C -0.536554 -2.584607 2.717408
C -0.271853 -3.309307 2.264743
C -0.088438 -3.933591 1.817263
C 0.033290 -4.462844 1.267518
C -0.217034 -4.689397 0.493654
C -0.610018 -4.734572 -0.279233
C -1.220571 -3.674886 -0.673926
C -1.246365 -3.239567 -0.206145
C -1.322515 -2.509690 0.207556
C -1.279831 -1.945924 0.652653
C -1.142876 -1.404745 1.184894
C -0.672850 -1.081385 1.879564
C -0.134703 -0.609794 2.560928
C 0.569243 -1.115813 3.118792
C 0.550504 -0.774289 2.938021
C 0.535240 -0.590424 2.794873
C 0.440173 -0.262209 2.666958
C 0.219287 0.307676 2.559512
C 0.102844 1.000505 2.491153
C -0.010947 1.346963 2.399702
C -0.159385 1.745413 2.258155
C -0.276768 1.971767 2.130321
C -0.255418 1.926798 2.231835
C -0.209769 1.853717 2.351764
C -0.090003 1.685504 2.445019
C 0.000552 1.423062 2.495596
C 0.108670 1.287969 2.646433
C 0.237333 1.206669 2.756360
C 0.312708 1.186901 2.855969
C 0.322894 1.304808 2.736935
C 0.341263 1.383050 2.670209
C 0.381707 1.337811 2.507982
C 0.388306 1.232742 2.458091
C 0.453030 1.044069 2.510482
C 0.547203 0.835765 2.659097
C 0.682297 0.592884 2.709779
C 0.842122 0.644647 2.821851
C 0.946124 0.812737 2.821853
C 1.013474 1.054418 2.840528
C 0.869187 1.418784 2.791823
C 0.788228 1.722475 2.608644
C 0.654583 2.080673 2.404269
C 0.581433 2.429282 2.266765
C 0.362585 2.579001 2.114388
C 0.162617 2.686383 2.006127
C -0.133773 2.885633 1.816160
C -0.574804 3.058382 1.451203
C -0.852649 2.070143 0.968251
C -1.047688 0.962075 0.467932
C -1.255059 -0.114659 0.054774
C -1.241907 -0.136207 -0.076006
C -1.250964 -0.101877 -0.209930
C -1.103982 -0.326713 -0.209233
C -0.682608 -0.494650 -0.024792
C -0.437227 0.629935 0.270428
C -0.301546 1.778720 0.525757
C -0.187016 3.001620 0.720363
C -0.273447 3.176828 0.718254
C -0.297836 3.281143 0.691497
C -0.360958 3.499319 0.660858
C -0.271982 3.581156 0.645378
C -0.251219 3.616045 0.662340
C -0.175336 3.671169 0.611658
C -0.038828 3.713460 0.621750
C 0.169958 3.658550 0.563119
C 0.378043 3.596068 0.631883
C 0.564606 3.432953 0.649914
C 0.689628 3.417475 0.624584
C 0.820250 3.357198 0.641519
C 0.980219 3.257021 0.737383
C 1.073800 3.129220 0.835996
C 1.325728 2.864161 1.084861
C 1.488649 2.524454 1.264472
C 1.690872 2.332680 1.434560
C 1.941092 2.007790 1.727088
C 2.171631 1.703834 1.931532
C 2.340417 1.354475 2.140610
C 2.439753 0.908215 2.272957
C 2.407529 0.515580 2.266268
C 2.517428 0.246828 2.300203
C 2.587845 0.014479 2.375094
C 2.592409 0.055295 2.241426
C 2.664963 -0.155878 2.276364
C 2.686344 -0.228689 2.318283
C 2.806175 0.074563 2.277466
C 2.837967 0.548559 2.120080
C 2.821074 0.976928 1.976637
C 2.954278 1.213666 1.832203
C 3.027768 1.064389 1.862342
C 2.989640 1.240049 1.706543
C 3.015259 1.171590 1.552856
C 3.018217 0.728531 1.559649
C 3.062753 0.181070 1.671200
C 3.089656 -0.203193 1.674178
C 3.043300 -0.405374 1.663531
C 2.995509 -0.417186 1.569525
C 2.872080 -0.292147 1.453374
C 2.823009 0.066628 1.309250
C 2.714065 0.587850 1.048749
C 2.640079 1.087662 0.834497
C 2.542839 1.432585 0.662191
C 2.548016 1.628893 0.546427
C 2.427390 1.520082 0.516038
C 2.455295 1.089510 0.668274
C 2.430232 0.481750 0.804993
C 2.468617 -0.176848 1.001238
C 2.527673 -0.748459 1.128115
C 2.675147 -1.205930 1.236570
C 2.600954 -1.298606 1.211615
C 2.756595 -1.497110 1.218033
C 2.854185 -1.529365 1.092455
C 2.853786 -1.350833 0.943458
C 2.855213 -1.048978 0.778985
C 2.852688 -0.765118 0.609342
C 2.837105 -0.799653 0.503762
C 2.906279 -1.157425 0.541465
C 2.869576 -1.144585 0.414875
C 2.898322 -1.269686 0.321396
C 2.967752 -1.491077 0.315128
C 3.038282 -1.827010 0.375970
C 3.091658 -1.998445 0.391659
C 3.079023 -1.726502 0.328673
C 3.045167 -1.421959 0.211572
C 3.153128 -1.057967 0.163882
C 3.181637 -0.462813 0.055720
C 3.180939 0.142126 -0.077123
C 3.192543 0.479079 -0.180514
C 3.088423 0.391732 -0.173293
C 3.086033 0.282155 -0.162074
C 2.966458 0.365655 -0.225281
C 2.808856 0.489377 -0.307665
C 2.633591 0.462507 -0.347074
C 2.462567 0.439601 -0.380007
C 2.350239 0.436340 -0.485138
C 2.431891 0.554559 -0.620664
C 2.477990 0.431158 -0.766407
C 2.495518 0.062546 -0.744807
C 2.525059 -0.146166 -0.754870
C 2.593970 -0.229174 -0.797410
C 2.586320 -0.367721 -0.809149
C 2.578263 -0.282191 -0.814253
C 2.552656 -0.368079 -0.787147
C 2.397111 -0.637140 -0.758512
C 2.429079 -0.672885 -0.820041
C 2.455931 -0.861438 -0.837638
C 2.505824 -0.811029 -0.908570
C 2.617820 -1.026246 -0.960486
C 2.632733 -1.525573 -0.989698
C 2.606193 -1.605960 -1.073811
C 2.632282 -1.456696 -1.114191
C 2.706423 -1.494990 -1.207549
C 2.710257 -1.534441 -1.308629
C 2.600903 -1.717789 -1.331724
C 2.659062 -1.665822 -1.430444
C 2.704002 -1.374591 -1.581929
C 2.776545 -1.170651 -1.719213
C 2.826650 -0.800364 -1.889208
C 2.820714 -0.541937 -2.011588
C 2.726936 -0.541141 -2.025025
C 2.682409 -0.583595 -1.983549
C 2.574082 -0.350147 -1.987540
C 2.505913 -0.231956 -1.980126
C 2.409701 -0.155237 -1.922775
C 2.399081 -0.282661 -1.932101
C 2.241583 -0.529228 -1.828679
C 2.202051 -0.587381 -1.839275
C 2.190627 -0.866760 -1.872328
C 2.126454 -1.382737 -1.865715
C 2.060960 -1.679572 -1.850923
C 2.060626 -1.456110 -1.917608
C 1.928824 -1.168187 -1.868685
C 1.894952 -0.594349 -1.927950
C 1.800689 0.074663 -1.958734
C 1.686159 0.822607 -2.038199
C 1.561086 1.561370 -2.086439
C 1.395435 2.374571 -2.110007
C 1.151570 2.627717 -2.092836
C 0.976467 2.716972 -2.109658
C 0.779943 2.728344 -2.116911
C 0.613300 2.511189 -2.076294
C 0.490341 2.156499 -2.022791
C 0.378408 1.983688 -2.017425
C 0.326654 1.889761 -2.056357
C 0.177090 1.898322 -2.090322
C 0.071679 1.965391 -2.049049
C 0.002964 2.139152 -2.010657
C -0.072942 2.471120 -2.078395
C -0.034091 2.812021 -2.163651
C -0.322802 2.554863 -2.334628
C -0.254477 2.072109 -2.559521
C -0.112046 1.758618 -2.611685
C 0.017771 1.562000 -2.726470
C 0.234071 1.287463 -2.907347
C 0.431024 1.009958 -2.970604
C 0.520234 0.741671 -2.943446
C 1.009421 0.801682 -2.876506
C 1.036571 0.665978 -2.656373
C 1.107514 0.279905 -2.654456
C 1.144899 -0.140829 -2.689340
C 1.056819 -0.334615 -2.551758
C 1.003805 -0.743620 -2.630003
C 0.984989 -0.982882 -2.719595
C 0.884380 -1.246144 -2.715552
C 0.809928 -1.235282 -2.744709
C 0.795758 -1.054833 -2.850825
C 0.758719 -0.757621 -2.924776
C 0.714136 -0.532970 -3.058527
C 0.630902 -0.052754 -3.050795
C 0.466869 0.331977 -3.084661
C 0.384701 0.835658 -3.111633
C 0.413939 1.193136 -3.232043
C 0.308427 1.148247 -3.165127
C 0.173175 0.624766 -3.014247
C 0.135989 0.223047 -2.974018
C 0.125801 -0.201336 -2.930854
C 0.209556 -0.408182 -2.862655
C 0.203491 -0.613630 -2.957334
C 0.121644 -0.904015 -2.986312
C 0.101387 -0.979229 -3.053960
C 0.020330 -0.700358 -3.233327
C 0.062614 -0.591073 -3.297920
C 0.096559 -0.381430 -3.368738
C 0.057683 -0.267565 -3.391236
C -0.043282 -0.231962 -3.391377
C -0.119213 0.010842 -3.379747
C -0.159441 0.298065 -3.410649
C -0.086295 0.483770 -3.389708
C -0.125700 0.638191 -3.363428
C -0.113140 0.518733 -3.318006
C -0.326897 0.136054 -3.382090
C -0.319088 -0.179927 -3.338840
C -0.400912 -0.651237 -3.311883
C -0.450860 -1.118649 -3.258196
C -0.422655 -1.367413 -3.249629
C -0.391251 -1.706433 -3.161261
C -0.459353 -2.081416 -3.146608
C -0.220124 -2.237912 -3.093775
C -0.152155 -2.255188 -3.010648
C -0.025779 -2.227737 -2.931569
C -0.007998 -2.248893 -2.881589
C -0.080324 -2.336703 -2.797180
C -0.229536 -2.458024 -2.871338
C -0.339010 -2.260264 -2.896273
C -0.458745 -1.912991 -2.898221
C -0.558028 -1.611069 -2.966512
C -0.660563 -1.308579 -3.005078
C -0.707772 -0.852176 -2.995280
C -0.718732 -0.391953 -2.999523
C -0.797181 0.023240 -3.023642
C -0.977350 0.244347 -3.064351
C -1.103566 0.486549 -3.114605
C -1.182018 0.781247 -3.026964
C -1.250084 1.085288 -2.965997
C -1.367208 1.244760 -2.975115
C -1.434291 1.406326 -2.960984
C -1.479682 1.513206 -2.909337
C -1.436721 1.560938 -2.858487
C -1.493497 1.457883 -2.828313
C -1.603624 1.392117 -2.875890
C -1.781644 1.435387 -2.914635
C -1.859537 1.520299 -2.894195
C -2.024030 1.629027 -2.843673
C -2.300095 1.782099 -2.792096
C -2.380133 1.896754 -2.750112
C -2.515767 1.805081 -2.734157
C -2.645093 1.551545 -2.759624
C -2.605826 1.468323 -2.701217
C -2.663269 1.281010 -2.676011
C -2.699649 1.021516 -2.740500
C -2.662121 0.876495 -2.791545
C -2.712495 0.811608 -2.807915
C -2.708075 0.956068 -2.779926
C -2.637303 1.223879 -2.700187
