363
chr5 3D structure from Hi-C (resolution 500000bp)
C -4.060814 0.755166 -0.520920
C -3.981023 0.423663 -0.375473
C -3.948721 0.078252 -0.276016
C -3.865948 -0.156554 -0.187094
C -3.851856 -0.581115 -0.073081
C -3.761645 -0.922907 0.086991
C -3.664875 -1.264808 0.241557
C -3.670195 -1.459423 0.272386
C -3.663558 -1.375462 0.342910
C -3.593656 -1.165152 0.351188
C -3.585198 -0.967438 0.378875
C -3.578876 -0.879930 0.407824
C -3.549018 -0.716813 0.468242
C -3.463790 -0.642557 0.613880
C -3.389949 -0.716436 0.612010
C -3.440129 -0.668783 0.554397
C -3.474423 -0.747642 0.675296
C -3.530513 -0.741352 0.625237
C -3.442108 -0.559966 0.657417
C -3.489317 -0.512021 0.662425
C -3.513997 -0.610667 0.664549
C -3.544613 -0.794222 0.541635
C -3.428145 -1.187528 0.544916
C -3.357093 -1.311467 0.573287
C -3.264741 -1.476014 0.692597
C -3.281688 -1.415334 0.681610
C -3.250662 -1.343391 0.691061
C -3.230598 -1.278122 0.765573
C -3.196760 -1.193958 0.990747
C -3.220966 -0.987510 1.182788
C -3.193360 -0.868593 1.202871
C -3.148959 -0.809758 1.242316
C -3.139158 -1.257706 1.261765
C -3.043407 -1.605914 1.286888
C -2.928177 -1.759103 1.224715
C -2.814776 -1.792746 1.205316
C -2.642792 -2.030023 1.120550
C -2.505282 -2.330066 1.089818
C -2.411850 -2.573999 1.099369
C -2.297223 -2.714817 1.073668
C -2.178221 -2.887251 1.051623
C -2.103156 -2.970717 1.152181
C -1.972531 -2.946060 1.258504
C -1.890335 -2.880611 1.407288
C -1.816714 -2.939184 1.526670
C -1.816150 -2.925939 1.594307
C -1.799760 -2.748862 1.790966
C -1.819102 -2.548448 1.956915
C -1.776785 -2.434563 1.996053
C -1.804030 -2.564829 2.043802
C -1.802899 -2.605733 2.076560
C -1.828554 -2.494656 2.195184
C -1.795604 -2.396976 2.315556
C -1.730781 -2.311794 2.395053
C -1.790936 -2.267665 2.513971
C -1.781645 -2.232330 2.663819
C -1.762577 -2.032427 2.675119
C -1.859181 -1.847099 2.717807
C -1.965484 -1.717158 2.654333
C -2.014548 -1.572280 2.586216
C -2.164835 -1.251380 2.447729
C -2.204113 -0.831375 2.175776
C -2.384704 -0.477343 2.031235
C -2.572924 -0.213499 1.988020
C -2.676084 0.196584 1.870523
C -2.797044 0.586095 1.806902
C -2.860874 0.842490 1.719186
C -2.886193 0.930581 1.743185
C -2.851130 0.840236 1.870161
C -2.768661 0.869982 1.894204
C -2.703922 0.994113 1.902307
C -2.694231 1.064293 1.825809
C -2.554945 0.988966 1.805813
C -2.538752 0.854759 1.917096
C -2.514109 0.736548 2.034006
C -2.533194 0.744350 2.165001
C -2.491787 0.614856 2.245476
C -2.399650 0.408651 2.291762
C -2.327658 0.247433 2.560139
C -2.303269 0.154489 2.757356
C -2.219733 0.172531 2.790688
C -2.059182 0.076780 2.834234
C -1.934998 -0.017497 2.816786
C -1.944236 0.254056 2.666437
C -1.876096 0.259458 2.816883
C -1.733152 0.004769 2.780291
C -1.621526 -0.183594 2.794258
C -1.424211 -0.638728 2.866537
C -1.234169 -1.015572 2.877494
C -0.947352 -1.571703 2.831286
C -0.478610 -2.510338 2.787398
C -0.128413 -3.189442 2.425463
C 0.184788 -3.769641 2.075351
C 0.427010 -4.310603 1.604505
C 0.287714 -4.549989 0.933067
C 0.020276 -4.719386 0.217587
C -0.609327 -3.736655 -0.332630
C -0.761345 -3.185276 0.104505
C -0.937360 -2.493666 0.395165
C -1.045124 -1.899154 0.754007
C -1.054117 -1.374399 1.208388
C -0.746120 -0.914886 1.897385
C -0.430286 -0.296073 2.532060
C 0.155321 -0.657121 3.222102
C 0.104859 -0.412162 2.964070
C 0.079742 -0.268400 2.865376
C -0.028593 0.028019 2.737452
C -0.256832 0.586691 2.572441
C -0.445618 1.151730 2.500928
C -0.468788 1.450651 2.448036
C -0.580965 1.757103 2.212769
C -0.627128 1.895036 2.175406
C -0.613471 1.919009 2.269675
C -0.506447 1.818318 2.351676
C -0.280910 1.560955 2.483684
C -0.153811 1.396435 2.494815
C -0.112670 1.232113 2.619825
C -0.022514 1.138801 2.747328
C 0.054066 1.171003 2.715376
C 0.081424 1.263730 2.656197
C 0.089923 1.315302 2.644103
C 0.063313 1.380616 2.478546
C 0.104865 1.174123 2.434030
C 0.175769 0.956271 2.464160
C 0.308272 0.600893 2.619207
C 0.426335 0.273481 2.733267
C 0.514044 0.277068 2.804585
C 0.579740 0.440518 2.776564
C 0.551021 0.706339 2.741247
C 0.428785 1.134893 2.653015
C 0.293212 1.501980 2.456379
C 0.167344 1.983451 2.239355
C 0.066009 2.350342 2.069903
C -0.090697 2.541531 1.868282
C -0.257314 2.668096 1.706503
C -0.387405 2.809374 1.654143
C -0.851039 2.910177 1.222504
C -0.909747 1.893020 0.835881
C -0.942872 0.790281 0.432972
C -0.975222 -0.251122 0.117638
C -1.023314 -0.271153 0.009846
C -1.067113 -0.245700 -0.055258
C -0.991329 -0.455599 -0.149925
C -0.565935 -0.607622 0.091268
C -0.520629 0.481884 0.296980
C -0.591790 1.635766 0.429901
C -0.671856 2.845442 0.553524
C -0.716066 2.996785 0.516424
C -0.729016 3.119288 0.439849
C -0.823259 3.309776 0.389901
C -0.788407 3.439916 0.324395
C -0.780190 3.554063 0.300271
C -0.646969 3.632503 0.344858
C -0.507985 3.681016 0.322621
C -0.308247 3.604144 0.268645
C -0.109631 3.573776 0.321982
C 0.064996 3.466997 0.320207
C 0.226888 3.445967 0.356679
C 0.400439 3.385671 0.396544
C 0.521889 3.313397 0.465600
C 0.656463 3.182844 0.599841
C 0.853278 3.062586 0.845807
C 1.041558 2.760642 1.044659
C 1.247204 2.580958 1.259896
C 1.421410 2.267426 1.626808
C 1.629759 1.771547 1.947602
C 1.773404 1.370197 2.193659
C 1.863498 0.894553 2.334796
C 1.927838 0.563463 2.397298
C 2.014120 0.394802 2.513831
C 2.123006 0.248603 2.602081
C 2.170329 0.385055 2.394862
C 2.223302 0.431526 2.447314
C 2.324481 0.418653 2.457079
C 2.414461 0.803975 2.428212
C 2.412947 1.172492 2.233954
C 2.407399 1.536669 2.024345
C 2.438290 1.724519 2.011617
C 2.483584 1.627485 2.095776
C 2.496455 1.810728 1.891254
C 2.477204 1.709067 1.800056
C 2.440893 1.216215 1.849389
C 2.551534 0.782423 2.041095
C 2.618478 0.324527 2.132208
C 2.632213 0.151382 2.072058
C 2.633009 0.029469 2.011079
C 2.541202 0.110028 1.871463
C 2.510189 0.458048 1.697344
C 2.471697 0.997939 1.405622
C 2.366681 1.340003 1.142643
C 2.225115 1.686924 0.883844
C 2.289658 1.769817 0.780150
C 2.230785 1.686943 0.712176
C 2.384266 1.400879 0.809248
C 2.602347 1.144100 0.895100
C 2.809198 0.672922 1.063917
C 2.909092 0.208402 1.187538
C 3.070533 -0.308583 1.385725
C 3.002167 -0.336374 1.292079
C 3.149482 -0.517200 1.333824
C 3.167597 -0.661942 1.290932
C 2.958920 -0.772295 1.190154
C 2.839856 -0.535173 1.010216
C 2.811907 -0.249753 0.857665
C 2.811616 -0.198063 0.777834
C 2.833872 -0.638370 0.839903
C 2.787355 -0.662738 0.759939
C 2.763212 -0.837795 0.769970
C 2.860286 -1.043214 0.782959
C 2.967397 -1.407099 0.865938
C 3.051119 -1.589347 0.885506
C 3.055246 -1.375594 0.764780
C 3.056647 -1.018874 0.656866
C 3.161441 -0.723680 0.563229
C 3.191274 -0.171277 0.330956
C 3.146070 0.388892 0.115262
C 3.094166 0.649387 0.004997
C 2.987314 0.442199 -0.000271
C 2.921244 0.308515 0.021775
C 2.807377 0.412331 -0.056730
C 2.631676 0.580716 -0.165007
C 2.512331 0.553462 -0.201854
C 2.373652 0.480001 -0.219657
C 2.319886 0.489564 -0.288016
C 2.302709 0.521165 -0.369315
C 2.279691 0.259314 -0.405757
C 2.285820 -0.199074 -0.360024
C 2.287581 -0.474744 -0.340192
C 2.289288 -0.540918 -0.352068
C 2.299324 -0.676787 -0.332000
C 2.231168 -0.628614 -0.354291
C 2.320364 -0.572236 -0.385994
C 2.372938 -0.644052 -0.418044
C 2.364069 -0.637568 -0.451890
C 2.494922 -0.709308 -0.470193
C 2.512716 -0.597508 -0.557274
C 2.595395 -0.811337 -0.564411
C 2.709127 -1.258870 -0.554987
C 2.701187 -1.358433 -0.604144
C 2.750225 -1.181634 -0.709256
C 2.910670 -1.160917 -0.806514
C 2.915257 -1.196136 -0.924010
C 2.872722 -1.409890 -0.906422
C 2.976965 -1.296701 -1.016292
C 3.014672 -0.913331 -1.171315
C 3.040837 -0.605909 -1.328699
C 3.006091 -0.226084 -1.437748
C 3.028941 0.033205 -1.559878
C 2.933459 0.049639 -1.571705
C 2.936297 0.006398 -1.576730
C 2.808064 0.212107 -1.600760
C 2.716751 0.263403 -1.637077
C 2.621906 0.297874 -1.599007
C 2.661323 0.131492 -1.615821
C 2.504384 -0.104218 -1.526852
C 2.497896 -0.180506 -1.547981
C 2.549900 -0.391477 -1.611974
C 2.566599 -0.924232 -1.568539
C 2.531025 -1.294300 -1.494285
C 2.539753 -1.103019 -1.560668
C 2.340074 -0.800196 -1.569554
C 2.191927 -0.247410 -1.648054
C 1.947353 0.369298 -1.701925
C 1.618248 1.004048 -1.765121
C 1.364348 1.740311 -1.894671
C 1.061478 2.551648 -1.978952
C 0.751695 2.735327 -2.005556
C 0.549242 2.750633 -2.055376
C 0.424145 2.661267 -2.154157
C 0.378317 2.346001 -2.131481
C 0.386465 2.028586 -2.086016
C 0.350215 1.857703 -2.102617
C 0.338319 1.706371 -2.210078
C 0.265718 1.692846 -2.263699
C 0.220869 1.782196 -2.235438
C 0.089544 1.978114 -2.190706
C -0.096038 2.322428 -2.292508
C -0.061364 2.640498 -2.394197
C -0.306204 2.218420 -2.516894
C -0.479779 1.586639 -2.549172
C -0.425569 1.324139 -2.544243
C -0.265659 1.083028 -2.600154
C 0.035216 0.785570 -2.728580
C 0.312071 0.597715 -2.699723
C 0.417902 0.322099 -2.666212
C 0.869494 0.456476 -2.562327
C 1.243813 0.514763 -2.423877
C 1.435966 0.119726 -2.395529
C 1.522166 -0.205105 -2.472606
C 1.440568 -0.339438 -2.325859
C 1.443890 -0.799240 -2.410088
C 1.433855 -1.044359 -2.451267
C 1.409772 -1.146037 -2.515707
C 1.393249 -1.149859 -2.617873
C 1.358556 -1.003032 -2.742802
C 1.302278 -0.791667 -2.796398
C 1.289824 -0.600476 -2.965665
C 1.216760 -0.180268 -2.999726
C 1.101126 0.110690 -3.114992
C 0.927406 0.514782 -3.131564
C 0.852498 0.776756 -3.228884
C 0.789737 0.745779 -3.141149
C 0.735423 0.246924 -2.969831
C 0.720062 -0.196080 -2.849916
C 0.723883 -0.594720 -2.790906
C 0.725949 -0.737515 -2.680826
C 0.813408 -0.936199 -2.738169
C 0.687613 -1.151163 -2.722581
C 0.599127 -1.247650 -2.767041
C 0.519149 -0.921439 -2.990593
C 0.465285 -0.767717 -3.102807
C 0.429175 -0.517425 -3.176200
C 0.410117 -0.370826 -3.192959
C 0.285680 -0.343257 -3.220036
C 0.319979 -0.042224 -3.250770
C 0.300160 0.303838 -3.332698
C 0.229088 0.472690 -3.304801
C 0.223880 0.609307 -3.259329
C 0.242204 0.436090 -3.220280
C 0.132223 -0.065710 -3.269221
C 0.128010 -0.443428 -3.143447
C 0.092241 -1.000832 -3.046925
C 0.094500 -1.544002 -2.929145
C 0.138500 -1.828752 -2.897842
C 0.201333 -2.109628 -2.865437
C 0.201992 -2.437495 -2.799975
C 0.393591 -2.456480 -2.729214
C 0.497946 -2.403262 -2.721147
C 0.577937 -2.317271 -2.742861
C 0.624772 -2.289388 -2.777769
C 0.607118 -2.355245 -2.732851
C 0.578749 -2.523023 -2.765510
C 0.467258 -2.328301 -2.858174
C 0.324266 -1.985503 -2.908087
C 0.139172 -1.694578 -3.013578
C -0.021328 -1.393688 -3.009302
C -0.146500 -0.935867 -3.005171
C -0.224782 -0.594527 -3.000631
C -0.421469 -0.236735 -3.054634
C -0.624972 -0.026706 -3.121245
C -0.794200 0.122016 -3.188077
C -0.863799 0.359062 -3.125943
C -0.951115 0.592559 -3.119377
C -1.068640 0.671278 -3.149278
C -1.174804 0.901329 -3.125073
C -1.247781 0.966128 -3.124313
C -1.227686 1.012408 -3.065434
C -1.273831 0.905378 -3.024261
C -1.388195 0.765607 -3.089191
C -1.546755 0.785156 -3.176537
C -1.625449 0.865306 -3.178039
C -1.749485 0.926058 -3.212550
C -2.046053 0.960655 -3.226031
C -2.142956 1.020005 -3.197365
C -2.257101 0.961608 -3.177889
C -2.382311 0.781206 -3.147876
C -2.374517 0.691690 -3.085375
C -2.446060 0.517932 -3.058677
C -2.442700 0.345678 -3.045849
C -2.386070 0.514786 -2.991289
C -2.437956 0.497357 -2.989637
C -2.474587 0.658669 -2.988741
C -2.434398 0.986986 -2.948670
