319
chr7 3D structure from Hi-C (resolution 500000bp)
C -4.252538 0.062653 -0.148885
C -4.244718 -0.125822 0.020708
C -4.154327 -0.231431 -0.034388
C -3.966970 -0.206216 -0.289823
C -3.710902 -0.304341 -0.540506
C -3.534355 -0.196230 -0.867846
C -3.390380 -0.161753 -1.002139
C -3.322946 -0.266140 -0.984424
C -3.251751 -0.372328 -0.951043
C -3.157467 -0.546078 -0.779324
C -3.267431 -0.838982 -0.470522
C -3.232415 -1.245501 -0.302276
C -3.204453 -1.750523 0.003141
C -2.956596 -2.121391 -0.074372
C -2.382130 -2.195832 -0.595193
C -1.778407 -2.198465 -1.289065
C -1.316199 -2.145458 -1.996233
C -0.741539 -2.102609 -2.594512
C -0.317640 -2.149153 -2.761657
C 0.011370 -2.187094 -3.044074
C 0.282207 -2.179666 -3.221064
C 0.300544 -2.294762 -3.145874
C 0.286006 -2.450001 -3.000245
C 0.395385 -2.568239 -2.875213
C 0.445183 -2.648545 -2.780094
C 0.398480 -2.534551 -2.966634
C 0.461907 -2.444145 -3.119391
C 0.468013 -2.338473 -3.209383
C 0.481864 -2.266832 -3.290844
C 0.433569 -2.218796 -3.317629
C 0.282941 -2.244694 -3.256406
C 0.104537 -2.369455 -2.956806
C 0.103329 -2.507787 -2.712406
C 0.129722 -2.652504 -2.541343
C 0.080449 -2.840213 -2.369279
C -0.035109 -2.940006 -2.306693
C -0.045503 -3.070381 -2.129334
C -0.098116 -3.152664 -1.874350
C -0.064506 -3.143945 -2.028529
C -0.150644 -3.202629 -1.931630
C -0.285608 -3.153460 -1.870600
C -0.441254 -3.150397 -1.662765
C -0.623251 -3.210170 -1.280324
C -0.893343 -3.155016 -0.955697
C -1.013648 -3.156417 -0.869304
C -1.180430 -3.099827 -0.727882
C -1.344229 -3.094314 -0.521127
C -1.480819 -3.086347 -0.375111
C -1.655350 -2.991699 -0.313839
C -1.789088 -2.930523 -0.249198
C -1.825548 -2.918454 -0.403265
C -1.903170 -2.870561 -0.491996
C -1.964266 -2.898141 -0.350204
C -1.909522 -2.891101 -0.472162
C -1.834713 -2.883165 -0.471733
C -1.688558 -2.846721 -0.644447
C -1.615527 -2.790616 -0.841791
C -1.611967 -2.732928 -0.711656
C -1.664070 -2.592501 -0.640365
C -1.591066 -2.480279 -0.917854
C -1.570120 -2.309555 -1.158412
C -1.710547 -2.144552 -1.384750
C -1.864875 -2.114745 -1.326846
C -1.738682 -2.059780 -1.468688
C -1.539139 -1.912409 -1.894151
C -1.399771 -1.782286 -2.279060
C -1.410970 -1.676268 -2.405667
C -1.500241 -1.620177 -2.456292
C -1.540318 -1.637872 -2.262037
C -1.523503 -1.573416 -2.228896
C -1.614532 -1.542861 -2.057788
C -1.753347 -1.681603 -1.719252
C -1.902993 -1.789372 -1.399847
C -1.863712 -1.856217 -1.108980
C -1.802054 -1.889587 -0.941397
C -1.623810 -1.865210 -1.118547
C -1.665552 -1.848205 -1.167223
C -1.803077 -1.780516 -1.356200
C -1.746307 -1.568774 -1.684951
C -1.663473 -1.399048 -1.937088
C -1.787213 -1.271310 -2.099565
C -1.818498 -1.166988 -2.255970
C -1.888134 -1.027600 -2.299703
C -1.910924 -0.937072 -2.292452
C -1.964818 -0.941815 -2.016790
C -2.257682 -1.008067 -1.605960
C -2.456064 -1.124920 -1.145904
C -2.542374 -1.094538 -0.959199
C -2.692515 -1.016372 -0.851741
C -2.718887 -0.940262 -0.847588
C -2.584110 -0.817399 -1.050853
C -2.431043 -0.711370 -1.236443
C -2.242736 -0.630685 -1.455525
C -1.914249 -0.500755 -1.888789
C -1.512534 -0.466095 -2.259078
C -1.121806 -0.479022 -2.473882
C -0.893783 -0.562399 -2.559774
C -0.848781 -0.651526 -2.398314
C -0.715728 -0.586885 -2.551119
C -0.536718 -0.465702 -2.792044
C -0.495089 -0.322053 -2.972946
C -0.542431 -0.126530 -3.004994
C -0.577864 0.025012 -3.024314
C -0.554628 0.207810 -3.157041
C -0.345810 0.397746 -3.492702
C -0.193164 0.494661 -3.624808
C -0.188160 0.549690 -3.602576
C -0.293245 0.490418 -3.319591
C -0.560685 0.475070 -3.044478
C -0.812717 0.594698 -2.870739
C -1.027098 0.861226 -2.868293
C -1.274816 1.071726 -2.827237
C -1.599407 1.337112 -2.842584
C -1.908652 1.866532 -2.836829
C -2.266138 2.549533 -2.693590
C -2.593570 3.098028 -2.469353
C -2.945099 3.542819 -2.124748
C -2.393007 3.804959 -2.138447
C -2.017659 4.033861 -2.274597
C -1.719788 4.277792 -2.333882
C -1.306584 4.250589 -2.554171
C -0.979118 4.042400 -2.997913
C -0.521455 3.966927 -3.438090
C 0.030580 3.821710 -3.879885
C -0.538702 3.761273 -3.698523
C -0.785345 3.677276 -3.409695
C -1.007447 3.437893 -3.009840
C -1.325653 3.183953 -2.487703
C -1.537470 2.839260 -1.824078
C -1.666292 2.331225 -1.277072
C -1.935935 1.882648 -0.658682
C -2.034551 1.592838 -0.317770
C -2.066127 1.484488 -0.231323
C -1.908608 1.501167 -0.335477
C -1.596333 1.508800 -0.561947
C -1.293395 1.619786 -0.907878
C -1.235330 1.688811 -1.013621
C -1.021218 1.785999 -1.257141
C -0.824081 1.705276 -1.309001
C -0.798841 1.693961 -1.324910
C -0.836750 1.686149 -1.293493
C -0.919162 1.656955 -1.217907
C -1.190544 1.610274 -0.920723
C -1.539381 1.599251 -0.597969
C -1.776920 1.443723 -0.257909
C -2.013817 1.167480 0.205913
C -2.430180 0.786271 0.932241
C -2.976988 0.535779 1.611195
C -3.211083 0.091187 2.217494
C -3.131864 -0.233234 2.501435
C -2.481600 -0.989704 2.607755
C -2.147841 -1.319057 2.648282
C -1.782831 -1.478623 2.508647
C -1.028153 -1.384012 1.941677
C -0.077421 -1.380787 1.322613
C 0.559517 -1.129719 0.725180
C 1.223578 -0.916189 0.123372
C 1.489970 -0.223212 -0.536916
C 1.897147 0.173086 -1.089221
C 2.292718 0.455598 -1.575460
C 2.288475 0.342510 -1.461097
C 2.357774 0.133295 -1.408413
C 2.440902 0.053242 -1.322209
C 2.518702 -0.049614 -1.257891
C 2.583406 -0.240970 -1.118380
C 2.670462 -0.372068 -1.050168
C 2.769835 -0.421347 -1.004493
C 3.016026 -0.424467 -1.122842
C 3.157188 -0.398080 -1.108594
C 3.250588 -0.541054 -1.103758
C 3.237290 -0.661918 -0.981436
C 3.057729 -0.773476 -0.726129
C 2.895073 -0.914847 -0.415401
C 2.746960 -1.092242 -0.137502
C 2.739097 -1.194384 -0.058348
C 2.739901 -1.193030 -0.108090
C 2.741517 -1.056013 -0.107910
C 2.703613 -1.119317 -0.023859
C 2.729467 -1.144914 0.010327
C 2.795642 -1.085142 -0.080032
C 2.769902 -1.060909 -0.054779
C 2.464123 -1.197246 0.258679
C 2.118927 -1.380792 0.705678
C 1.929696 -1.645557 0.975995
C 1.975222 -1.670059 1.065517
C 2.072392 -1.657405 1.018467
C 2.067026 -1.726564 1.058440
C 2.158847 -1.726088 1.053462
C 2.358380 -1.517212 0.873761
C 2.421503 -1.372073 0.711167
C 2.421728 -1.263653 0.662676
C 2.241197 -1.227322 0.694598
C 2.096696 -1.198191 0.769667
C 1.712698 -1.106126 0.969399
C 1.215740 -1.042269 1.206200
C 0.655873 -1.077553 1.514220
C 0.242132 -1.133167 1.848046
C -0.304958 -1.183094 2.280156
C -0.828563 -1.156670 2.610579
C -1.209394 -1.127555 2.883366
C -1.294101 -1.188569 3.074947
C -1.330639 -1.314183 3.234002
C -1.068989 -1.472361 3.313518
C -0.742527 -1.586252 3.296372
C -0.254742 -1.594900 3.087762
C 0.247642 -1.667181 2.929515
C 0.605983 -1.656861 2.788648
C 0.752774 -1.673956 2.744594
C 0.916462 -1.597977 2.663693
C 0.887193 -1.490643 2.637922
C 0.833911 -1.362340 2.636109
C 0.686126 -1.301847 2.735959
C 0.573720 -1.215373 2.773126
C 0.603318 -1.124116 2.728964
C 0.962812 -0.893269 2.419671
C 1.446069 -0.598026 2.001594
C 1.913345 -0.175841 1.505627
C 2.330263 0.164617 1.082338
C 2.690803 0.369347 0.773101
C 2.956471 0.395755 0.733186
C 3.206257 0.451508 0.653783
C 3.123512 0.462592 0.764402
C 3.048798 0.325043 1.026436
C 3.027883 0.153093 1.180791
C 3.066045 0.089454 1.264124
C 3.146640 0.022558 1.327742
C 3.137248 0.091905 1.319325
C 3.161944 0.186046 1.279208
C 3.401490 0.214645 1.215040
C 3.393920 0.268865 1.223990
C 3.180454 0.248572 1.408560
C 2.897767 0.104375 1.682611
C 2.736758 0.156637 1.771923
C 2.777759 0.319393 1.599174
C 2.844435 0.442056 1.506618
C 2.843526 0.601781 1.379325
C 3.002261 0.670701 1.236062
C 3.103207 0.661520 1.253195
C 3.179803 0.693879 1.245705
C 3.173160 0.711155 1.368569
C 3.189850 0.736469 1.449237
C 3.079321 0.751314 1.583291
C 2.919252 0.742795 1.709860
C 2.747787 0.882689 1.769922
C 2.709162 1.025985 1.685226
C 2.811713 1.295950 1.451868
C 2.854531 1.509941 1.269033
C 2.882151 1.682425 1.132438
C 2.883443 1.819946 0.991778
C 2.852963 1.848948 1.132542
C 2.744226 1.787610 1.316314
C 2.682734 1.840073 1.357264
C 2.359364 1.584125 1.622129
C 2.005099 1.341391 1.873002
C 1.450225 0.973510 2.403365
C 0.879417 0.607579 2.885560
C 0.416345 0.372555 3.118429
C 0.001088 0.225399 3.315392
C -0.348780 0.036557 3.548376
C -0.490770 -0.004413 3.671242
C -0.516383 0.113528 3.608004
C -0.360040 0.343591 3.351886
C -0.169421 0.494754 3.257521
C 0.010478 0.578921 3.179389
C 0.235158 0.590299 3.046809
C 0.409267 0.669641 2.948489
C 0.539084 0.813966 2.888184
C 0.565663 0.737075 2.979148
C 0.657638 0.696992 3.021285
C 0.863743 0.897822 2.797911
C 1.118533 1.180399 2.482357
C 1.322609 1.457692 2.218446
C 1.402315 1.526220 2.142458
C 1.449162 1.641470 2.090518
C 1.482167 1.794993 2.015301
C 1.310007 1.764018 2.085773
C 1.009040 1.529706 2.300380
C 0.618904 1.298735 2.595052
C 0.294551 1.138549 2.894936
C 0.165979 1.216757 2.882272
C 0.177592 1.289619 2.856469
C -0.196673 1.747276 2.787572
C -0.709087 2.295724 2.547259
C -0.556594 2.537676 2.419110
C -0.269696 2.928328 2.331000
C -0.017248 3.204796 2.194651
C 0.164439 3.287872 2.056570
C 0.324128 3.445294 1.774072
C 0.952137 3.258775 1.512793
C 1.798180 3.088919 1.299614
C 1.970880 3.276361 1.008375
C 2.027536 3.260843 0.744316
C 2.023815 3.292506 0.492497
C 1.979586 3.515822 0.527194
C 1.677394 3.338384 0.803902
C 1.264292 3.062418 1.181018
C 0.839719 2.850303 1.587243
C 0.328176 2.613174 2.043057
C -0.145727 2.356227 2.343447
C -0.579758 2.080935 2.703134
C -0.929594 1.785997 2.888163
C -1.069000 1.800030 2.896720
C -1.011598 1.968691 2.723394
C -0.785008 2.194208 2.408650
C -0.477970 2.515175 1.991981
C -0.164709 2.836429 1.641207
C 0.042538 3.083660 1.363118
C 0.137096 3.177928 1.194695
C 0.185214 3.261527 1.100028
C 0.165798 3.295218 1.052298
C -0.054448 3.122005 1.233462
C -0.263107 2.865483 1.397513
C -0.449282 2.920624 1.339591
C -0.497705 3.154875 1.212953
C -0.565697 3.161128 1.149500
C -0.563451 3.366706 0.970538
C -0.621049 3.429267 0.888903
C -0.594237 3.644762 0.690509
C -0.533911 3.968036 0.441768
