319
chr7 3D structure from Hi-C (resolution 500000bp)
C -4.273673 -0.185552 0.222229
C -4.206573 -0.397868 0.388904
C -4.077779 -0.462247 0.306800
C -3.957596 -0.424348 0.021837
C -3.690229 -0.448536 -0.298273
C -3.538767 -0.346891 -0.669115
C -3.409227 -0.245090 -0.931784
C -3.324236 -0.257532 -0.978937
C -3.305783 -0.360821 -1.018566
C -3.250876 -0.574173 -0.904868
C -3.291958 -0.827721 -0.620835
C -3.313394 -1.156689 -0.409899
C -3.276379 -1.553107 -0.111897
C -2.919163 -1.915372 -0.173595
C -2.400306 -2.010279 -0.708781
C -1.902477 -1.976515 -1.396617
C -1.503931 -1.848096 -2.102391
C -1.059350 -1.756221 -2.725907
C -0.678070 -1.891514 -2.977700
C -0.344953 -1.967305 -3.288246
C -0.145175 -1.869069 -3.544394
C -0.121759 -2.006837 -3.439552
C -0.103129 -2.105106 -3.290131
C 0.041889 -2.144508 -3.203823
C 0.156578 -2.157879 -3.169477
C 0.301065 -2.001240 -3.296830
C 0.447591 -1.942554 -3.405558
C 0.390293 -2.005317 -3.399033
C 0.366517 -1.936114 -3.511517
C 0.407755 -1.914874 -3.589308
C 0.323823 -2.002559 -3.462079
C 0.266775 -2.242405 -3.108069
C 0.211520 -2.465425 -2.876828
C 0.177377 -2.550888 -2.735108
C 0.149095 -2.643475 -2.615308
C 0.211117 -2.736117 -2.541149
C 0.242718 -2.878768 -2.372209
C 0.166351 -3.012418 -2.138232
C 0.147632 -3.032013 -2.244532
C 0.067859 -3.067701 -2.158309
C -0.061519 -3.130782 -2.024304
C -0.164512 -3.166307 -1.767942
C -0.449514 -3.256568 -1.327693
C -0.712943 -3.251303 -0.967274
C -0.845040 -3.278361 -0.949502
C -0.999384 -3.277727 -0.768586
C -1.169473 -3.297543 -0.543821
C -1.298130 -3.278201 -0.446343
C -1.452716 -3.218004 -0.402574
C -1.558742 -3.181466 -0.392832
C -1.645911 -3.141861 -0.491633
C -1.701534 -3.120437 -0.505311
C -1.757176 -3.097003 -0.475591
C -1.715525 -3.022934 -0.564615
C -1.665199 -3.002150 -0.538497
C -1.596958 -2.975028 -0.663857
C -1.569018 -2.876884 -0.877638
C -1.575688 -2.812192 -0.763397
C -1.599526 -2.656068 -0.665453
C -1.556666 -2.492852 -0.874605
C -1.570895 -2.348695 -1.142903
C -1.625097 -2.213715 -1.319243
C -1.788779 -2.158803 -1.388163
C -1.661556 -2.098066 -1.488698
C -1.513697 -1.949414 -1.930837
C -1.422105 -1.779991 -2.320134
C -1.398338 -1.658396 -2.414926
C -1.456055 -1.633584 -2.457964
C -1.578642 -1.661289 -2.356402
C -1.543520 -1.612990 -2.239479
C -1.683082 -1.637552 -2.074272
C -1.775298 -1.752640 -1.800113
C -1.906563 -1.901689 -1.430515
C -1.989794 -2.040161 -1.129835
C -1.892000 -2.036919 -0.933628
C -1.764736 -1.953216 -1.077102
C -1.769190 -1.890535 -1.062030
C -1.782247 -1.774968 -1.200955
C -1.809815 -1.549838 -1.454324
C -1.818774 -1.297988 -1.729537
C -1.851324 -1.117373 -1.967217
C -1.958962 -0.991518 -2.168559
C -2.037471 -0.881984 -2.178705
C -2.054326 -0.815435 -2.225385
C -2.165939 -0.858659 -1.962659
C -2.337775 -0.969939 -1.555353
C -2.485962 -1.172380 -1.119917
C -2.619790 -1.176064 -0.961348
C -2.784474 -1.161968 -0.804598
C -2.749580 -1.042621 -0.836584
C -2.681871 -0.916064 -1.070990
C -2.541070 -0.761045 -1.321959
C -2.352424 -0.654218 -1.517965
C -2.029286 -0.479898 -1.940749
C -1.660261 -0.404211 -2.263987
C -1.198867 -0.330217 -2.485213
C -1.007515 -0.371055 -2.558084
C -0.921047 -0.447130 -2.344137
C -0.798732 -0.386364 -2.484618
C -0.665511 -0.233878 -2.764983
C -0.622581 -0.054796 -2.942301
C -0.668549 0.053777 -2.995945
C -0.745237 0.187403 -3.052292
C -0.698882 0.340924 -3.176513
C -0.523784 0.564256 -3.525197
C -0.361240 0.684064 -3.627187
C -0.310576 0.701325 -3.548044
C -0.373874 0.595733 -3.286468
C -0.524421 0.625577 -2.973362
C -0.737224 0.706410 -2.794950
C -0.988290 0.906874 -2.779477
C -1.287178 1.088232 -2.689792
C -1.575168 1.386056 -2.688167
C -1.939758 1.924446 -2.674994
C -2.383142 2.574580 -2.479566
C -2.802642 3.081109 -2.201662
C -3.187888 3.520022 -1.795968
C -3.082467 4.046371 -1.537603
C -2.791022 4.407847 -1.603618
C -2.424468 4.563478 -1.704352
C -1.810850 4.507422 -1.969119
C -1.327199 4.367937 -2.486565
C -0.810497 4.327749 -3.006928
C -0.300139 4.240052 -3.459012
C -0.349804 3.971584 -3.590540
C -0.418254 3.658741 -3.444538
C -0.803361 3.420242 -3.029919
C -1.273323 3.176954 -2.531658
C -1.575490 2.796802 -1.854952
C -1.737109 2.301042 -1.268344
C -1.934735 1.751066 -0.693371
C -2.032583 1.433625 -0.334484
C -2.147855 1.440015 -0.180469
C -1.992988 1.465145 -0.273978
C -1.776642 1.516142 -0.443743
C -1.474349 1.652567 -0.728466
C -1.366911 1.648106 -0.839197
C -1.127024 1.772387 -1.128939
C -0.967513 1.662100 -1.170175
C -0.848821 1.665718 -1.218718
C -0.868379 1.665013 -1.174040
C -0.904749 1.596829 -1.085133
C -1.145855 1.475416 -0.838771
C -1.459395 1.423604 -0.454775
C -1.702714 1.266739 -0.072829
C -1.909205 0.955289 0.361162
C -2.312713 0.452169 1.079601
C -2.741717 -0.010376 1.833177
C -2.900223 -0.464558 2.421014
C -2.772049 -0.833889 2.699226
C -2.163016 -1.476278 2.718394
C -1.867401 -1.776573 2.726262
C -1.493872 -1.870348 2.575087
C -0.810522 -1.744881 2.013939
C 0.080736 -1.608384 1.269470
C 0.678747 -1.355810 0.632983
C 1.256003 -1.056269 0.010300
C 1.507278 -0.337634 -0.644254
C 1.880908 0.124231 -1.149752
C 2.246976 0.421897 -1.619559
C 2.307636 0.196512 -1.468059
C 2.383510 0.112505 -1.379880
C 2.472886 -0.003876 -1.298129
C 2.549989 -0.086321 -1.169232
C 2.597632 -0.321369 -1.022941
C 2.732856 -0.564581 -0.953420
C 2.810906 -0.700674 -0.896328
C 3.031062 -0.523132 -1.081946
C 3.191128 -0.505043 -1.129966
C 3.283281 -0.467938 -1.170484
C 3.297919 -0.574188 -1.106402
C 3.171288 -0.629597 -0.948153
C 3.007846 -0.733541 -0.723968
C 2.897204 -0.823976 -0.489412
C 2.875004 -0.907184 -0.403532
C 2.849631 -0.848376 -0.385149
C 2.771954 -0.777158 -0.348533
C 2.728528 -0.893046 -0.264365
C 2.699618 -0.906278 -0.181630
C 2.725185 -0.808289 -0.243867
C 2.718248 -0.762150 -0.223335
C 2.421354 -0.889893 0.081410
C 2.093798 -1.136023 0.460868
C 2.006191 -1.481913 0.769010
C 2.076829 -1.482465 0.817474
C 2.213512 -1.518795 0.782156
C 2.269861 -1.585356 0.830571
C 2.332009 -1.606764 0.809006
C 2.537488 -1.479894 0.656501
C 2.599402 -1.407301 0.570130
C 2.606474 -1.216442 0.436208
C 2.397345 -1.041216 0.449545
C 2.323684 -1.039147 0.552042
C 1.938383 -0.996585 0.764880
C 1.471368 -0.961606 1.061865
C 0.937806 -0.998549 1.355727
C 0.520903 -0.998045 1.641839
C 0.004072 -1.173771 2.150859
C -0.399955 -1.416825 2.537454
C -0.818258 -1.401257 2.771916
C -0.906349 -1.495896 2.938805
C -0.924837 -1.653764 3.082994
C -0.659888 -1.845153 3.136547
C -0.321002 -1.974420 3.121497
C 0.118590 -1.920523 2.881044
C 0.486902 -1.782452 2.720540
C 0.763781 -1.739408 2.582763
C 0.898544 -1.746967 2.554087
C 1.018494 -1.670591 2.479048
C 1.005041 -1.522399 2.462918
C 0.938560 -1.394372 2.477510
C 0.835190 -1.351669 2.591658
C 0.744281 -1.344802 2.655435
C 0.817870 -1.231412 2.693792
C 1.167406 -0.893961 2.396404
C 1.629891 -0.504371 1.995726
C 2.031302 -0.028704 1.522362
C 2.398942 0.344319 1.060777
C 2.714562 0.595633 0.813660
C 2.995404 0.729038 0.692716
C 3.199590 0.818831 0.555979
C 3.146773 0.795042 0.663406
C 3.068844 0.647633 0.899300
C 3.065303 0.466469 1.114953
C 3.120718 0.381296 1.214895
C 3.211458 0.357687 1.192421
C 3.155925 0.338136 1.242190
C 3.236255 0.321154 1.224981
C 3.459548 0.332665 1.077397
C 3.446731 0.266019 1.148866
C 3.278179 0.161167 1.310566
C 3.025212 -0.020902 1.595487
C 2.860657 0.032885 1.659273
C 2.947016 0.184460 1.574175
C 2.969340 0.381359 1.450427
C 2.959182 0.536906 1.420599
C 3.070429 0.841225 1.104026
C 3.135423 0.881526 1.053087
C 3.193926 0.949374 0.995733
C 3.141678 0.874620 1.155891
C 3.095950 0.949971 1.124040
C 3.000320 0.977341 1.277496
C 2.832652 0.964784 1.440790
C 2.711233 0.936211 1.587373
C 2.644370 1.144190 1.495191
C 2.755084 1.407676 1.346340
C 2.802929 1.610871 1.230194
C 2.862484 1.748575 1.159688
C 2.802084 1.895655 1.024336
C 2.764973 1.886391 1.213467
C 2.659222 1.889471 1.452660
C 2.587674 1.880135 1.531687
C 2.275423 1.609061 1.818842
C 1.948341 1.362146 1.999595
C 1.400515 0.951321 2.480811
C 0.930828 0.526169 2.936016
C 0.487808 0.294868 3.034068
C 0.134097 0.047789 3.203783
C -0.124564 -0.157705 3.462836
C -0.250799 -0.201539 3.587563
C -0.267865 -0.078738 3.584938
C -0.123548 0.157998 3.439387
C 0.045711 0.333566 3.359925
C 0.242280 0.425287 3.313688
C 0.452259 0.458195 3.230134
C 0.583259 0.536482 3.098865
C 0.699988 0.658275 3.008490
C 0.691953 0.599067 3.046242
C 0.806344 0.582590 2.985506
C 0.977068 0.752527 2.739779
C 1.195378 1.096280 2.423692
C 1.365982 1.428780 2.172130
C 1.414896 1.547235 2.119183
C 1.409730 1.696239 1.985359
C 1.508258 1.846506 1.942040
C 1.293300 1.802045 2.025257
C 1.069816 1.587026 2.308666
C 0.712793 1.287203 2.662291
C 0.339273 1.051083 2.868448
C 0.213539 1.099908 2.875337
C 0.186777 1.172940 2.959541
C -0.259743 1.601929 2.960264
C -0.850634 2.044803 2.805146
C -0.802243 2.273541 2.648880
C -0.609564 2.665649 2.563857
C -0.354237 2.957032 2.465971
C -0.182057 3.049603 2.344071
C 0.014759 3.231515 2.008742
C 0.644531 3.097273 1.690269
C 1.542644 3.062118 1.505552
C 1.725592 3.313396 1.261456
C 1.842129 3.321250 0.948473
C 1.867181 3.380908 0.709566
C 1.798753 3.623169 0.729917
C 1.493578 3.379450 1.008078
C 1.125624 3.092564 1.367365
C 0.745410 2.799684 1.681463
C 0.286751 2.470812 2.115309
C -0.169010 2.159311 2.455718
C -0.608218 1.816892 2.864133
C -0.900039 1.510010 3.011159
C -1.038067 1.515810 3.091096
C -1.017367 1.634755 2.908030
C -0.832019 1.938867 2.609852
C -0.551533 2.316237 2.093963
C -0.301638 2.688723 1.777919
C -0.087597 3.005481 1.478452
C -0.014494 3.087063 1.350368
C 0.009668 3.195877 1.212206
C -0.035159 3.249332 1.178375
C -0.249245 3.016973 1.364765
C -0.494804 2.714211 1.620691
C -0.739502 2.732303 1.603688
C -0.860395 2.945282 1.499725
C -0.949225 2.949899 1.468627
C -0.943620 3.150925 1.309273
C -1.022523 3.207831 1.275660
C -1.016504 3.446004 1.100550
C -0.993979 3.784833 0.912277
