498
chr1 3D structure from Hi-C (resolution 500000bp)
C -1.401880 1.551306 4.002125
C -1.585594 1.566297 3.845474
C -1.706207 1.665501 3.760341
C -1.844220 1.621061 3.648657
C -2.010295 1.376409 3.588180
C -2.222257 1.429022 3.389164
C -2.422056 1.507352 3.140412
C -2.606969 1.678265 2.900643
C -2.694819 1.673640 2.790679
C -2.811167 1.546616 2.676310
C -2.796551 1.367961 2.656003
C -2.796346 1.210978 2.620974
C -2.827181 1.029825 2.632444
C -2.768318 0.813936 2.769016
C -2.641536 0.477864 2.960581
C -2.544456 0.068439 3.060523
C -2.366296 -0.272430 3.260878
C -2.297654 -0.438572 3.353101
C -2.255401 -0.588425 3.457006
C -2.195808 -0.796039 3.517356
C -2.291212 -0.944837 3.386835
C -2.353496 -0.897931 3.340563
C -2.373481 -0.629545 3.400086
C -2.406840 -0.353471 3.382342
C -2.527391 -0.134313 3.222061
C -2.630254 0.091075 2.997008
C -2.741982 0.315351 2.829128
C -2.772151 0.457884 2.809237
C -2.845142 0.380354 2.741038
C -2.901942 0.137657 2.650022
C -2.917959 -0.214559 2.628700
C -2.958930 -0.334002 2.685643
C -3.005881 -0.445738 2.732024
C -3.032823 -0.536699 2.712877
C -3.072449 -0.586058 2.645255
C -3.099505 -0.636834 2.497001
C -3.165115 -0.616019 2.341655
C -3.343322 -0.457432 2.114319
C -3.271268 -0.692230 2.121088
C -3.151930 -1.046333 2.194033
C -3.114177 -1.354279 2.216445
C -3.079898 -1.548644 2.185499
C -3.123250 -1.581205 2.160406
C -3.085845 -1.761194 2.190061
C -2.958086 -2.088430 2.204841
C -3.003196 -2.122423 1.999537
C -3.011400 -2.164205 1.914514
C -2.994428 -2.235096 1.822191
C -2.943887 -2.396040 1.841482
C -2.835708 -2.543503 1.795080
C -2.767223 -2.726499 1.726159
C -2.798420 -2.790484 1.623594
C -2.786713 -2.939579 1.562362
C -2.806935 -2.979659 1.374174
C -2.882466 -2.915192 1.294642
C -3.016914 -2.647709 1.201217
C -3.156277 -2.349057 1.167323
C -3.369792 -1.835591 1.155113
C -3.473144 -1.527297 1.107223
C -3.542421 -1.282987 1.066360
C -3.633015 -1.216654 1.047749
C -3.606499 -1.314600 0.918954
C -3.580611 -1.485599 0.810329
C -3.604888 -1.525124 0.761551
C -3.603933 -1.469226 0.709096
C -3.646595 -1.306793 0.661195
C -3.711477 -1.118348 0.657912
C -3.822254 -1.003631 0.703437
C -3.918922 -0.925609 0.677991
C -4.019847 -0.824080 0.649594
C -4.055650 -0.761210 0.603648
C -4.055959 -0.892049 0.502985
C -4.043174 -1.123958 0.375452
C -4.043537 -1.218253 0.284870
C -3.976224 -1.133296 0.147673
C -3.916204 -1.161269 -0.019767
C -3.803756 -1.249706 -0.129148
C -3.714656 -1.543749 -0.390036
C -3.630843 -1.714899 -0.547528
C -3.585206 -1.641747 -0.628480
C -3.497660 -1.679743 -0.721357
C -3.483109 -1.748844 -0.970727
C -3.583251 -1.490570 -0.915451
C -3.623420 -1.397100 -0.968137
C -3.694398 -1.285601 -0.986611
C -3.781725 -1.082273 -0.921943
C -3.790218 -1.003358 -0.947252
C -3.872300 -0.888497 -1.013964
C -3.936924 -0.718062 -1.060550
C -3.915909 -0.606713 -1.181185
C -3.964210 -0.210742 -1.044582
C -3.874611 0.179539 -0.875833
C -3.770345 0.451601 -0.780068
C -3.674851 0.872539 -0.526724
C -3.476561 1.236593 -0.335403
C -3.242932 1.751340 0.105502
C -3.018019 2.186873 0.503052
C -2.868905 2.381633 0.606854
C -2.901515 2.399795 0.351553
C -2.970381 2.333701 0.096228
C -3.083857 2.039239 -0.325392
C -3.264192 1.779491 -0.684540
C -3.383746 1.309461 -1.059353
C -3.575169 0.965174 -1.400589
C -3.596393 0.680480 -1.591560
C -3.569761 0.601327 -1.462517
C -3.519017 0.590896 -1.404716
C -3.479787 0.796759 -1.177307
C -3.448431 1.107721 -0.837493
C -3.371459 1.340333 -0.733994
C -3.240087 1.542313 -0.683692
C -3.179272 1.812801 -0.645236
C -3.067354 2.097652 -0.499466
C -2.979584 2.282974 -0.402331
C -2.878631 2.307946 -0.435119
C -2.848439 2.276959 -0.540682
C -2.877472 2.500162 -0.393590
C -2.760157 2.719918 -0.246038
C -2.716103 2.845917 -0.205880
C -2.722192 2.922743 -0.201689
C -2.657431 2.967154 -0.282478
C -2.584219 2.992627 -0.383135
C -2.550270 2.948373 -0.590928
C -2.462211 2.836443 -0.857752
C -2.549481 2.710854 -1.065751
C -2.617689 2.562005 -1.311995
C -2.596354 2.467012 -1.525054
C -2.599163 2.492294 -1.644792
C -2.630058 2.642922 -1.675217
C -2.474921 2.778823 -1.610429
C -2.419050 2.941371 -1.535726
C -2.287667 2.907224 -1.579547
C -2.088236 3.016748 -1.553454
C -1.899375 3.094658 -1.534570
C -1.753358 3.256806 -1.302547
C -1.594145 3.390175 -1.082949
C -1.502269 3.551909 -0.960201
C -1.357865 3.586882 -0.872980
C -1.201496 3.731349 -0.735252
C -1.065693 3.876109 -0.587947
C -0.963088 4.006730 -0.408253
C -0.790694 4.039360 -0.403417
C -0.576619 4.075852 -0.379860
C -0.275412 4.110253 -0.271576
C -0.069098 4.191093 -0.244475
C 0.094237 4.243612 -0.266976
C 0.207569 4.170618 -0.341425
C 0.269423 4.186819 -0.456443
C 0.276104 4.153918 -0.604528
C 0.164247 4.074823 -0.853024
C -0.013204 4.017110 -1.076713
C -0.109171 3.884020 -1.281812
C 0.007483 3.831584 -1.318019
C -0.019100 3.785429 -1.447015
C 0.124644 3.708871 -1.482572
C 0.181394 3.569793 -1.604947
C 0.365024 3.492144 -1.643983
C 0.559272 3.456430 -1.664685
C 0.790257 3.504116 -1.640012
C 0.697947 3.520703 -1.778540
C 0.889524 3.495258 -1.779383
C 0.948732 3.437149 -1.914567
C 1.049673 3.467761 -1.972611
C 1.151666 3.513151 -2.018388
C 1.113562 3.478400 -2.132727
C 0.983612 3.440636 -2.295057
C 0.810447 3.206565 -2.366212
C 0.588719 3.149035 -2.520812
C 0.324920 3.078595 -2.584110
C 0.162623 2.980144 -2.671016
C 0.232589 2.871900 -2.634428
C -0.055828 2.776331 -2.711082
C -0.299878 2.691577 -2.755804
C -0.362576 2.799124 -2.830192
C -0.474011 2.654548 -2.819631
C -0.613637 2.499008 -2.895396
C -0.770091 2.315172 -2.986247
C -1.253780 2.167953 -3.255691
C -1.292668 2.016563 -3.372661
C -1.353815 1.792174 -3.517454
C -1.444522 1.650266 -3.517029
C -1.475014 1.608962 -3.562463
C -1.524892 1.501506 -3.595858
C -1.664774 1.419635 -3.623325
C -1.752171 1.288876 -3.583366
C -1.603017 1.292310 -3.507160
C -1.444244 1.371399 -3.419275
C -1.206252 1.443720 -3.529587
C -0.735307 1.606911 -3.473693
C -0.126343 1.804951 -3.398816
C 0.322368 2.015199 -3.350489
C 0.744393 2.190366 -3.355722
C 1.070608 2.281528 -3.365676
C 1.404260 2.366160 -3.309151
C 1.452657 2.259115 -3.278649
C 1.250927 2.134413 -3.398629
C 0.990869 1.994951 -3.518361
C 0.893209 1.741539 -3.674189
C 0.751146 1.635941 -3.731276
C 0.461963 1.437875 -3.744282
C 0.310472 1.251794 -3.860207
C 0.446342 1.131609 -3.960542
C 0.536510 1.036261 -4.021108
C 0.716785 0.952499 -4.076111
C 1.011443 0.982683 -4.001283
C 1.238817 0.985984 -3.922769
C 1.531396 1.044809 -3.959598
C 1.591480 1.139507 -3.870079
C 1.614210 1.226199 -3.779385
C 1.797122 1.278178 -3.685601
C 1.837473 1.398531 -3.601230
C 1.597032 1.386575 -3.581515
C 1.389515 1.283807 -3.656860
C 1.116770 1.127852 -3.688060
C 0.765561 0.862059 -3.710536
C 0.326979 0.486622 -3.618401
C -0.349574 0.084026 -3.547042
C -0.979546 -0.363611 -3.463932
C -1.367221 -0.539451 -3.342313
C -1.671256 -0.772049 -3.177900
C -1.944885 -0.931712 -2.991516
C -2.058935 -1.079935 -2.982521
C -2.087894 -1.010189 -3.053755
C -1.999165 -0.886625 -3.181800
C -1.931853 -0.760706 -3.256494
C -1.824102 -0.779695 -3.358931
C -1.720563 -0.744821 -3.498539
C -1.541449 -0.675350 -3.624049
C -1.323979 -0.613685 -3.672784
C -1.200037 -0.665790 -3.757573
C -1.080861 -0.774421 -3.780122
C -0.898075 -0.838548 -3.888458
C -0.759570 -0.861813 -3.943669
C -0.502333 -0.897678 -4.018139
C -0.285603 -0.940958 -4.122845
C -0.220023 -0.869726 -4.054110
C -0.077750 -0.782946 -4.023179
C 0.521209 -0.195407 -3.660100
C 1.098050 0.376222 -3.221965
C 1.632669 0.964807 -2.756210
C 2.026236 1.566640 -2.241823
C 1.507541 1.304674 -2.066452
C 1.783466 1.947469 -1.499863
C 1.282344 1.870818 -1.431262
C 0.597863 2.056436 -0.937763
C -0.015984 2.248647 -0.506004
C -0.159411 2.362723 -0.282632
C -0.250687 2.439202 -0.053767
C 0.571672 3.313416 0.575304
C 0.693173 3.205378 0.718949
C 1.153018 3.661037 1.822343
C 1.279404 3.339373 2.163676
C 1.273844 2.336827 1.301360
C 0.705056 1.378178 0.637548
C 0.003902 0.446933 0.010913
C -0.525849 0.325387 0.357389
C -1.031864 0.251151 0.637313
C -1.114556 0.434388 0.488169
C -1.194980 0.685792 0.274893
C -1.201447 1.626750 1.240154
C -1.038243 2.604018 2.133788
C -0.716743 3.611586 2.914727
C -0.184059 3.768432 2.401759
C 0.386379 3.855050 1.898914
C 1.001105 3.851619 1.471554
C 1.640529 3.785953 1.153595
C 2.243115 3.685890 0.947364
C 2.522427 3.527603 1.097314
C 2.693120 3.342905 1.316445
C 2.415898 3.254889 1.770783
C 2.056091 3.243988 2.194803
C 1.669543 3.303603 2.547827
C 1.335509 3.396976 2.799705
C 1.079130 3.506829 2.920861
C 1.097804 3.667647 2.668523
C 1.119960 3.851028 2.380636
C 1.115553 4.008609 2.144141
C 1.098811 4.102754 2.006429
C 1.024525 3.917971 2.197668
C 0.902430 3.717638 2.437161
C 0.747229 3.541878 2.703268
C 0.789244 3.434519 2.859679
C 0.931378 3.305311 2.988882
C 1.167486 3.147438 3.089102
C 0.975827 2.263175 3.395538
C 0.858350 1.870476 3.506070
C 0.550539 2.028899 3.288476
C 0.089681 1.186718 2.359503
C -0.305718 0.215071 1.554213
C -0.845125 -0.733595 0.742361
C -1.226476 -0.735929 0.836935
C -1.200314 -0.879003 -0.040520
C -1.277919 -1.333229 -1.081216
C -1.267002 -2.349909 -1.819864
C -0.343862 -1.584323 -1.743148
C 0.315506 -0.767665 -1.605032
C 0.317976 -0.871006 -1.428742
C 0.167551 -1.842349 -2.021721
C -0.005417 -1.963426 -1.930628
C -0.085718 -2.049941 -1.679648
C -0.081223 -2.065931 -1.449949
C -0.685851 -2.806069 -1.292495
C -1.321956 -3.604769 -1.161281
C -1.207440 -3.516773 -0.984198
C -1.221342 -3.653541 -0.852929
C -1.181404 -3.684637 -0.690336
C -1.127874 -3.671535 -0.617275
C -1.097508 -3.752856 -0.529091
C -1.172208 -3.958902 -0.399552
C -1.259288 -4.073790 -0.385304
C -1.254314 -4.189024 -0.400168
C -1.076289 -4.084411 -0.578905
C -0.844819 -4.042106 -0.905791
C -0.644311 -4.014769 -1.189098
C -0.375517 -3.998287 -1.359925
C -0.179023 -3.807102 -1.666459
C 0.077505 -3.666835 -1.832832
C 0.187965 -3.622955 -1.886767
C 0.249686 -3.667462 -1.786355
C 0.266041 -3.725169 -1.531186
C 0.356983 -3.730290 -1.495401
C 0.462586 -3.561815 -1.683556
C 0.584545 -3.478982 -1.795164
C 0.775315 -3.372751 -1.933152
C 1.111892 -3.004770 -2.244110
C 1.430260 -2.593462 -2.611622
C 1.715224 -2.214253 -2.936459
C 1.902636 -1.900220 -3.035677
C 1.939051 -1.847183 -2.881178
C 2.009436 -1.778902 -2.840205
C 2.012860 -1.731565 -2.834577
C 1.847714 -1.931474 -2.687654
C 1.633921 -2.158622 -2.378202
C 1.501927 -2.448963 -2.164713
C 1.417044 -2.541776 -2.118501
C 1.447511 -2.594594 -2.124379
C 1.460800 -2.719929 -2.059970
C 1.567178 -2.692728 -2.012712
C 1.727590 -2.614586 -2.021132
C 1.943251 -2.480186 -2.150179
C 2.077907 -2.384661 -2.194482
C 2.136034 -2.539163 -2.114929
C 2.242652 -2.480252 -2.149883
C 2.291941 -2.556723 -2.028351
C 2.246966 -2.777169 -1.895875
C 2.226670 -2.859391 -1.789929
C 2.242018 -2.879519 -1.679787
C 2.270152 -2.837285 -1.591084
C 2.413569 -2.659463 -1.573301
C 2.573287 -2.667336 -1.508010
C 2.762876 -2.479998 -1.576832
C 2.934957 -2.253211 -1.559906
C 3.039110 -2.035942 -1.582763
C 3.125292 -1.872984 -1.790639
C 3.252904 -1.667232 -1.998264
C 3.204583 -1.633590 -1.980940
C 3.082374 -1.599220 -1.914247
C 2.860446 -1.700253 -1.729917
C 2.596118 -1.978564 -1.541486
C 2.422749 -2.175878 -1.322143
C 2.268240 -2.540286 -1.012672
C 2.120312 -2.822516 -0.719200
C 2.063617 -3.087983 -0.519609
C 1.921134 -3.192914 -0.346200
C 2.045094 -3.266753 -0.314767
C 2.301592 -2.990363 -0.524749
C 2.470084 -2.951128 -0.520541
C 2.621990 -2.757849 -0.510875
C 2.816415 -2.344431 -0.672422
C 3.072785 -1.937211 -0.869338
C 3.413925 -1.577781 -1.110540
C 3.573082 -1.210345 -1.197225
C 3.656939 -0.900463 -1.196562
C 3.792344 -0.486265 -1.421574
C 3.904938 -0.089124 -1.586980
C 3.967231 -0.086904 -1.484226
C 3.981691 0.047195 -1.396438
C 4.001975 0.154136 -1.315923
C 4.027573 0.282059 -1.343903
C 4.024046 0.127474 -1.149358
C 4.064538 0.105533 -1.013398
C 4.113722 0.029549 -0.851287
C 4.139454 0.011747 -0.760654
C 4.163014 -0.103998 -0.684862
C 4.162957 -0.078854 -0.557008
C 4.183547 0.115942 -0.438639
C 4.193958 0.393436 -0.436374
C 4.179490 0.566051 -0.307036
C 4.143175 0.627556 -0.242599
C 4.120260 0.820163 -0.173994
C 4.122684 1.062864 -0.114639
C 4.075422 1.028303 -0.027078
C 4.057727 0.762628 0.089269
C 4.069075 0.372215 0.216783
C 4.084304 -0.161966 0.280030
C 3.992880 -0.551319 0.341764
C 3.860479 -0.908697 0.369917
C 3.681102 -1.414341 0.470530
C 3.332950 -1.908255 0.505016
C 2.887807 -2.321557 0.652652
C 2.350921 -2.587548 0.790369
C 1.740746 -2.880828 0.914136
C 1.206904 -3.146550 1.039642
C 0.708234 -3.449152 1.222328
C 0.340513 -3.601660 1.233816
C 0.102774 -3.620459 1.332735
C -0.096790 -3.643990 1.348744
C -0.170858 -3.634632 1.400631
C -0.202750 -3.589149 1.448466
C -0.204682 -3.577990 1.604008
C -0.142562 -3.598268 1.644545
C -0.099804 -3.570364 1.794716
C 0.106861 -3.573146 1.884355
C 0.498900 -3.473796 1.846228
C 0.864818 -3.338769 1.785028
C 1.279521 -3.195452 1.764196
C 1.655829 -3.069732 1.657553
C 2.030581 -2.936938 1.601222
C 2.316042 -2.872790 1.574909
C 2.457111 -2.872602 1.580982
C 2.366255 -2.917595 1.623439
C 2.273881 -3.090597 1.674218
C 2.100074 -3.199625 1.673164
C 2.253010 -3.036698 1.684727
C 2.370741 -2.812021 1.681929
C 2.514858 -2.583494 1.666212
C 2.745533 -2.177390 1.583279
C 3.086396 -1.582408 1.549036
C 3.374829 -0.941571 1.509520
C 3.723070 -0.255847 1.522392
C 3.739920 0.054856 1.502247
C 3.741736 0.188088 1.514444
C 3.725500 0.415621 1.552833
C 3.715935 0.503683 1.598029
C 3.689724 0.374125 1.642107
C 3.695957 0.231275 1.705253
C 3.649283 -0.057178 1.729601
C 3.631074 -0.258416 1.830716
C 3.639428 -0.366856 1.916837
C 3.579168 -0.501068 2.001010
C 3.437195 -0.736214 2.101371
C 3.323725 -0.992810 2.218238
C 3.125356 -1.241842 2.417671
C 3.010798 -1.359615 2.560405
C 2.879285 -1.480743 2.632777
C 2.599200 -1.710372 2.718346
C 2.485159 -1.786373 2.743011
C 2.497755 -1.621743 2.794468
C 2.325603 -1.673337 2.884535
C 2.053752 -1.835384 2.839817
C 1.820017 -1.965357 2.886266
C 1.627296 -1.914903 2.932420
C 1.548018 -1.695208 3.104969
C 1.286602 -1.765221 3.200222
C 0.971839 -1.876915 3.363602
C 0.800297 -1.800401 3.465443
C 0.765700 -1.682149 3.540122
C 0.729687 -1.608470 3.482942
C 0.726874 -1.619783 3.352930
C 0.747576 -1.747321 3.136869
C 0.913853 -1.704980 3.140724
C 1.078348 -1.653510 3.034699
C 1.210243 -1.615642 2.884267
C 1.280404 -1.562613 2.894301
C 1.329337 -1.468477 3.020251
C 1.309519 -1.505244 3.168992
C 1.155141 -1.552620 3.215725
C 0.920119 -1.726569 3.203596
C 0.815122 -2.000002 3.152078
C 0.821880 -1.978571 3.066332
C 1.052584 -1.777933 3.056627
C 1.277272 -1.544397 3.014100
C 1.557703 -1.164434 2.972372
C 1.994110 -0.650828 2.956615
C 2.437893 -0.049922 2.860930
C 2.706028 0.586555 2.886282
C 2.882650 0.934069 2.996077
C 2.906501 1.151049 2.918067
C 2.948150 1.330853 2.791530
C 2.899380 1.329890 2.814937
C 2.817076 1.209368 2.834261
C 2.649431 1.083828 3.000929
C 2.526360 0.968391 3.039988
C 2.139945 0.942300 3.288063
C 1.839631 0.895765 3.521174
C 1.638996 0.635546 3.697059
C 1.479759 0.480356 3.775138
C 1.244789 0.455375 3.942240
C 1.138714 0.386537 3.914953
C 1.031831 0.265180 3.934599
C 1.170619 0.038167 3.753346
C 1.332326 0.011984 3.599832
C 1.440260 0.183097 3.445782
C 1.494865 0.493474 3.435989
C 1.597014 0.693025 3.324591
C 1.665705 0.783631 3.276295
C 1.755219 0.945071 3.239690
C 1.909785 1.261988 3.192648
