498
chr1 3D structure from Hi-C (resolution 500000bp)
C 0.162881 1.789767 -2.021588
C 0.763836 2.001592 -1.936571
C 1.291161 2.029707 -1.860724
C 1.539808 2.063738 -1.884847
C 1.383117 2.025488 -2.122649
C 2.337524 2.242692 -1.999689
C 3.212638 2.255588 -1.882519
C 3.202794 2.086043 -2.007592
C 3.179298 1.957563 -2.131991
C 2.996887 2.026490 -2.242674
C 2.852303 2.066057 -2.248754
C 2.681670 1.994170 -2.388791
C 2.606459 2.104822 -2.349822
C 2.413891 2.170326 -2.496907
C 2.106234 2.538137 -2.383998
C 1.786682 2.767528 -2.298173
C 1.610973 2.989063 -2.172801
C 1.457070 3.150423 -2.149173
C 1.371310 3.433411 -2.054001
C 1.284266 3.505822 -2.093928
C 1.205519 3.648971 -1.950767
C 1.253388 3.535945 -2.115816
C 1.539866 3.290715 -2.282262
C 1.879177 2.882564 -2.431632
C 2.033711 2.640784 -2.581203
C 2.130577 2.401250 -2.654465
C 2.174252 2.247839 -2.704327
C 2.258770 2.124046 -2.765677
C 2.336556 2.131004 -2.659601
C 2.168849 2.349208 -2.507738
C 1.963697 2.679920 -2.367465
C 1.920387 2.801011 -2.358872
C 1.819965 2.883829 -2.419386
C 1.713797 2.902076 -2.459886
C 1.617093 2.922951 -2.452649
C 1.399692 2.865258 -2.542119
C 1.206106 2.752984 -2.661808
C 0.969543 2.646674 -2.848910
C 0.708629 2.766693 -2.775889
C 0.522564 2.983351 -2.608391
C 0.297240 3.168368 -2.561737
C 0.183728 3.270433 -2.599896
C 0.220606 3.263736 -2.688754
C 0.080542 3.393845 -2.637837
C -0.161009 3.544495 -2.539413
C -0.244120 3.462088 -2.574824
C -0.423788 3.327333 -2.654870
C -0.593854 3.243415 -2.643797
C -0.811622 3.322678 -2.516753
C -1.043297 3.325725 -2.445961
C -1.154536 3.367476 -2.408528
C -1.271489 3.287960 -2.484951
C -1.483371 3.295900 -2.481347
C -1.582395 3.256241 -2.511551
C -1.596721 3.192730 -2.577177
C -1.343237 2.989950 -2.774591
C -1.132008 2.851478 -2.873740
C -0.755499 2.529668 -3.091732
C -0.493383 2.326693 -3.231735
C -0.265047 2.199042 -3.353118
C -0.164352 2.132619 -3.466680
C -0.269748 2.063136 -3.488495
C -0.588367 2.036550 -3.467451
C -0.701208 1.994856 -3.534946
C -0.733995 1.983126 -3.560636
C -0.627827 1.886224 -3.558089
C -0.555490 1.812325 -3.601337
C -0.725120 1.710200 -3.615782
C -0.695046 1.624882 -3.704952
C -0.657156 1.568193 -3.783885
C -0.540256 1.532168 -3.804899
C -0.637269 1.492925 -3.816947
C -0.898854 1.488905 -3.853779
C -0.986575 1.436785 -3.825107
C -0.777113 1.394195 -3.831052
C -0.845742 1.245146 -3.836188
C -0.883113 1.194611 -3.774076
C -1.264155 1.131372 -3.728287
C -1.520141 1.073066 -3.663793
C -1.517210 0.951481 -3.604353
C -1.539171 0.865533 -3.580027
C -1.653809 0.659472 -3.664013
C -1.451623 0.632250 -3.721325
C -1.397921 0.485874 -3.803471
C -1.299152 0.337036 -3.896506
C -1.131229 0.267632 -3.992451
C -1.065203 0.272269 -4.029024
C -1.064231 0.182154 -4.063519
C -1.070196 0.068584 -4.049747
C -1.064416 -0.076564 -4.065001
C -0.746110 -0.159899 -4.101024
C -0.296964 -0.136153 -3.912263
C 0.081442 -0.186426 -3.740678
C 0.560141 -0.298272 -3.645681
C 0.973634 -0.413886 -3.499768
C 1.697434 -0.382231 -3.172759
C 2.357022 -0.328802 -2.862428
C 2.714564 -0.315179 -2.596751
C 2.677956 -0.500956 -2.737330
C 2.426341 -0.670714 -2.903043
C 2.026397 -0.822204 -3.043703
C 1.698882 -0.924483 -3.294368
C 1.214654 -0.940443 -3.576132
C 0.761991 -1.011125 -3.827147
C 0.334396 -1.035626 -3.976193
C 0.230361 -0.922111 -3.915248
C 0.296806 -0.796391 -3.838038
C 0.520592 -0.708225 -3.750174
C 0.879481 -0.608816 -3.639310
C 1.090537 -0.660482 -3.519806
C 1.292820 -0.694164 -3.388958
C 1.586138 -0.783741 -3.332203
C 1.857820 -0.884072 -3.245130
C 2.032337 -0.992777 -3.139182
C 1.929532 -1.078474 -3.073704
C 1.750240 -1.247817 -3.076599
C 1.851489 -1.313901 -3.136338
C 2.068081 -1.338587 -3.048749
C 2.201443 -1.382467 -2.955542
C 2.357008 -1.375919 -2.826191
C 2.304509 -1.472660 -2.832848
C 2.366438 -1.543206 -2.774445
C 2.501211 -1.583547 -2.708236
C 2.480065 -1.592900 -2.578464
C 2.376105 -1.681944 -2.560984
C 2.249140 -1.790778 -2.572953
C 2.042144 -1.965531 -2.653438
C 2.034081 -2.107289 -2.571786
C 2.231061 -2.171549 -2.525708
C 2.196532 -2.231715 -2.446589
C 2.225189 -2.381999 -2.398490
C 2.130260 -2.487128 -2.384645
C 2.177500 -2.523894 -2.272102
C 2.244287 -2.511192 -2.101962
C 2.508330 -2.395441 -1.942335
C 2.639202 -2.375165 -1.810897
C 2.880661 -2.358445 -1.618260
C 2.931117 -2.371235 -1.540591
C 3.045237 -2.379313 -1.363884
C 3.084884 -2.433807 -1.205887
C 3.179100 -2.447468 -1.086935
C 3.201485 -2.489804 -0.974961
C 3.278834 -2.462347 -0.813867
C 3.334860 -2.458665 -0.626651
C 3.475524 -2.431973 -0.413100
C 3.505272 -2.447770 -0.292536
C 3.448390 -2.472876 -0.248472
C 3.400814 -2.588270 -0.094097
C 3.292083 -2.688402 0.004366
C 3.010125 -2.884532 -0.023197
C 2.851081 -2.999951 -0.034782
C 2.604702 -3.091986 -0.117493
C 2.484047 -3.218938 -0.251466
C 2.359248 -3.321054 -0.323803
C 2.174896 -3.418951 -0.479522
C 1.992127 -3.504258 -0.541674
C 1.928594 -3.582298 -0.516055
C 1.830627 -3.663676 -0.493306
C 1.881435 -3.729228 -0.289342
C 1.847717 -3.720911 -0.076326
C 1.790450 -3.733502 0.091910
C 1.776885 -3.728410 0.249761
C 1.754381 -3.764389 0.308468
C 1.747607 -3.794797 0.473974
C 1.636763 -3.836021 0.327813
C 1.468573 -3.894968 0.106024
C 1.228558 -3.824219 -0.168741
C 1.106024 -3.825442 -0.405664
C 0.913649 -3.812062 -0.749328
C 0.704310 -3.791938 -1.011480
C 0.525030 -3.775746 -1.492781
C 0.421297 -3.704198 -1.723203
C 0.385989 -3.653497 -1.880737
C 0.463299 -3.748290 -1.897446
C 0.404432 -3.643624 -1.980695
C 0.323789 -3.556739 -2.056867
C 0.227629 -3.440896 -2.176121
C 0.050497 -3.437799 -2.107959
C -0.127035 -3.423563 -2.187639
C -0.309733 -3.382083 -2.353318
C -0.474956 -3.257404 -2.470981
C -0.609830 -3.280826 -2.567210
C -0.685136 -3.268529 -2.546918
C -0.829528 -3.332335 -2.572109
C -0.845968 -3.278373 -2.600869
C -0.790733 -3.311889 -2.332427
C -0.761318 -3.361353 -2.056824
C -0.651918 -3.564741 -1.670731
C -0.488353 -3.711419 -1.116768
C -0.292580 -3.883960 -0.595119
C -0.062491 -4.016050 -0.150301
C 0.016674 -4.122714 0.114264
C 0.021833 -4.213807 0.374924
C 0.081754 -4.273614 0.661658
C -0.013015 -4.230009 0.617826
C -0.070670 -4.228710 0.445166
C -0.265323 -4.219193 0.247879
C -0.582100 -4.150884 0.209342
C -0.741432 -4.082472 0.274050
C -0.864781 -3.924308 0.109503
C -0.974820 -3.864746 0.081410
C -1.009207 -3.900782 0.277905
C -1.146557 -3.885516 0.394219
C -1.249367 -3.872642 0.565709
C -1.135547 -3.925333 0.762011
C -1.080863 -3.955108 0.774835
C -1.169809 -4.084747 0.806962
C -1.244468 -4.116403 0.668796
C -1.388605 -4.073987 0.435323
C -1.527526 -4.071185 0.454403
C -1.610911 -4.054591 0.390416
C -1.692270 -3.989413 0.055331
C -1.745518 -3.910264 -0.157700
C -1.781059 -3.795838 -0.286151
C -1.914185 -3.550163 -0.549946
C -1.973812 -3.249401 -0.880237
C -2.057270 -2.840755 -1.416855
C -2.135730 -2.460804 -1.933852
C -2.184853 -2.133099 -2.164356
C -2.312115 -1.791683 -2.343865
C -2.368301 -1.541040 -2.499203
C -2.380369 -1.475138 -2.587715
C -2.468358 -1.484826 -2.589593
C -2.449092 -1.655562 -2.559827
C -2.462688 -1.776338 -2.458444
C -2.535189 -1.893098 -2.407419
C -2.546809 -2.099268 -2.335711
C -2.544765 -2.257249 -2.210622
C -2.612212 -2.340798 -2.045215
C -2.727241 -2.396055 -1.931768
C -2.848284 -2.373999 -1.799797
C -2.914245 -2.458646 -1.641338
C -2.934957 -2.528218 -1.493641
C -2.993893 -2.625609 -1.217667
C -3.086223 -2.696388 -1.106524
C -2.965142 -2.682223 -0.970774
C -2.815554 -2.758481 -0.813992
C -2.007264 -2.905580 -0.216764
C -1.255414 -3.011901 0.305636
C -0.602489 -3.129085 0.817927
C 0.235942 -3.054465 1.175522
C 1.151799 -2.943782 1.613266
C 2.102436 -2.516472 1.602089
C 3.112869 -1.974915 1.600281
C 3.463298 -1.336972 1.164552
C 3.845445 -0.682604 0.785466
C 3.957557 -0.570358 0.862957
C 3.830996 -0.593201 0.949759
C 4.034040 -0.190627 0.695728
C 4.031890 -0.238689 0.901755
C 3.911120 -0.656641 1.298708
C 3.788591 -1.102545 1.677103
C 3.690931 -1.466253 2.002922
C 4.012866 -0.993698 1.751037
C 4.385679 -0.408102 1.421817
C 4.361618 -0.219120 1.381922
C 4.317552 0.029365 1.308175
C 3.366691 0.903851 0.876401
C 3.026660 0.767157 1.079148
C 2.850295 0.680215 1.250394
C 2.629992 0.349389 1.522701
C 2.439920 -0.034612 1.861378
C 2.297317 -0.451440 2.230571
C 2.304707 -0.776982 2.446320
C 3.362959 -1.419054 2.762275
C 3.827775 -1.099932 2.358618
C 4.096513 -0.936965 1.975379
C 3.454658 -1.210609 1.933526
C 2.798692 -1.528479 1.914696
C 2.341003 -1.893093 1.928769
C 1.847240 -2.361245 2.141090
C 1.792349 -2.542021 2.187992
C 1.743377 -2.623006 2.305566
C 1.687529 -2.592101 2.505424
C 2.478413 -2.148634 2.430299
C 3.208031 -1.731540 2.395657
C 3.102496 -1.701142 2.431749
C 2.896703 -1.715353 2.442579
C 2.976338 -1.532622 2.206479
C 3.044082 -1.378978 1.917492
C 3.120280 -1.295799 1.533727
C 2.216202 -1.731775 1.554437
C 1.705182 -2.103245 1.656345
C 1.778115 -2.069168 1.689726
C 1.572196 -1.989595 1.668217
C 1.125132 -2.293394 2.224224
C 0.729614 -2.601180 2.813079
C -0.495112 -2.122033 2.766182
C -0.787798 -1.670626 2.162466
C -1.433386 -1.539509 1.753827
C -2.039500 -1.461249 1.363455
C -2.304620 -1.044765 0.783520
C -3.158638 -0.815397 0.148805
C -4.111950 -0.660837 -0.474090
C -4.229977 -1.428007 -0.412284
C -4.277036 -1.647163 -0.330644
C -4.290399 -1.317473 -0.724010
C -4.232386 -0.829893 -1.064137
C -4.288281 -0.653291 -1.159907
C -4.237348 -0.395493 -1.346571
C -4.158160 -0.136893 -1.418713
C -3.971448 0.308663 -1.478941
C -3.836416 0.585107 -1.416528
C -3.673103 0.734570 -1.198148
C -3.724485 0.921720 -1.175446
C -3.660042 1.011163 -1.147241
C -3.631346 1.042215 -1.067657
C -3.598356 1.252678 -1.115834
C -3.646266 1.395845 -1.229252
C -3.663338 1.699904 -1.311009
C -3.760219 1.809716 -1.341946
C -3.727401 1.652157 -1.225505
C -3.844471 1.565813 -0.995110
C -3.937990 1.399873 -0.778984
C -4.036749 1.021915 -0.525417
C -4.046268 0.766409 -0.263469
C -4.006352 0.560633 -0.039578
C -4.033864 0.434264 0.058652
C -4.042053 0.531137 0.179340
C -3.987750 0.550177 0.155588
C -3.936471 0.612727 0.234766
C -3.855378 0.601702 0.365646
C -3.813287 0.422575 0.509408
C -3.749655 0.083120 0.779311
C -3.567904 -0.375404 1.115729
C -3.412808 -0.895832 1.449251
C -3.226176 -1.295197 1.737930
C -3.067681 -1.518518 1.945286
C -2.910699 -1.520073 2.009315
C -2.855022 -1.587119 2.128208
C -2.888944 -1.585051 2.078471
C -3.006432 -1.326569 1.941709
C -3.045012 -0.946744 1.693910
C -3.210671 -0.708664 1.578016
C -3.270306 -0.599533 1.509001
C -3.392516 -0.551442 1.481232
C -3.499517 -0.432238 1.490436
C -3.541855 -0.355468 1.463806
C -3.513096 -0.396321 1.555315
C -3.480562 -0.505105 1.766245
C -3.427667 -0.507343 1.868578
C -3.461838 -0.382926 1.917018
C -3.471840 -0.234169 1.949853
C -3.475050 -0.009951 1.903385
C -3.543966 0.320061 1.912359
C -3.541347 0.571453 1.928957
C -3.505205 0.691552 1.893496
C -3.402919 0.772859 1.878490
C -3.309948 0.691143 1.981041
C -3.214498 0.519934 2.220123
C -3.062064 0.255610 2.444270
C -2.819085 -0.029576 2.662665
C -2.690903 -0.191480 2.790130
C -2.721415 -0.448543 2.961906
C -2.751133 -0.463666 3.156763
C -2.657262 -0.408352 3.132673
C -2.609050 -0.237712 3.023704
C -2.667718 0.082787 2.788616
C -2.790824 0.498310 2.528513
C -2.826654 0.774862 2.366888
C -2.853927 1.251775 2.145866
C -2.855009 1.480225 1.908092
C -3.012597 1.766810 1.798072
C -3.026210 1.910074 1.630558
C -3.004038 2.017113 1.727736
C -2.911633 1.902280 2.021654
C -2.855110 1.881226 2.165641
C -2.728888 1.647192 2.397640
C -2.555843 1.354861 2.742679
C -2.327703 1.042855 3.067900
C -2.139188 0.664094 3.431431
C -1.908751 0.235927 3.636309
C -1.747323 -0.167480 3.671800
C -1.505036 -0.683993 3.838238
C -1.281107 -1.029712 3.921651
C -1.107693 -1.196769 3.892067
C -0.964995 -1.338464 3.903195
C -0.854445 -1.349758 3.910675
C -0.778484 -1.377104 3.949733
C -0.675092 -1.208080 3.970993
C -0.643103 -1.046469 4.010753
C -0.666059 -0.854023 4.076029
C -0.718946 -0.655416 4.124857
C -0.710606 -0.513592 4.126737
C -0.581619 -0.463464 4.145949
C -0.359796 -0.473588 4.175637
C -0.175475 -0.539969 4.222723
C -0.036220 -0.574162 4.221066
C 0.112789 -0.546706 4.163361
C 0.301269 -0.637501 4.162843
C 0.535704 -0.737635 4.180414
C 0.525025 -0.603537 4.172361
C 0.374369 -0.373359 4.164562
C 0.150516 -0.123389 4.166701
C 0.332793 -0.074051 4.127923
C 0.114486 0.172978 4.096382
C -0.075784 0.426584 3.992670
C -0.448285 0.772906 3.851263
C -0.721976 1.087942 3.517547
C -0.903846 1.487286 3.042565
C -0.982537 1.831639 2.553354
C -1.493545 2.505458 1.972638
C -1.559019 2.874647 1.452736
C -1.717357 3.172141 0.971528
C -1.729292 3.403133 0.557096
C -1.729330 3.551653 0.376347
C -1.795443 3.593807 0.281272
C -1.912663 3.583832 0.161503
C -1.956830 3.538569 0.261564
C -2.066204 3.527248 0.299697
C -2.139303 3.495272 0.396004
C -2.204485 3.438082 0.529947
C -2.210327 3.394126 0.695451
C -2.082044 3.233116 1.033153
C -1.876239 3.110707 1.387163
C -1.726426 2.970992 1.712054
C -1.563938 2.804948 2.053106
C -1.371458 2.750269 2.350955
C -1.171033 2.710500 2.629746
C -1.114753 2.772090 2.731538
C -1.161361 2.877609 2.634512
C -1.303015 2.986594 2.590476
C -1.379107 3.121559 2.434749
C -1.223830 3.015661 2.580033
C -1.035147 2.861998 2.718866
C -0.890575 2.706987 2.809281
C -0.482420 2.281414 2.977167
C -0.028934 1.857404 3.302162
C 0.468111 1.491195 3.531387
C 0.970310 1.076662 3.840214
C 1.088782 0.937137 3.835249
C 1.271467 0.850846 3.814200
C 1.421540 0.759503 3.781573
C 1.360227 0.851648 3.807602
C 1.272518 0.960502 3.802431
C 1.194411 1.070276 3.838817
C 1.059310 1.225298 3.764013
C 1.089339 1.417705 3.705612
C 1.061853 1.547276 3.705687
C 1.029205 1.726399 3.641376
C 0.930173 1.901282 3.569347
C 0.891022 2.170769 3.438150
C 0.887033 2.437897 3.295557
C 0.808895 2.641325 3.215366
C 0.687652 2.791059 3.089821
C 0.527921 2.977813 2.920600
C 0.414845 3.029793 2.822007
C 0.556835 3.028115 2.741065
C 0.420747 3.152529 2.524158
C 0.282957 3.286687 2.274114
C 0.257481 3.370686 2.090341
C 0.335895 3.360103 2.000754
C 0.490050 3.407359 1.936085
C 0.526829 3.565830 1.767840
C 0.589127 3.767257 1.479002
C 0.647854 3.851107 1.368406
C 0.639465 3.847582 1.304352
C 0.580757 3.786109 1.269604
C 0.573386 3.737317 1.206288
C 0.488784 3.589305 1.106902
C 0.646215 3.534371 1.174966
C 0.597522 3.413754 1.373382
C 0.679173 3.212834 1.526226
C 0.874584 3.146752 1.589322
C 1.087595 3.156983 1.592156
C 1.150835 3.254883 1.554743
C 1.012812 3.414281 1.459374
C 0.840492 3.523249 1.272968
C 0.753323 3.644063 1.096356
C 0.710795 3.586595 1.032646
C 0.880749 3.470745 1.151824
C 1.039765 3.264436 1.368006
C 1.284792 3.013227 1.574006
C 1.779426 2.745973 1.856010
C 2.171038 2.363979 2.175615
C 2.557327 1.984114 2.441647
C 2.955539 1.828637 2.590665
C 2.967684 1.564988 2.712285
C 3.020373 1.431415 2.740534
C 2.982268 1.362930 2.772976
C 2.913975 1.307267 2.740483
C 2.840037 1.293326 2.789721
C 2.740258 1.247037 2.782665
C 1.671277 0.908901 2.023363
C 1.817273 1.192687 1.687150
C 1.772488 1.437220 1.459965
C 1.721886 1.656407 1.249230
C 1.752363 1.885674 1.082982
C 1.691458 2.092093 0.822272
C 1.633451 2.402215 0.630702
C 2.519667 2.984312 1.176669
C 2.397703 2.872184 1.308841
C 2.372343 2.754647 1.400979
C 2.592972 2.570301 1.440638
C 2.654495 2.441399 1.489347
C 2.730360 2.369619 1.530297
C 2.806080 2.214005 1.587976
C 2.988749 2.004665 1.718096
