277
chr9 3D structure from Hi-C (resolution 500000bp)
C -2.672123 -0.912442 0.170061
C -2.696330 -0.854605 0.119584
C -2.875186 -0.803325 -0.044550
C -2.978464 -0.737763 -0.151968
C -3.112417 -0.700500 -0.368837
C -3.296012 -0.676176 -0.391739
C -3.367348 -0.735072 -0.232077
C -3.516652 -0.705007 -0.255309
C -3.604445 -0.679600 -0.139052
C -3.551836 -0.673435 -0.025319
C -3.445061 -0.817861 0.125457
C -3.320457 -0.909980 0.125895
C -3.332130 -0.856389 -0.171096
C -3.240792 -0.843686 -0.539984
C -3.053298 -0.967258 -0.793696
C -2.982796 -1.040328 -1.187197
C -2.930501 -1.138891 -1.480157
C -2.865111 -1.151951 -1.794003
C -2.760701 -1.137337 -2.123217
C -2.538189 -1.249223 -2.260861
C -2.492032 -1.186499 -2.451633
C -2.429382 -1.172287 -2.633604
C -2.325300 -1.264056 -2.661087
C -2.303003 -1.289399 -2.760031
C -2.346616 -1.319158 -2.877760
C -2.389672 -1.395671 -2.775212
C -2.397874 -1.466780 -2.597947
C -2.446001 -1.702390 -2.251046
C -2.469606 -1.827873 -1.948046
C -2.476515 -1.919085 -1.774571
C -2.401407 -2.098983 -1.631135
C -2.302244 -2.180286 -1.630434
C -2.204054 -2.250225 -1.579622
C -2.347546 -2.339840 -1.518061
C -2.284720 -2.396928 -1.551666
C -2.331688 -2.436416 -1.409251
C -2.390483 -2.549484 -1.417273
C -2.429302 -2.580045 -1.188707
C -2.489803 -2.589377 -0.731752
C -2.612577 -2.681199 -0.522282
C -2.428911 -2.683236 -0.454098
C -2.320663 -2.687677 -0.558852
C -2.134679 -2.755077 -0.922119
C -1.876684 -2.690699 -1.127606
C -1.638074 -2.594764 -1.501467
C -1.350258 -2.653871 -1.989355
C -1.084695 -2.556477 -2.403859
C -0.924327 -2.560325 -2.758158
C -0.730485 -2.544461 -2.866761
C -0.681176 -2.571405 -2.953312
C -0.777337 -2.649693 -2.722446
C -0.879116 -2.797767 -2.416331
C -1.052071 -2.879910 -2.055976
C -1.138281 -3.023010 -1.819970
C -1.162902 -3.204864 -1.547912
C -1.253200 -3.316435 -1.394860
C -1.225536 -3.378608 -1.198746
C -1.096227 -3.501328 -1.378787
C -0.907778 -3.615210 -1.640219
C -0.841882 -3.708802 -1.787486
C -0.880200 -3.762677 -1.706574
C -1.012125 -3.654366 -1.507182
C -1.184488 -3.608858 -1.163898
C -1.457369 -3.437301 -0.684270
C -1.815787 -3.033308 -0.137464
C -2.234933 -2.524826 0.478072
C -2.613445 -2.005857 0.960462
C -2.935785 -1.488956 1.428483
C -3.170713 -1.125299 1.744096
C -3.359612 -0.838645 2.014523
C -3.345676 -0.745296 2.090459
C -3.351400 -0.808974 2.152835
C -3.231773 -0.998006 2.138502
C -2.954833 -1.286384 2.081790
C -2.788856 -1.740806 1.948461
C -2.538123 -1.574549 1.013025
C -2.169922 -1.314001 -0.049024
C -1.579474 -1.048910 -1.083521
C -0.856756 -1.050230 -1.986790
C -0.229537 -0.975105 -2.859428
C 0.224101 -0.762760 -3.764966
C 0.601833 -0.419497 -4.605316
C 0.883527 -0.551640 -4.681283
C 1.066198 -0.586274 -4.685581
C 0.933959 -0.407521 -4.669486
C 0.793750 0.093578 -4.731971
C 0.950186 0.629573 -4.572925
C 1.290968 1.204315 -4.160121
C 1.820120 1.849045 -3.720291
C 2.211404 2.464733 -3.186186
C 2.518627 3.015192 -2.639722
C 2.754846 3.448962 -2.124833
C 2.851233 3.842891 -1.686626
C 2.513283 4.144059 -1.509434
C 1.978067 4.318205 -1.584244
C 1.345399 4.188787 -1.980514
C 0.696168 3.940038 -2.442720
C 0.037092 3.649305 -2.881660
C -0.559520 3.393442 -3.243902
C -1.004771 3.204382 -3.521987
C -1.207131 3.070347 -3.709305
C -1.177058 2.994283 -3.813812
C -0.897625 3.175220 -3.632025
C -0.456965 3.377054 -3.432718
C 0.107131 3.488806 -3.330406
C 0.650014 3.485196 -3.340335
C 1.007194 3.413840 -3.418630
C 1.154083 3.334506 -3.498262
C 0.960283 3.426266 -3.329772
C 0.533139 3.508202 -3.143020
C -0.103379 3.576002 -2.922865
C -0.908643 3.642742 -2.606556
C -1.705479 3.723109 -2.259642
C -2.328874 3.799201 -1.974400
C -2.748134 3.872797 -1.766837
C -2.830052 3.809654 -1.829011
C -2.543277 3.876399 -1.786786
C -2.146158 3.995242 -1.756183
C -2.232532 3.861434 -1.781647
C -1.412168 3.592849 -2.214458
C -0.579070 3.234104 -2.522172
C 0.225468 2.856504 -2.755022
C 0.965227 2.323763 -2.922902
C 1.469893 1.651448 -3.266020
C 1.931836 0.828145 -3.637845
C 3.004888 0.299190 -3.961059
C 2.176671 0.395051 -3.712105
C 1.298044 0.589508 -3.511583
C 0.426211 0.788464 -3.392945
C 0.355744 1.191432 -3.251364
C 0.389800 1.482001 -3.058504
C 0.498045 1.866636 -2.890325
C 0.626747 2.199076 -2.773097
C 1.695237 1.683267 -2.740979
C 2.233017 0.937574 -2.047120
C 2.738842 0.273189 -1.361255
C 2.438004 -0.598184 -0.809750
C 2.050585 -1.387924 -0.266143
C 1.642001 -2.059981 0.208461
C 1.336551 -2.733111 0.580413
C 1.019100 -3.012760 0.974791
C 1.154095 -3.115091 0.831586
C 1.291212 -3.200057 0.649666
C 1.488966 -3.248757 0.363617
C 1.704519 -3.207265 -0.045787
C 1.856802 -3.218841 -0.269932
C 1.862439 -3.116333 -0.264063
C 1.921728 -2.951931 -0.252706
C 2.074593 -2.765679 -0.452197
C 2.096971 -2.698676 -0.361589
C 2.027190 -2.590186 -0.075226
C 1.918926 -2.680234 0.283965
C 1.995079 -2.647780 0.559325
C 1.965843 -2.622119 0.696786
C 2.110833 -2.660330 0.685601
C 2.268774 -2.627924 0.746246
C 2.422107 -2.585701 0.665336
C 2.647724 -2.553381 0.374497
C 2.820917 -2.343712 0.138205
C 2.873882 -2.242957 -0.180318
C 3.068436 -2.136120 -0.405352
C 3.211569 -2.015823 -0.606408
C 3.178861 -1.988647 -0.738924
C 3.132845 -2.039482 -0.650260
C 2.757080 -2.154308 -0.164895
C 2.491497 -2.234278 0.271261
C 2.193249 -2.237163 0.783084
C 1.931002 -2.284860 1.254986
C 1.468009 -2.391675 1.849436
C 1.176751 -2.343251 2.335523
C 1.032575 -2.227770 2.549973
C 0.987041 -2.070901 2.564750
C 0.888534 -1.917434 2.587440
C 0.951238 -1.889754 2.663264
C 0.951619 -1.749404 2.668308
C 0.851007 -1.655406 2.763212
C 0.724115 -1.529166 2.854508
C 0.540542 -1.464018 3.064292
C 0.445053 -1.263835 3.095295
C 0.290714 -1.199968 3.268259
C 0.091384 -1.022514 3.308741
C -0.230821 -0.919515 3.458142
C -0.334674 -0.609872 3.395203
C -0.435893 -0.444633 3.468230
C -0.504158 -0.233300 3.395380
C -0.641287 -0.179772 3.501508
C -0.650675 0.028330 3.384881
C -0.858544 0.139993 3.497189
C -0.822881 0.156535 3.548148
C -0.763112 0.134236 3.649125
C -0.868250 0.049503 3.727870
C -0.990453 -0.054941 3.879373
C -0.815111 -0.025805 3.822240
C -0.737541 -0.046967 3.810443
C -0.445529 -0.088558 3.649412
C -0.206345 -0.101876 3.664383
C 0.050899 -0.262499 3.660850
C 0.462427 -0.360411 3.498639
C 1.046234 -0.515169 3.121257
C 1.605850 -0.798306 2.944326
C 2.013354 -0.986690 2.638962
C 2.409077 -1.133927 2.267543
C 2.717729 -1.156144 1.698096
C 3.082817 -1.109192 1.089735
C 3.385224 -1.071922 0.698656
C 3.564110 -0.904883 0.477758
C 3.422709 -0.745878 0.389439
C 3.376911 -0.662497 0.535484
C 3.379614 -0.576294 0.793145
C 3.497005 -0.565319 0.963006
C 3.424424 -0.553227 1.248611
C 3.209272 -0.544515 1.450605
C 3.023134 -0.574022 1.644692
C 3.022513 -0.501561 1.624929
C 3.059539 -0.413908 1.729264
C 2.867168 -0.323072 1.815664
C 2.702495 -0.172849 2.012582
C 2.532761 -0.011000 2.171564
C 2.523648 0.161018 2.288171
C 2.528126 0.433651 2.442349
C 2.312451 0.632540 2.718951
C 2.065053 0.823977 2.829917
C 1.998598 0.933271 2.857745
C 1.769444 0.991031 2.880763
C 1.664123 1.035832 2.804370
C 1.667804 1.173562 2.810130
C 1.690055 1.155951 2.721988
C 1.811572 1.110061 2.487393
C 2.140434 1.022736 2.174846
C 2.377356 1.048167 1.936114
C 2.597534 1.059033 1.749434
C 2.789707 1.025698 1.562984
C 2.935538 0.898499 1.301408
C 2.959789 0.894631 1.102290
C 3.093793 0.894221 0.923327
C 3.081109 0.943940 0.828345
C 3.044398 0.996402 0.748685
C 2.996150 1.052347 0.719839
C 2.716824 1.200231 0.958799
C 2.317809 1.308836 1.177412
C 2.000731 1.434331 1.411611
C 1.701552 1.638118 1.680172
C 1.510916 1.884442 1.873122
C 1.290985 2.115729 2.097968
C 1.116281 2.387057 2.251387
C 1.054529 2.471788 2.242370
C 1.090773 2.810972 2.106650
C 1.097761 3.074340 1.974092
C 1.097567 3.320391 1.899761
C 0.831809 3.345754 2.017158
C 0.630176 3.378200 2.012641
C 0.425880 3.486179 1.928256
C 0.288151 3.716018 1.787108
C 0.038022 3.780125 1.735613
C -0.327388 3.841138 1.648524
C -0.738457 3.839236 1.612069
C -0.938010 3.921617 1.478626
C -1.163631 3.956684 1.448864
C -1.304317 3.847279 1.591305
C -1.387186 3.800158 1.685907
C -1.362936 3.648037 1.891607
C -1.288791 3.524755 2.116566
C -1.278365 3.384667 2.269048
C -1.388117 3.365195 2.331864
C -1.400877 3.306491 2.419591
C -1.543010 3.280102 2.363820
C -1.629768 3.161585 2.439844
C -1.772726 3.089351 2.462509
C -1.929963 2.979324 2.509669
C -2.082208 3.013402 2.460193
C -2.202135 2.992685 2.380765
C -2.460930 3.000372 2.192051
C -2.555300 2.967441 2.075795
C -2.853841 2.940651 1.889581
C -2.985199 2.979053 1.766648
C -3.131156 3.031643 1.578393
C -3.204476 3.017527 1.444751
