277
chr9 3D structure from Hi-C (resolution 500000bp)
C -1.303176 2.384995 -1.288542
C -1.205851 2.347171 -1.399157
C -1.102875 2.526274 -1.427919
C -1.103444 2.645179 -1.467661
C -0.991669 2.743932 -1.595186
C -1.026641 2.914169 -1.625190
C -1.106646 2.958642 -1.573154
C -1.190770 3.064064 -1.658398
C -1.356352 3.205146 -1.557134
C -1.573598 3.083311 -1.584619
C -1.646173 2.909586 -1.636578
C -1.651261 2.765947 -1.755395
C -1.493456 2.877281 -1.844592
C -1.210586 2.951131 -1.987498
C -0.911104 2.848437 -2.136747
C -0.537533 2.854179 -2.342488
C -0.187897 2.985903 -2.425193
C 0.143649 3.102584 -2.466092
C 0.480784 3.172200 -2.398653
C 0.815266 2.993007 -2.375215
C 1.057041 3.056684 -2.245987
C 1.182955 3.162225 -2.119069
C 1.266526 3.130580 -2.065215
C 1.484449 3.104350 -2.069432
C 1.641715 3.128080 -1.981077
C 1.622608 3.063116 -2.030566
C 1.425233 3.049222 -2.091560
C 1.253481 2.940441 -2.119339
C 1.190714 2.627379 -2.223415
C 1.151321 2.414236 -2.222918
C 1.157636 2.248741 -2.214576
C 1.204235 2.130417 -2.330412
C 1.196645 2.039444 -2.404952
C 1.227682 1.967996 -2.501140
C 1.140719 1.791422 -2.697751
C 0.878681 1.859584 -2.731126
C 0.795171 1.967272 -2.923747
C 0.437346 1.930763 -3.056881
C -0.103136 1.819798 -3.068933
C -0.454797 1.884922 -3.113499
C -0.571920 1.842901 -3.043297
C -0.342887 1.832732 -3.083915
C 0.115662 1.759304 -3.163420
C 0.355584 1.600760 -3.154266
C 0.727910 1.439294 -3.164493
C 1.325778 1.345300 -3.224503
C 1.911670 1.161020 -3.206676
C 2.300927 1.153560 -3.250938
C 2.413076 1.110094 -3.197113
C 2.440953 1.187446 -3.224236
C 2.172716 1.241366 -3.202874
C 1.842059 1.279586 -3.233498
C 1.463580 1.316052 -3.332439
C 1.118857 1.401303 -3.454715
C 0.780327 1.291579 -3.636407
C 0.575485 1.175033 -3.722803
C 0.348727 1.015658 -3.786248
C 0.487374 0.864888 -3.964781
C 0.653123 0.755983 -4.159089
C 0.515158 0.742972 -4.220651
C 0.387771 0.666285 -4.253270
C 0.205664 0.679956 -4.145292
C -0.122989 0.716869 -4.112362
C -0.650191 0.809881 -3.896218
C -1.244737 0.993030 -3.455639
C -1.813823 1.241239 -2.912706
C -2.146422 1.482467 -2.415430
C -2.572797 1.753746 -1.934738
C -2.962599 1.912798 -1.495173
C -3.292779 2.133548 -1.156040
C -3.344123 2.122007 -1.068224
C -3.442784 2.067101 -1.063511
C -3.425679 1.966127 -1.225756
C -3.273490 1.716699 -1.457279
C -3.155114 1.462343 -1.860919
C -2.420907 1.837754 -1.789187
C -1.301344 1.920970 -1.619365
C -0.155599 2.077556 -1.329870
C 1.009189 1.943029 -1.219350
C 2.104534 1.890605 -1.067053
C 3.133566 1.962277 -0.892890
C 4.124741 1.817356 -0.695446
C 4.569988 1.045125 -0.946116
C 4.704987 0.510422 -1.139469
C 4.406118 0.809246 -0.971619
C 4.069158 1.404120 -0.632237
C 3.656502 1.909724 -0.152521
C 3.212473 2.282502 0.403672
C 2.856681 2.763561 1.221525
C 2.450327 3.243524 2.055600
C 1.996487 3.640296 2.873342
C 1.875552 3.202809 3.362328
C 1.816162 2.628755 3.839897
C 1.801052 1.953290 4.256056
C 1.827102 1.245613 4.566695
C 1.889851 0.642896 4.754785
C 2.003461 0.319823 4.804683
C 2.129544 0.200491 4.772145
C 2.043927 0.460856 4.664125
C 1.903821 0.935599 4.448151
C 1.698984 1.601596 4.146621
C 1.373822 2.403852 3.797379
C 0.911972 3.232993 3.390408
C 0.402889 3.929762 2.982422
C 0.001139 4.511669 2.595366
C -0.066580 4.774896 2.271457
C 0.254079 4.599944 2.241109
C 0.683404 4.333948 2.262290
C 1.199983 4.092331 2.279827
C 1.834589 3.784817 2.365817
C 2.519493 3.255588 2.558173
C 3.143382 2.362700 2.746258
C 3.643570 1.381797 2.897304
C 3.771829 0.689357 2.880076
C 3.783834 0.041126 2.973805
C 3.774531 -0.607591 3.174373
C 3.775540 -1.099546 3.368759
C 3.759373 -1.292077 3.447121
C 3.759806 -1.102044 3.437448
C 3.819285 -0.786666 3.378691
C 3.954571 -0.568016 3.135752
C 4.204275 -0.294063 2.800067
C 4.426729 -0.056382 2.364151
C 4.624796 -0.216635 2.009412
C 4.737137 -0.528362 1.633053
C 4.797066 -0.865817 1.213518
C 4.875130 -1.121820 0.875282
C 4.938670 -1.079795 0.670218
C 4.921969 -0.868225 0.555143
C 4.914690 -0.620677 0.598284
C 4.749342 0.101654 0.563024
C 4.626381 0.861080 0.618570
C 4.551806 1.539216 0.844627
C 4.391912 1.447308 0.639873
C 3.354899 1.263998 0.251349
C 2.460485 0.874072 -0.160810
C 1.709416 0.361199 -0.674098
C 1.023703 -0.411336 -1.282410
C 0.514868 -1.146555 -1.831198
C 0.019844 -1.855771 -2.505091
C -0.639743 -1.884651 -2.721272
C -0.396766 -2.023274 -2.783427
C -0.248751 -2.157192 -2.872894
C 0.016295 -2.238665 -2.950733
C 0.484548 -2.291378 -2.906929
C 0.688604 -2.366042 -2.873084
C 0.665711 -2.402543 -2.775781
C 0.859473 -2.402032 -2.607026
C 1.014686 -2.402411 -2.438872
C 1.062982 -2.443962 -2.291474
C 0.866290 -2.544584 -2.145773
C 0.503108 -2.711619 -2.092109
C 0.330925 -2.814661 -2.078023
C 0.262420 -2.837854 -1.926104
C 0.319980 -2.972743 -1.909108
C 0.389711 -3.061132 -1.908235
C 0.344961 -3.108781 -1.981584
C 0.606204 -3.123116 -2.067863
C 0.933945 -3.032183 -1.943398
C 1.123752 -3.050059 -1.825791
C 1.390761 -3.058810 -1.856474
C 1.603592 -3.060288 -1.863213
C 1.571725 -3.104502 -1.841906
C 1.489423 -3.136224 -1.736453
C 1.013977 -3.190922 -1.646140
C 0.447064 -3.166107 -1.693888
C -0.122617 -3.036827 -1.752910
C -0.709946 -2.962799 -1.749169
C -1.444266 -2.906617 -1.764238
C -1.879609 -2.700556 -1.688643
C -1.992184 -2.614145 -1.652066
C -2.113426 -2.404994 -1.615529
C -2.143165 -2.255079 -1.469496
C -2.198855 -2.231387 -1.415202
C -2.153600 -2.242531 -1.303160
C -2.320514 -2.054507 -1.266240
C -2.450187 -1.959540 -1.152245
C -2.726542 -1.787415 -1.140275
C -2.794299 -1.787703 -0.973781
C -3.043091 -1.695998 -0.977584
C -3.127150 -1.541883 -0.815957
C -3.419446 -1.359139 -0.693829
C -3.394821 -1.278803 -0.442712
C -3.514693 -1.222058 -0.346506
C -3.455334 -1.205490 -0.087602
C -3.632579 -1.015886 -0.026164
C -3.529023 -0.953477 0.156328
C -3.671707 -0.882792 0.258177
C -3.658045 -0.907544 0.355513
C -3.690658 -0.878900 0.398955
C -3.798633 -0.903436 0.477246
C -3.906231 -1.045847 0.585350
C -3.722737 -1.111622 0.680281
C -3.638444 -1.267263 0.719709
C -3.370641 -1.415171 0.734803
C -3.316264 -1.671078 0.638958
C -3.243000 -2.001283 0.610770
C -2.892238 -2.213661 0.446813
C -2.474419 -2.426638 0.198806
C -1.758816 -2.810886 0.230026
C -1.306787 -3.013874 0.093203
C -0.835475 -3.302468 0.023216
C -0.165720 -3.400672 0.023601
C 0.545098 -3.512408 -0.051002
C 1.090055 -3.612016 -0.028273
C 1.493270 -3.597322 0.022560
C 1.164018 -3.550494 -0.139107
C 1.006784 -3.588678 -0.093970
C 0.827075 -3.659155 -0.039367
C 0.829369 -3.685871 0.080778
C 0.665983 -3.696495 0.172818
C 0.327136 -3.665843 0.241821
C 0.035726 -3.653722 0.325976
C 0.047261 -3.634124 0.438203
C 0.013679 -3.618123 0.556629
C -0.129206 -3.490624 0.625932
C -0.472314 -3.477122 0.764531
C -0.700555 -3.377071 0.913699
C -0.789755 -3.312079 1.063673
C -0.922906 -3.264604 1.292631
C -1.197936 -3.203241 1.428298
C -1.380629 -3.108075 1.584131
C -1.442630 -2.999194 1.638147
C -1.509342 -2.758621 1.614837
C -1.610464 -2.595312 1.600301
C -1.589605 -2.541953 1.691020
C -1.455325 -2.459839 1.724688
C -1.220572 -2.382954 1.634591
C -0.852143 -2.441216 1.596971
C -0.510310 -2.517349 1.660777
C -0.274024 -2.664446 1.697075
C -0.019162 -2.714703 1.730543
C 0.210120 -2.733952 1.714284
C 0.417737 -2.788762 1.625680
C 0.614164 -2.829231 1.718254
C 0.627111 -2.813688 1.806931
C 0.630099 -2.761837 1.864960
C 0.575709 -2.624598 1.887651
C 0.268795 -2.524170 1.921410
C -0.084576 -2.315381 1.920147
C -0.550088 -2.021801 1.978871
C -0.949943 -1.822975 2.121798
C -1.188190 -1.630993 2.281710
C -1.574320 -1.482351 2.460029
C -1.732207 -1.332591 2.762172
C -1.808875 -1.221318 2.862922
C -1.956478 -1.154115 3.080633
C -2.052964 -1.117438 3.330712
C -2.096764 -1.002958 3.534139
C -2.359309 -0.827664 3.435217
C -2.536417 -0.584047 3.380191
C -2.866078 -0.123454 3.100697
C -2.946622 0.346491 3.062459
C -2.946986 0.749457 2.965847
C -2.920005 1.278172 2.835863
C -3.030392 1.652330 2.714682
C -3.081709 1.948824 2.667756
C -3.067798 2.198528 2.634748
C -2.975544 2.044381 2.752586
C -2.987978 1.874499 2.823778
C -2.945067 1.688689 2.906299
C -2.920715 1.466243 2.950638
C -2.864883 1.332591 2.989705
C -2.726649 1.369373 3.129453
C -2.654199 1.299521 3.189794
C -2.490727 1.360407 3.320454
C -2.269337 1.320171 3.470352
C -2.140117 1.225286 3.563104
C -2.066115 1.152139 3.635528
C -1.973141 1.263813 3.686143
C -1.852186 1.304897 3.782804
C -1.667083 1.486165 3.872940
C -1.547169 1.376857 3.907679
C -1.337073 1.475320 4.012640
C -1.256575 1.668777 4.029930
C -1.153274 1.805834 4.076272
C -0.991350 1.755889 4.152105
