181
chr16 3D structure from Hi-C (resolution 500000bp)
C -3.940673 -0.387198 -0.762306
C -3.932141 -0.467511 -0.808015
C -3.884817 -0.503990 -0.897133
C -3.742341 -0.449754 -0.914854
C -3.513244 -0.325400 -0.962982
C -3.334848 -0.215669 -1.021710
C -3.044866 -0.269946 -1.104139
C -2.527229 0.006806 -1.075612
C -1.904837 0.465972 -0.999783
C -1.301665 0.965461 -0.876201
C -0.790937 1.393360 -0.797734
C -0.316907 1.851070 -0.705240
C 0.182201 2.173778 -0.695001
C 0.539336 2.557582 -0.626268
C 0.478462 2.502704 -0.651421
C 0.325827 2.378067 -0.722128
C 0.185409 2.235980 -0.821841
C -0.054549 2.074505 -0.903059
C -0.437431 1.869763 -1.020756
C -0.880989 1.547879 -1.153768
C -1.333722 1.221703 -1.353370
C -1.382235 1.165815 -1.483943
C -1.350371 1.179135 -1.603931
C -1.295424 1.276608 -1.649009
C -1.258540 1.307700 -1.727509
C -1.307075 1.260525 -1.764651
C -1.732293 1.380506 -1.105565
C -2.088209 1.610190 -0.362165
C -2.560225 1.939260 0.342883
C -3.136098 2.244625 0.907068
C -3.751612 2.482974 1.300697
C -3.860061 2.345890 1.343725
C -3.667906 2.474688 1.299056
C -3.133675 2.809660 0.567597
C -2.759076 2.778874 -0.240737
C -2.262684 2.514395 -1.019286
C -1.700469 2.117423 -1.672484
C -1.075514 1.745191 -2.177104
C -1.015370 1.734608 -2.390497
C -1.142421 1.592620 -2.553206
C -1.200463 1.081646 -2.684327
C -1.115151 0.823742 -2.733888
C -1.049799 0.779550 -2.825546
C -1.121067 0.614904 -2.888253
C -1.288592 0.313991 -2.958625
C -1.146744 0.224203 -2.952424
C -0.988352 0.108443 -2.909394
C -0.726819 0.184952 -2.754645
C -0.405886 0.432012 -2.589259
C -0.221697 0.594694 -2.390634
C 0.003694 0.843592 -2.258799
C 0.076142 0.932913 -2.166160
C 0.013442 0.899684 -2.027950
C -0.100035 0.850664 -1.972979
C -0.421868 0.636761 -2.043929
C -0.975181 0.275044 -2.192543
C -1.495156 -0.215168 -2.291853
C -2.006333 -0.616736 -2.360728
C -2.256189 -0.744610 -2.361456
C -2.362066 -0.746055 -2.269394
C -2.200496 -0.423288 -1.975903
C -2.010699 0.460855 -1.488165
C -1.705099 1.346911 -0.781433
C -1.423500 2.298792 -0.019125
C -0.940901 3.164525 0.570351
C -0.365679 3.929346 0.999948
C 0.160264 4.371914 1.276306
C 0.466712 4.471385 1.364555
C 0.916759 4.082239 1.310590
C 1.450731 3.833030 1.311157
C 1.704509 3.634757 1.547223
C 1.722550 3.357938 2.089008
C 1.575147 3.004829 2.789901
C 1.292124 2.693582 3.550371
C 1.051403 2.313836 4.409244
C 0.790869 1.798639 5.234099
C 0.440521 1.020475 5.787548
C 0.247334 0.088174 5.930579
C -0.010834 -0.778342 5.900633
C -0.423371 -1.533395 5.773121
C -0.952474 -2.088727 5.540086
C -1.594639 -2.419091 5.235241
C -2.286175 -2.481598 4.923642
C -2.904508 -2.286638 4.699047
C -3.337804 -1.883853 4.607197
C -3.568221 -1.308678 4.611807
C -3.614824 -0.586290 4.659609
C -3.478248 0.238207 4.721809
C -3.139877 1.056319 4.815151
C -2.163544 1.598683 4.507527
C -1.449659 1.680430 3.777854
C -0.792649 1.627696 2.840255
C -0.163489 1.570207 1.976067
C 0.359714 1.290256 1.077619
C 0.909233 0.928684 0.248767
C 1.419149 0.481342 -0.599867
C 1.316993 0.111782 -1.059833
C 1.378945 0.001112 -1.205838
C 1.409230 -0.046368 -1.172138
C 1.504319 -0.012311 -1.170815
C 1.713025 0.091859 -1.116121
C 1.889268 0.151465 -1.067900
C 2.044861 0.169608 -1.034329
C 2.097007 0.103673 -1.105921
C 2.245116 0.132994 -1.075902
C 2.427671 0.212482 -1.053729
C 2.524521 0.188228 -1.049431
C 2.509122 0.129246 -1.079073
C 2.568806 -0.014385 -1.200405
C 2.400917 -0.168524 -1.228651
C 2.222140 -0.327375 -1.212277
C 1.940047 -0.575685 -1.276627
C 1.704986 -0.810009 -1.352951
C 1.505355 -1.069796 -1.463260
C 1.479733 -1.221573 -1.469152
C 1.490037 -1.164179 -1.297918
C 1.751802 -0.983205 -1.095145
C 2.137885 -0.616608 -0.782370
C 2.599007 -0.226859 -0.425475
C 2.920124 0.083077 -0.106742
C 3.197315 0.271372 0.164464
C 3.329135 0.410454 0.383034
C 3.340031 0.360970 0.471824
C 3.299593 0.281633 0.551803
C 3.284401 0.136630 0.663419
C 3.198126 0.110780 0.738822
C 3.139988 0.087927 0.798363
C 3.027045 0.124704 0.846632
C 2.906805 0.169453 0.827073
C 2.633530 0.138706 0.741701
C 2.217963 -0.104704 0.465040
C 1.702483 -0.410016 0.097690
C 1.170605 -0.811855 -0.253305
C 0.670871 -1.263313 -0.583784
C 0.273192 -1.688621 -0.904955
C -0.123714 -2.183008 -1.187247
C -0.356790 -2.560398 -1.365348
C -0.383114 -2.800517 -1.363413
C -0.181493 -2.946155 -1.272456
C 0.193223 -2.986903 -1.152606
C 0.387726 -2.915866 -1.116795
C 0.660504 -2.790696 -1.024459
C 0.956698 -2.649282 -0.941090
C 1.285799 -2.465151 -0.808511
C 1.633435 -2.188171 -0.646645
C 1.737565 -1.989410 -0.596261
C 1.650317 -1.931505 -0.655093
C 1.734013 -1.980007 -0.559101
C 1.777631 -2.011390 -0.453943
C 1.960458 -1.955322 -0.216619
C 2.043667 -1.961301 -0.039930
C 2.056936 -1.981841 0.028971
C 2.118447 -1.910841 0.144961
C 2.224962 -1.774980 0.348214
C 2.344266 -1.637032 0.512809
C 2.363356 -1.499579 0.665697
C 2.230958 -1.403262 0.725465
C 2.133877 -1.292137 0.787739
C 1.956086 -1.299348 0.823238
C 1.773569 -1.371866 0.788813
C 1.609144 -1.499490 0.734328
C 1.538007 -1.543521 0.724240
C 1.448372 -1.523959 0.741200
C 1.353109 -1.457973 0.693892
C 1.181430 -1.473548 0.624424
C 0.999574 -1.507623 0.538341
C 0.812812 -1.538430 0.485657
C 0.652095 -1.597046 0.498289
C 0.339472 -1.690260 0.401571
C 0.111419 -1.829270 0.350493
C -0.070255 -1.969388 0.360727
C -0.248472 -2.021423 0.330524
C -0.449086 -2.080519 0.301930
C -0.551577 -2.180440 0.401217
C -0.793220 -2.260020 0.338781
C -1.016150 -2.339739 0.299853
C -1.332969 -2.493993 0.153727
C -1.738775 -2.842466 0.197584
C -1.954068 -3.064153 0.147183
C -2.093287 -3.236512 0.185719
C -2.340286 -3.338015 0.100918
