181
chr16 3D structure from Hi-C (resolution 500000bp)
C -3.721990 -0.810448 -1.357443
C -3.666421 -0.881027 -1.457443
C -3.579865 -0.927101 -1.537655
C -3.462688 -0.857706 -1.563740
C -3.231333 -0.755427 -1.633291
C -3.071564 -0.688534 -1.658308
C -2.768165 -0.621610 -1.672730
C -2.311475 -0.357143 -1.531074
C -1.762034 0.158478 -1.281402
C -1.242586 0.731012 -1.060442
C -0.753115 1.201517 -0.862874
C -0.381545 1.719880 -0.638836
C 0.124499 2.147367 -0.510128
C 0.430854 2.517025 -0.371902
C 0.380413 2.524568 -0.430081
C 0.237435 2.409060 -0.544895
C 0.073722 2.212841 -0.631541
C -0.166276 1.998506 -0.722662
C -0.462571 1.678165 -0.930575
C -0.858860 1.304362 -1.196034
C -1.199265 0.932604 -1.476979
C -1.238002 0.879119 -1.593636
C -1.256845 0.880724 -1.697579
C -1.255025 0.971553 -1.744637
C -1.121058 1.066602 -1.799151
C -1.163443 1.109257 -1.768925
C -1.726290 1.118499 -1.134614
C -2.270570 1.299999 -0.474383
C -2.900124 1.528204 0.070465
C -3.538880 1.746525 0.436516
C -4.136290 1.991579 0.712172
C -4.329691 1.868578 0.644645
C -4.158774 2.027367 0.595190
C -3.561357 2.501334 -0.048928
C -3.080634 2.582398 -0.773797
C -2.424039 2.432112 -1.383072
C -1.727171 2.149791 -1.881018
C -1.035396 1.841636 -2.297274
C -0.884560 1.819128 -2.421305
C -0.945683 1.628862 -2.662216
C -0.829754 1.078450 -2.841344
C -0.682661 0.830911 -2.895181
C -0.650313 0.785297 -2.996827
C -0.655142 0.638866 -3.040659
C -0.694750 0.349023 -3.133626
C -0.585397 0.281044 -3.145244
C -0.434879 0.224467 -3.062511
C -0.267832 0.372153 -2.847656
C 0.038593 0.625933 -2.642088
C 0.260954 0.770512 -2.444625
C 0.434994 0.955070 -2.277154
C 0.451886 1.041903 -2.158212
C 0.361471 0.995612 -2.020671
C 0.201314 0.930476 -2.007058
C -0.094838 0.628067 -2.148613
C -0.494448 0.167840 -2.373054
C -0.930152 -0.335562 -2.549780
C -1.375926 -0.718341 -2.741149
C -1.580229 -0.901241 -2.801075
C -1.688276 -0.945279 -2.812869
C -1.572802 -0.663678 -2.459435
C -1.569101 0.264535 -1.940636
C -1.565657 1.244412 -1.263252
C -1.569616 2.204522 -0.471571
C -1.336451 3.106708 0.209628
C -0.922572 3.901779 0.696683
C -0.455341 4.422856 1.121521
C -0.156748 4.506760 1.242863
C 0.392111 4.158764 1.238102
C 0.959528 3.915829 1.407379
C 1.277194 3.673174 1.775643
C 1.309565 3.350406 2.332646
C 0.995579 2.984626 3.051650
C 0.503535 2.629988 3.759618
C 0.110570 2.309645 4.572602
C -0.257393 1.778456 5.404075
C -0.620028 0.998987 5.910611
C -0.777246 0.119970 5.969089
C -0.973229 -0.748006 5.905959
C -1.231668 -1.520162 5.725801
C -1.586819 -2.138624 5.439408
C -2.105770 -2.542375 5.048341
C -2.740056 -2.691874 4.646456
C -3.333778 -2.562842 4.352842
C -3.789948 -2.179733 4.190092
C -4.099594 -1.572132 4.115431
C -4.251260 -0.779243 4.092046
C -4.202372 0.129157 4.128714
C -3.925033 1.043876 4.242197
C -2.961792 1.760161 3.969999
C -2.198521 1.902943 3.289213
C -1.369672 1.873955 2.395667
C -0.620075 1.834727 1.690125
C 0.069128 1.520260 0.929339
C 0.744968 1.145767 0.260057
C 1.358267 0.691669 -0.453472
C 1.355373 0.256226 -0.801855
C 1.439226 0.159424 -0.898082
C 1.429392 0.171935 -0.802473
C 1.573583 0.188707 -0.829789
C 1.775013 0.347575 -0.718935
C 1.977676 0.436295 -0.658322
C 2.090679 0.436860 -0.598335
C 2.133349 0.346853 -0.680744
C 2.304538 0.365955 -0.629843
C 2.465491 0.429921 -0.573017
C 2.534382 0.407004 -0.546729
C 2.562443 0.346333 -0.614601
C 2.621027 0.202033 -0.734834
C 2.538195 0.054847 -0.838234
C 2.417931 -0.073633 -0.865333
C 2.166639 -0.313083 -1.014000
C 1.954140 -0.580086 -1.125325
C 1.791326 -0.830951 -1.265963
C 1.753320 -1.005837 -1.275466
C 1.749872 -0.970965 -1.103663
C 1.974672 -0.795292 -0.880210
C 2.240331 -0.470755 -0.484986
C 2.587484 -0.030544 -0.046325
C 2.899574 0.242900 0.272673
C 3.151066 0.464451 0.568722
C 3.263214 0.581711 0.800427
C 3.197806 0.601999 0.892855
C 3.149297 0.512483 1.026628
C 3.126599 0.420212 1.088178
C 3.081458 0.311050 1.159636
C 2.974158 0.327730 1.257233
C 2.833188 0.345141 1.322134
C 2.689017 0.344489 1.303689
C 2.527667 0.196653 1.144783
C 2.176536 -0.011516 0.803732
C 1.753326 -0.371651 0.364554
C 1.302890 -0.790324 -0.070962
C 0.894766 -1.267282 -0.475558
C 0.584870 -1.706977 -0.844354
C 0.288855 -2.184896 -1.189447
C 0.117997 -2.544882 -1.373895
C 0.073007 -2.814943 -1.456290
C 0.259447 -2.911124 -1.362621
C 0.584261 -2.892998 -1.180721
C 0.807425 -2.825381 -1.132285
C 1.042848 -2.753837 -1.034573
C 1.308540 -2.557120 -0.897146
C 1.566088 -2.323721 -0.723174
C 1.904551 -2.040251 -0.493036
C 2.050717 -1.874441 -0.380348
C 1.988907 -1.824642 -0.416676
C 1.970256 -1.837020 -0.339179
C 2.008846 -1.840764 -0.187941
C 2.134635 -1.741616 0.089964
C 2.225236 -1.758836 0.255920
C 2.204399 -1.794062 0.383168
C 2.201375 -1.738563 0.519935
C 2.330151 -1.587952 0.728657
C 2.450696 -1.416537 0.956356
C 2.423481 -1.271170 1.089773
C 2.287327 -1.214197 1.107632
C 2.138864 -1.149671 1.181271
C 1.989757 -1.180381 1.155824
C 1.814328 -1.246706 1.063661
C 1.588572 -1.391873 0.954441
C 1.492522 -1.388009 0.934738
C 1.379413 -1.376909 0.924248
C 1.278389 -1.348966 0.893560
C 1.130936 -1.358755 0.790384
C 0.953729 -1.389539 0.703727
C 0.805562 -1.452538 0.669413
C 0.645329 -1.539296 0.679531
C 0.362302 -1.773768 0.519799
C 0.172384 -1.910243 0.476153
C 0.009507 -2.079944 0.462223
C -0.161969 -2.187841 0.407126
C -0.345015 -2.255425 0.356961
C -0.520629 -2.330611 0.421688
C -0.736209 -2.422669 0.334360
C -0.912680 -2.507272 0.265574
C -1.179997 -2.667448 0.022064
C -1.522342 -3.038438 -0.024791
C -1.709844 -3.219363 -0.097884
C -1.852281 -3.381513 -0.090908
C -2.009528 -3.520716 -0.219019
