161
chr18 3D structure from Hi-C (resolution 500000bp)
C -0.533083 2.793366 -1.171597
C -0.408279 2.676144 -1.233213
C -0.515071 2.345387 -1.497474
C -0.623596 2.134511 -1.700719
C -0.447763 1.963419 -1.893848
C -0.403251 1.887321 -2.108391
C -0.553520 1.548992 -2.400611
C -0.624377 1.414840 -2.568551
C -0.693379 1.467912 -2.706805
C -0.682762 1.616251 -2.677165
C -0.535186 1.806264 -2.498463
C -0.593343 2.074875 -2.285208
C -0.646239 2.287103 -2.180217
C -0.698425 2.372911 -1.977101
C -0.837543 2.301927 -1.868246
C -1.057104 2.147345 -1.893222
C -1.241320 2.051015 -1.881614
C -1.494686 1.855252 -1.947449
C -1.714413 1.518752 -2.055874
C -1.867074 1.198564 -2.141953
C -2.030392 0.944866 -2.272527
C -2.199745 0.893361 -2.301753
C -2.335641 0.811975 -2.152263
C -2.372583 0.828963 -1.962198
C -2.427544 1.040002 -1.753546
C -2.418176 1.393968 -1.486961
C -2.483480 1.774716 -1.056429
C -2.719148 2.066996 -0.483207
C -3.095852 1.952478 -0.076953
C -3.394984 1.631053 0.257312
C -3.693632 1.171844 0.618797
C -3.965059 0.593265 1.050234
C -4.202082 0.106286 1.523159
C -4.401311 -0.275758 1.906076
C -4.290130 -0.337341 2.209848
C -3.891361 0.027938 2.596466
C -3.351180 0.724157 2.999010
C -2.775075 1.605780 3.252736
C -2.294456 2.474868 3.182412
C -1.868496 2.904204 2.773767
C -1.594157 2.929639 2.252634
C -1.312918 2.858366 1.737820
C -1.118181 2.535755 1.142370
C -1.281129 1.968681 0.482257
C -1.484621 1.328842 -0.120215
C -1.547097 0.738704 -0.482993
C -1.409702 0.505517 -0.518846
C -1.126267 0.662926 -0.436680
C -0.930760 0.660271 -0.428799
C -1.051419 0.554510 -0.442507
C -0.669783 0.832328 -0.278201
C -0.222525 1.162320 -0.126064
C 0.177914 1.422048 0.049382
C 0.434664 1.648668 0.115757
C 0.709055 1.751237 0.237071
C 0.974373 1.908446 0.382225
C 1.472957 2.241414 0.574994
C 1.694946 2.257674 0.582714
C 1.774522 2.160522 0.593140
C 1.752393 2.051038 0.432793
C 1.649186 1.765843 0.072113
C 1.543604 1.507633 -0.282891
C 1.591516 1.431718 -0.622153
C 1.659313 1.320042 -0.865997
C 1.672067 1.234392 -1.143404
C 1.790549 1.205395 -1.452076
C 1.905074 1.106374 -1.602171
C 1.902889 1.035655 -1.597734
C 1.904377 0.891612 -1.768197
C 1.712971 0.548541 -1.890252
C 1.548116 0.326793 -1.928861
C 1.462411 0.229170 -1.751169
C 1.533456 0.141324 -1.490447
C 1.597099 0.163644 -1.247766
C 1.859347 0.207142 -1.127773
C 2.155753 0.397655 -0.769788
C 2.501511 0.531381 -0.441306
C 2.797987 0.595017 -0.279416
C 3.091718 0.550254 -0.273840
C 3.002098 0.490891 -0.303758
C 2.931249 0.371503 -0.403770
C 2.802988 0.224838 -0.454560
C 2.692983 -0.097435 -0.647673
C 2.609151 -0.333812 -0.767395
C 2.559071 -0.583465 -0.955107
C 2.395436 -0.810679 -1.176147
C 2.229758 -1.014979 -1.356373
C 2.069610 -1.189004 -1.433100
C 1.876974 -1.279281 -1.450702
C 1.441001 -1.410886 -1.644263
C 0.934667 -1.479411 -1.883334
C 0.480408 -1.509731 -1.999690
C 0.009030 -1.567668 -2.023710
C -0.304401 -1.634614 -2.025984
C -0.701621 -1.750795 -2.126365
C -1.058004 -1.875054 -2.207272
C -1.126055 -1.869799 -2.010386
C -1.226115 -2.060082 -1.937287
C -1.210190 -2.152294 -1.879986
C -1.031471 -2.224261 -1.769788
C -0.814612 -2.440443 -1.714458
C -0.429150 -2.432523 -1.545088
C 0.111561 -2.427091 -1.266056
C 0.532895 -2.456785 -1.106939
C 1.026861 -2.427090 -0.795496
C 1.065924 -2.567460 -0.561963
C 1.152117 -2.656902 -0.371680
C 1.170018 -2.505543 -0.218414
C 1.197765 -2.630429 -0.097278
C 1.011713 -2.668083 0.010655
C 0.681073 -2.753345 0.020917
C 0.267673 -2.741295 -0.010340
C 0.146704 -2.643373 -0.061129
C -0.093486 -2.529783 -0.087492
C -0.430107 -2.546709 -0.076324
C -0.600636 -2.357163 -0.133455
C -0.649004 -2.299389 -0.111399
C -0.523976 -2.348095 0.069602
C -0.227588 -2.286866 0.175258
C 0.150030 -2.175619 0.380175
C 0.394428 -2.099530 0.550230
C 0.587816 -2.015501 0.680969
C 0.446427 -2.192783 0.861431
C 0.351735 -2.201946 0.877759
C 0.292584 -2.187578 0.967617
C 0.443534 -1.948551 1.079795
C 0.579258 -1.795555 1.193044
C 0.814119 -1.705427 1.308741
C 1.190022 -1.603475 1.448379
C 1.695919 -1.335996 1.503124
C 2.083002 -1.295829 1.712752
C 2.323284 -1.048107 1.794554
C 2.233525 -1.146016 1.924990
C 2.055233 -1.250339 1.990712
C 1.844669 -1.305249 2.139851
C 1.643867 -1.362201 2.366211
C 1.442933 -1.386139 2.450047
C 1.231940 -1.261453 2.453749
C 1.139119 -1.146493 2.544919
C 1.107015 -0.977695 2.580462
C 1.083333 -0.704673 2.732941
C 1.095746 -0.446988 2.745804
C 1.053556 -0.191239 2.781360
C 1.050093 0.127609 2.904875
C 1.103253 0.298514 2.939837
C 0.926526 0.257379 2.694332
C 0.579570 0.116584 2.532162
C 0.273021 -0.152313 2.346265
C 0.079843 -0.268998 2.321472
C -0.069068 -0.316073 2.167471
C -0.308841 -0.517094 2.021532
C -0.574847 -0.653991 1.964338
C -0.632627 -0.515074 2.265226
C -0.526129 -0.239299 2.450816
C -0.564961 -0.055496 2.674941
C -0.777697 -0.007422 2.585978
C -1.080849 -0.048764 2.547962
C -1.338604 -0.093157 2.516335
C -1.423982 0.010536 2.592154
C -1.619494 -0.083984 2.444331
C -1.971635 -0.343419 2.324999
