161
chr18 3D structure from Hi-C (resolution 500000bp)
C -1.359889 1.193258 -2.455055
C -1.387493 1.119666 -2.368566
C -1.140203 1.060485 -2.459975
C -0.978597 1.071975 -2.596039
C -1.138624 1.160356 -2.594666
C -1.139749 1.079661 -2.632160
C -0.802786 1.064907 -2.818582
C -0.691677 1.053172 -2.943766
C -0.678280 1.027366 -3.067717
C -0.837437 1.003124 -3.093615
C -1.010728 0.886455 -2.953720
C -1.296063 0.690598 -2.894906
C -1.532562 0.516668 -2.937063
C -1.629380 0.325067 -2.804210
C -1.452154 0.096111 -2.823854
C -1.256160 -0.017011 -2.976391
C -1.234334 -0.191421 -3.054360
C -1.033920 -0.342830 -3.194393
C -0.712031 -0.390158 -3.328860
C -0.330831 -0.407713 -3.351445
C -0.061868 -0.521689 -3.536501
C -0.065825 -0.650321 -3.564516
C -0.075203 -0.847232 -3.476211
C 0.012815 -1.032643 -3.347031
C -0.226244 -1.156740 -3.255945
C -0.596849 -1.420578 -3.036120
C -1.170115 -1.659118 -2.801360
C -1.827264 -1.932287 -2.423538
C -2.489203 -2.104951 -2.011467
C -3.249221 -2.072562 -1.431741
C -3.974653 -1.910493 -0.801759
C -4.462950 -1.874992 -0.064326
C -4.709551 -1.934394 0.571675
C -4.683576 -2.202289 1.059588
C -4.459273 -2.492981 1.385597
C -4.002979 -2.895076 1.482940
C -3.317393 -3.512546 1.384746
C -2.574765 -4.198956 1.024390
C -1.970517 -4.692935 0.402792
C -1.536861 -4.629673 -0.149516
C -1.074754 -4.362595 -0.674734
C -0.829846 -3.853902 -0.989876
C -0.649785 -3.205901 -1.250852
C -0.491153 -2.656599 -1.569977
C -0.390562 -2.068338 -1.688070
C -0.328631 -1.535422 -1.619774
C -0.254264 -1.195757 -1.519447
C -0.445977 -0.948870 -1.348121
C -0.489129 -0.755961 -1.302496
C -0.717682 -0.581071 -1.279817
C -0.982866 -0.230204 -1.042544
C -1.408162 0.153493 -0.840930
C -1.710110 0.421783 -0.581214
C -2.025567 0.602747 -0.401245
C -2.273965 0.856954 -0.133718
C -2.530747 1.077136 0.119854
C -2.592704 1.253054 0.344927
C -2.680682 1.381728 0.529162
C -2.575900 1.405844 0.622744
C -2.383807 1.547865 0.497038
C -1.959327 1.667963 0.260632
C -1.575482 1.758364 0.059504
C -1.382321 1.939491 -0.144217
C -1.172917 2.114356 -0.261832
C -0.995793 2.324401 -0.401293
C -0.858501 2.630358 -0.570841
C -0.698099 2.745716 -0.581883
C -0.602585 2.789988 -0.580457
C -0.334895 2.889619 -0.722334
C 0.110091 2.736037 -0.875651
C 0.367725 2.528067 -0.917172
C 0.459954 2.328931 -0.827813
C 0.468310 2.267712 -0.571279
C 0.292156 2.198041 -0.296685
C 0.049725 2.173640 -0.010756
C -0.332897 2.213141 0.425798
C -0.734354 2.341526 0.933633
C -0.960580 2.534928 1.278652
C -0.977988 2.802324 1.380293
C -0.912088 2.694181 1.406860
C -0.758997 2.676457 1.347380
C -0.453891 2.746116 1.246561
C -0.134917 2.754955 1.105585
C 0.217602 2.778286 0.971438
C 0.529037 2.890078 0.768073
C 0.864143 2.842004 0.652340
C 1.208243 2.782131 0.321306
C 1.434199 2.705847 0.160802
C 1.529308 2.472462 0.003774
C 1.819853 2.115543 -0.379031
C 2.073095 1.699372 -0.747628
C 2.193220 1.154297 -1.014160
C 2.281721 0.672328 -1.328557
C 2.288919 0.260425 -1.400915
C 2.528275 -0.120581 -1.596951
C 2.705611 -0.520426 -1.753441
C 2.663402 -0.684594 -1.670591
C 2.690256 -0.992506 -1.692260
C 2.733135 -1.165876 -1.561663
C 2.663948 -1.353239 -1.299004
C 2.800563 -1.537031 -0.971657
C 2.634926 -1.516394 -0.648358
C 2.435076 -1.397409 -0.099252
C 2.351475 -1.410014 0.368216
C 2.343479 -1.292096 0.899532
C 2.452133 -1.202931 1.098373
C 2.569159 -1.112882 1.307344
C 2.489993 -0.817886 1.335928
C 2.539635 -0.661096 1.505975
C 2.646511 -0.502634 1.459236
C 2.775561 -0.441028 1.242926
C 2.811739 -0.270657 0.948777
C 2.770843 -0.176373 0.808636
C 2.680660 -0.041127 0.562082
C 2.794684 0.034579 0.405450
C 2.712918 0.035317 0.207562
C 2.648818 0.101552 0.154561
C 2.657065 0.363746 0.343369
C 2.512677 0.599543 0.584872
C 2.391749 0.786595 0.878171
C 2.289696 0.916763 1.081219
C 2.103222 1.022009 1.216478
C 2.340861 1.209020 1.147010
C 2.421268 1.245523 1.017457
C 2.348321 1.143827 1.120594
C 2.270012 1.120333 1.286312
C 2.068791 1.213269 1.497576
C 1.897795 1.269564 1.816295
C 1.772533 1.226196 2.142265
C 1.404344 1.188523 2.576212
C 1.042862 1.187954 3.050696
C 0.775126 1.159906 3.168406
C 0.508135 1.065504 3.198106
C 0.415234 0.888631 3.145553
C 0.375870 0.660457 3.192307
C 0.165469 0.531329 3.337802
C 0.013994 0.322090 3.314336
C -0.083558 0.137249 3.202026
C -0.339493 0.023452 3.153048
C -0.460537 -0.118992 3.153700
C -0.642988 -0.254021 3.213503
C -0.704357 -0.352968 3.152048
C -0.809747 -0.529363 3.041189
C -0.817108 -0.683139 3.123243
C -0.686506 -0.835714 3.145864
C -0.436736 -0.962219 2.889604
C -0.122218 -1.200115 2.605874
C 0.175868 -1.434489 2.395031
C 0.189702 -1.576487 2.208058
C 0.352186 -1.616821 2.018622
C 0.423307 -1.687964 1.671530
C 0.450433 -1.769271 1.454039
C 0.239912 -1.977763 1.609471
C -0.078525 -1.983811 1.791435
C -0.291838 -2.130550 1.839112
C -0.156788 -2.258739 1.645663
C -0.003659 -2.512243 1.458938
C 0.055093 -2.736996 1.435408
C -0.003429 -2.870187 1.465474
C 0.212376 -2.955100 1.317065
C 0.555988 -3.198344 1.063742
