363
chr5 3D structure from Hi-C (resolution 500000bp)
C -3.997251 1.201692 -0.617422
C -3.920800 0.769253 -0.555652
C -3.879092 0.348810 -0.549121
C -3.831267 0.085732 -0.514770
C -3.819488 -0.374107 -0.569940
C -3.774787 -0.788704 -0.566717
C -3.722080 -1.197036 -0.525094
C -3.705237 -1.428065 -0.535331
C -3.713297 -1.322293 -0.438624
C -3.752387 -1.093602 -0.446561
C -3.762888 -0.937966 -0.400537
C -3.775983 -0.846140 -0.225308
C -3.760081 -0.707676 -0.071913
C -3.732959 -0.590646 0.128896
C -3.790129 -0.485537 0.085383
C -3.853907 -0.472092 0.052729
C -3.849848 -0.489598 0.161625
C -3.876196 -0.411419 0.188817
C -3.739337 -0.262676 0.233497
C -3.694905 -0.310295 0.339153
C -3.654972 -0.558191 0.156676
C -3.538061 -0.886097 0.099312
C -3.400204 -1.261670 0.005579
C -3.275400 -1.549393 0.064472
C -3.203101 -1.832807 0.134455
C -3.203075 -1.909278 0.207845
C -3.235653 -1.814690 0.184832
C -3.232350 -1.695602 0.486915
C -3.250243 -1.594247 0.769202
C -3.342514 -1.464142 0.931481
C -3.340871 -1.358810 0.993919
C -3.252339 -1.302926 1.049579
C -3.267916 -1.608912 0.923198
C -3.128523 -1.993391 0.950490
C -3.001965 -2.167311 0.854420
C -2.842860 -2.326942 0.801033
C -2.593302 -2.593018 0.724230
C -2.438571 -2.865460 0.697777
C -2.370913 -3.123682 0.612429
C -2.271027 -3.240040 0.520894
C -2.220390 -3.343836 0.315144
C -2.089777 -3.494432 0.279870
C -1.934237 -3.560215 0.328760
C -1.833530 -3.562019 0.525011
C -1.726512 -3.589984 0.638827
C -1.606278 -3.581847 0.843130
C -1.506075 -3.479105 1.174385
C -1.413711 -3.321827 1.534645
C -1.449103 -3.159693 1.739251
C -1.424612 -3.108728 1.956557
C -1.427216 -2.968658 2.145966
C -1.380683 -2.866050 2.313835
C -1.387898 -2.753916 2.430593
C -1.443890 -2.641567 2.508199
C -1.502788 -2.646537 2.599576
C -1.553243 -2.627912 2.678036
C -1.720787 -2.474446 2.633225
C -1.870896 -2.342131 2.603675
C -2.135111 -2.146741 2.550352
C -2.328450 -1.936565 2.500052
C -2.483305 -1.522599 2.371039
C -2.618271 -0.939632 2.138518
C -2.816592 -0.438818 1.961688
C -2.982612 -0.043703 1.825906
C -3.145808 0.477707 1.620314
C -3.290848 0.968603 1.425637
C -3.381530 1.167169 1.325241
C -3.391800 1.228522 1.362497
C -3.372610 1.117330 1.456889
C -3.268836 1.042866 1.588329
C -3.200186 1.092083 1.718594
C -3.138285 1.168079 1.772597
C -2.978807 0.970107 1.956121
C -2.871113 0.963048 2.107766
C -2.844738 0.840758 2.225560
C -2.833347 0.760172 2.390982
C -2.757953 0.678253 2.483074
C -2.583430 0.451935 2.602295
C -2.469423 0.181014 2.887387
C -2.411498 0.032946 3.049628
C -2.309186 -0.043151 3.113070
C -2.148254 -0.199835 3.240886
C -2.047066 -0.270785 3.271745
C -2.097136 -0.039839 3.249203
C -2.061848 -0.012539 3.337812
C -1.887959 -0.266120 3.343297
C -1.669710 -0.461924 3.349991
C -1.401288 -0.832569 3.374009
C -1.108765 -1.157862 3.308073
C -0.790722 -1.707592 3.101706
C -0.355608 -2.589903 2.806466
C -0.096166 -3.212003 2.298918
C 0.087597 -3.700163 1.753913
C 0.156487 -4.095752 1.161450
C 0.080298 -4.363814 0.565791
C -0.448698 -3.493678 -0.006057
C -0.972401 -2.434259 -0.351490
C -1.060027 -1.887798 0.189939
C -1.164976 -1.181462 0.645049
C -1.149966 -0.699642 1.205025
C -1.039094 -0.245172 1.869160
C -0.933616 0.296563 2.541778
C -0.454153 -0.101622 3.080539
C -0.016030 -0.463246 3.733163
C -0.139261 -0.045921 3.535675
C -0.066981 0.249716 3.490668
C -0.290798 0.760324 3.304534
C -0.576620 1.356740 3.067279
C -0.832869 1.925105 2.812657
C -0.953382 2.257646 2.673050
C -1.060181 2.555488 2.405214
C -0.992927 2.609118 2.334619
C -1.071629 2.442229 2.349316
C -0.937670 2.321910 2.464205
C -0.819158 2.135377 2.640291
C -0.678824 1.973137 2.745783
C -0.592934 1.874166 2.920869
C -0.469892 1.761232 3.048648
C -0.363328 1.687467 3.063284
C -0.307931 1.874767 2.989704
C -0.321269 1.920685 2.980837
C -0.142693 2.008296 2.873947
C 0.030630 1.927566 2.964771
C 0.179584 1.774305 3.042289
C 0.320630 1.599371 3.191362
C 0.399852 1.476289 3.355280
C 0.538573 1.497541 3.357178
C 0.714824 1.640830 3.265984
C 0.674289 1.834063 3.078899
C 0.571941 2.093579 2.877192
C 0.421274 2.419189 2.625522
C 0.211414 2.808707 2.282869
C 0.118241 3.067741 1.978191
C -0.113068 3.199852 1.785538
C -0.417446 3.299184 1.580787
C -0.746496 3.368785 1.391635
C -1.147146 3.427205 1.014816
C -0.954257 2.333665 0.881286
C -0.701468 1.201039 0.839498
C -0.556673 0.176704 0.852535
C -0.631529 0.154511 0.756330
C -0.566696 0.182334 0.660108
C -0.323165 0.090142 0.706941
C 0.047114 0.032106 0.885452
C -0.163078 1.153973 0.752188
C -0.393283 2.299109 0.593624
C -0.606025 3.484829 0.338116
C -0.552484 3.599817 0.220192
C -0.516034 3.676260 0.150902
C -0.489548 3.830816 0.066690
C -0.419494 3.910813 0.016575
C -0.285131 3.936765 0.061180
C -0.081534 3.960730 0.026638
C 0.042518 3.949728 0.088061
C 0.290367 3.909194 0.131261
C 0.494721 3.865365 0.229151
C 0.614609 3.730565 0.270908
C 0.788588 3.707348 0.257785
C 0.919413 3.693341 0.285847
C 1.024320 3.601812 0.439739
C 1.212722 3.481325 0.581505
C 1.359133 3.307974 0.857246
C 1.510586 3.093413 1.073513
C 1.656214 2.935380 1.304068
C 1.776470 2.508142 1.762283
C 1.859453 2.165857 2.129804
C 1.920934 1.719205 2.454284
C 1.920335 1.229236 2.690186
C 1.930670 0.789160 2.837654
C 1.949767 0.343812 3.065184
C 1.971910 -0.025327 3.289022
C 2.042244 0.070343 3.150909
C 2.029980 -0.311057 3.177758
C 2.006965 -0.612699 3.104585
C 2.123925 -0.346451 3.091911
C 2.184875 0.080906 2.866124
C 2.323228 0.493822 2.632227
C 2.491745 0.823459 2.448586
C 2.536369 0.777732 2.445525
C 2.670191 1.083474 2.332220
C 2.771392 1.284867 2.288352
C 2.733672 0.819937 2.273330
C 2.766514 0.307537 2.487913
C 2.752224 -0.043590 2.580752
C 2.737984 -0.258349 2.518288
C 2.714101 -0.343121 2.468812
C 2.704486 -0.180972 2.294437
C 2.755520 0.226175 2.103251
C 2.798390 0.895248 1.758144
C 2.838953 1.413172 1.449403
C 2.783854 1.771333 1.145289
C 2.828848 1.917327 1.071339
C 2.928273 1.983433 0.987090
C 3.010042 1.695818 1.090132
C 3.127359 1.299971 1.190864
C 3.246875 0.715650 1.424298
C 3.287249 0.174902 1.591225
C 3.320816 -0.368259 1.818698
C 3.252523 -0.434369 1.783593
C 3.082687 -0.926948 1.842921
C 2.969312 -1.173970 1.801355
C 2.757374 -1.254479 1.705170
C 2.634083 -1.075199 1.550469
C 2.605352 -0.866367 1.378954
C 2.652955 -0.882995 1.279273
C 2.628259 -1.336097 1.316947
C 2.669033 -1.240506 1.241340
C 2.635574 -1.381900 1.209199
C 2.686614 -1.618901 1.205963
C 2.742170 -1.985253 1.280945
C 2.814437 -2.208961 1.338178
C 2.850875 -1.879452 1.169250
C 2.943892 -1.457529 1.008942
C 3.165638 -1.135821 0.853045
C 3.377543 -0.459364 0.592658
C 3.500219 0.128743 0.376277
C 3.572112 0.386933 0.150782
C 3.568141 0.461323 0.025194
C 3.620834 0.326113 0.011805
C 3.582868 0.424853 -0.056639
C 3.392917 0.666891 -0.200981
C 3.248768 0.639362 -0.222176
C 3.100885 0.625951 -0.253967
C 3.118759 0.887154 -0.397666
C 3.122323 0.950224 -0.465667
C 3.148871 0.820150 -0.468164
C 3.158144 0.428901 -0.424126
C 3.287431 0.131492 -0.405071
C 3.344653 0.024330 -0.515560
C 3.372968 -0.059620 -0.533882
C 3.290705 -0.189179 -0.487598
C 3.230060 -0.437761 -0.483203
C 3.130699 -0.644404 -0.476757
C 3.091857 -0.737726 -0.538996
C 3.042154 -0.976193 -0.544916
C 3.107104 -0.997986 -0.540747
C 3.109286 -1.312295 -0.483270
C 3.061559 -1.792064 -0.379966
C 3.002053 -1.868128 -0.450560
C 2.917050 -1.891228 -0.574347
C 2.872883 -2.059174 -0.585762
C 2.866806 -2.045924 -0.702191
C 2.762696 -2.215627 -0.742030
C 2.846861 -2.161169 -0.926958
C 2.919823 -1.965197 -1.171600
C 3.029518 -1.663402 -1.377179
C 3.123460 -1.195946 -1.596326
C 3.253044 -0.835831 -1.812275
C 3.183309 -0.909487 -1.857646
C 3.130204 -0.982199 -1.849540
C 3.050140 -0.723657 -1.899140
C 2.989905 -0.571863 -1.919248
C 2.897031 -0.535492 -1.867279
C 2.877515 -0.737414 -1.870552
C 2.734819 -1.014704 -1.764440
C 2.635826 -1.037629 -1.720360
C 2.595190 -1.276668 -1.702336
C 2.436118 -1.844203 -1.599020
C 2.246065 -2.231169 -1.456382
C 2.268522 -2.023954 -1.549185
C 2.147222 -1.631339 -1.535485
C 2.051572 -0.946508 -1.637962
C 1.983108 -0.212519 -1.719945
C 1.858723 0.579350 -1.861239
C 1.763920 1.409493 -1.992608
C 1.771727 2.375648 -2.136239
C 1.523442 2.650570 -2.139242
C 1.336321 2.745132 -2.205815
C 1.110216 2.827751 -2.253976
C 0.933644 2.627800 -2.275049
C 0.834696 2.485482 -2.327580
C 0.766652 2.382611 -2.355861
C 0.620520 2.319109 -2.468080
C 0.527336 2.367545 -2.448073
C 0.446240 2.417980 -2.400618
C 0.418034 2.514862 -2.370314
C 0.267447 2.819237 -2.369135
C 0.410481 2.920449 -2.353466
C 0.008600 2.594214 -2.465308
C 0.130606 1.771880 -2.423055
C 0.220720 1.429553 -2.512624
C 0.370050 1.204079 -2.632489
C 0.588170 0.824953 -2.820599
C 0.960953 0.467249 -2.981914
C 0.942307 0.160754 -3.023594
C 1.523157 0.220938 -3.014812
C 1.566756 0.395195 -3.041170
C 1.660373 -0.068864 -3.008114
C 1.691646 -0.453033 -3.031299
C 1.654655 -0.604540 -2.886619
C 1.531863 -0.994420 -2.879206
C 1.471518 -1.309842 -2.878546
C 1.452590 -1.593315 -2.863309
C 1.362782 -1.663423 -2.863046
C 1.309299 -1.501139 -2.974889
C 1.243309 -1.286776 -2.973994
C 1.150886 -1.031176 -3.114679
C 1.057920 -0.550980 -3.158552
C 0.951974 -0.091163 -3.290219
C 0.853634 0.366394 -3.336544
C 0.862007 0.712165 -3.496445
C 0.720218 0.695067 -3.448409
C 0.648480 0.207954 -3.299427
C 0.638245 -0.256920 -3.293678
C 0.637341 -0.680872 -3.227491
C 0.657170 -0.851608 -3.121499
C 0.581625 -0.976440 -3.197326
C 0.348537 -1.233729 -3.180935
C 0.183352 -1.272865 -3.232417
C 0.092912 -0.940958 -3.468560
C 0.055465 -0.814354 -3.480556
C 0.072096 -0.653779 -3.582964
C 0.013507 -0.567809 -3.649253
C -0.095201 -0.556898 -3.631565
C -0.034809 -0.322687 -3.660710
C -0.022636 -0.130122 -3.724978
C -0.129378 -0.044417 -3.696821
C -0.168083 0.047582 -3.694496
C -0.268832 -0.135053 -3.597785
C -0.503363 -0.505363 -3.579627
C -0.517236 -0.868673 -3.499093
C -0.648045 -1.354599 -3.318030
C -0.722471 -1.740633 -3.142121
C -0.666836 -2.013096 -3.053409
C -0.711418 -2.319280 -2.963993
C -0.703601 -2.630370 -2.831884
C -0.496966 -2.821275 -2.718309
C -0.399004 -2.875819 -2.631738
C -0.337007 -2.871455 -2.605578
C -0.251416 -2.932313 -2.591556
C -0.265931 -2.966303 -2.544333
C -0.441936 -2.999922 -2.560309
C -0.587892 -2.757735 -2.695268
C -0.664891 -2.356237 -2.778589
C -0.862533 -1.987247 -2.899840
C -0.943210 -1.535859 -3.031425
C -0.939339 -0.959875 -3.137837
C -1.020942 -0.457834 -3.202821
C -1.001300 -0.125880 -3.281862
C -1.110935 0.175208 -3.347538
C -1.183788 0.482070 -3.343730
C -1.147848 0.749732 -3.332798
C -1.161010 1.036228 -3.274235
C -1.258253 1.236680 -3.210565
C -1.283904 1.426551 -3.156990
C -1.320712 1.657356 -3.098659
C -1.321012 1.811452 -3.027096
C -1.406452 1.779176 -2.989394
C -1.546356 1.794029 -2.918721
C -1.703543 1.864442 -2.873031
C -1.845761 1.877069 -2.851175
C -1.981349 1.985692 -2.787277
C -2.208199 2.129570 -2.640267
C -2.277647 2.064668 -2.626704
C -2.418718 1.852870 -2.650303
C -2.572595 1.617407 -2.687308
C -2.620055 1.466539 -2.683893
C -2.663502 1.318243 -2.717011
C -2.748028 1.041518 -2.798649
C -2.754015 0.862758 -2.872722
C -2.825529 0.862166 -2.854440
C -2.835961 1.027080 -2.824491
C -2.786127 1.227476 -2.767588
