363
chr5 3D structure from Hi-C (resolution 500000bp)
C -4.073233 0.688023 -1.030350
C -3.947219 0.243350 -0.854536
C -3.891794 -0.128135 -0.828907
C -3.813100 -0.394856 -0.742946
C -3.747180 -0.874621 -0.771599
C -3.636980 -1.321517 -0.816901
C -3.535421 -1.708947 -0.791063
C -3.518260 -1.869962 -0.726376
C -3.599468 -1.714822 -0.755865
C -3.640814 -1.449687 -0.679977
C -3.687368 -1.230246 -0.677420
C -3.748993 -1.105276 -0.630876
C -3.773337 -0.954669 -0.427139
C -3.764551 -0.878068 -0.153709
C -3.791070 -0.872098 -0.246259
C -3.781819 -0.942573 -0.289641
C -3.765322 -1.056968 -0.254681
C -3.806037 -1.044632 -0.209033
C -3.698934 -0.887785 -0.037644
C -3.669944 -0.999754 -0.004332
C -3.621319 -1.190807 -0.150125
C -3.473647 -1.477741 -0.168555
C -3.324806 -1.776519 -0.195491
C -3.227919 -1.991800 -0.154433
C -3.130236 -2.187389 -0.022283
C -3.153184 -2.211476 0.019107
C -3.170053 -2.089473 0.061034
C -3.189814 -2.001745 0.245282
C -3.249672 -1.895049 0.494517
C -3.411471 -1.659665 0.746579
C -3.445583 -1.531877 0.867036
C -3.418323 -1.453455 0.908296
C -3.327671 -1.833830 0.845677
C -3.171166 -2.169498 0.802017
C -2.975467 -2.320620 0.803474
C -2.823168 -2.398072 0.845116
C -2.505857 -2.755223 0.734087
C -2.306656 -3.054323 0.627647
C -2.135811 -3.396017 0.471772
C -1.954173 -3.543124 0.424072
C -1.851160 -3.633667 0.313359
C -1.675436 -3.712853 0.419737
C -1.551078 -3.799679 0.514718
C -1.422185 -3.785052 0.669471
C -1.301690 -3.835080 0.753737
C -1.273246 -3.787197 0.966633
C -1.336103 -3.633641 1.255842
C -1.371295 -3.458337 1.581772
C -1.535307 -3.292903 1.671740
C -1.586522 -3.230927 1.797659
C -1.659152 -3.089026 2.010289
C -1.713554 -2.899364 2.309581
C -1.764550 -2.762432 2.417611
C -1.780992 -2.642496 2.512751
C -1.676700 -2.618745 2.667846
C -1.548221 -2.654375 2.756745
C -1.599170 -2.496111 2.746405
C -1.732808 -2.347350 2.758746
C -1.915613 -2.233454 2.677633
C -2.100482 -2.013101 2.616138
C -2.297128 -1.626876 2.441260
C -2.573014 -1.051810 2.192368
C -2.926186 -0.531413 1.963803
C -3.123548 -0.157303 1.804196
C -3.329510 0.356136 1.487039
C -3.487106 0.882866 1.220674
C -3.532677 1.157901 1.071440
C -3.517783 1.321166 1.078552
C -3.515554 1.174940 1.180340
C -3.466838 1.159210 1.262849
C -3.418027 1.164179 1.381739
C -3.344162 1.239330 1.471574
C -3.227262 1.113410 1.677216
C -3.162574 0.942018 1.816865
C -3.184639 0.717769 1.941332
C -3.171933 0.697685 2.047400
C -3.096959 0.521361 2.183269
C -2.968564 0.396217 2.269313
C -2.813902 -0.092933 2.591260
C -2.677352 -0.352715 2.806819
C -2.595007 -0.328069 2.943429
C -2.358196 -0.462603 3.120722
C -2.260088 -0.556903 3.205861
C -2.333865 -0.218860 3.063937
C -2.367293 -0.178545 3.149792
C -2.377517 -0.141861 3.106519
C -2.141915 -0.364360 3.028988
C -1.781624 -0.822665 3.055179
C -1.519078 -1.190160 2.938964
C -1.114371 -1.723399 2.751640
C -0.557574 -2.656836 2.570147
C -0.100707 -3.346651 2.116154
C 0.299261 -3.914875 1.615715
C 0.402157 -4.244449 1.081044
C -0.114395 -3.411891 0.440818
C -0.643904 -2.472974 -0.125362
C -1.223469 -1.422580 -0.543686
C -1.274294 -1.063893 -0.064429
C -1.451053 -0.408587 0.400513
C -1.531312 0.099834 0.981244
C -1.520625 0.554362 1.657893
C -0.975462 0.013562 2.448691
C -0.530396 -0.344325 3.019184
C -0.261340 -0.564263 3.652407
C -0.513011 -0.039882 3.553297
C -0.616118 0.214391 3.494269
C -0.840432 0.683800 3.338507
C -1.123615 1.288075 3.088416
C -1.378670 1.855053 2.765685
C -1.506260 2.144505 2.600080
C -1.480234 2.250739 2.395876
C -1.435463 2.399488 2.255571
C -1.339917 2.348539 2.300275
C -1.186705 2.139546 2.428099
C -1.051207 1.982193 2.644247
C -0.827469 1.795051 2.841682
C -0.752847 1.647006 3.059366
C -0.681305 1.579003 3.181118
C -0.636866 1.513724 3.149542
C -0.600346 1.586632 3.055310
C -0.622722 1.633158 3.010360
C -0.566067 1.690013 2.865207
C -0.528350 1.549286 2.908013
C -0.396755 1.348768 3.027238
C -0.243802 1.094125 3.204825
C -0.098395 0.852190 3.470315
C -0.005001 0.865585 3.584387
C 0.118080 1.160474 3.461021
C 0.183928 1.332128 3.367848
C 0.201337 1.645207 3.223869
C 0.184049 2.021000 3.030043
C 0.071064 2.512907 2.724927
C -0.011534 2.895581 2.434221
C -0.162198 3.128071 2.199323
C -0.276647 3.200878 2.066672
C -0.568925 3.301881 1.875937
C -1.045511 3.418286 1.393387
C -1.077759 2.350633 0.884979
C -0.827935 1.184625 0.734270
C -0.617150 0.114456 0.661575
C -0.642308 0.096636 0.534847
C -0.682212 0.097477 0.426139
C -0.459757 -0.030772 0.403570
C -0.190326 -0.081743 0.595748
C -0.235620 1.061907 0.776581
C -0.523762 2.226485 0.635519
C -0.826435 3.428672 0.434190
C -0.892272 3.519260 0.265290
C -0.875266 3.616947 0.138859
C -0.951042 3.800458 -0.030730
C -0.819079 3.904143 -0.084048
C -0.777729 3.955604 -0.144935
C -0.611296 3.996511 -0.112525
C -0.401949 3.993967 -0.085186
C -0.088853 4.005505 -0.015949
C 0.157321 3.960131 0.061906
C 0.388127 3.829896 0.169050
C 0.498187 3.820271 0.241723
C 0.664528 3.826911 0.373662
C 0.798255 3.779170 0.480922
C 0.897187 3.685616 0.598990
C 0.995812 3.564790 0.816144
C 1.087175 3.335668 1.150435
C 1.230567 3.206830 1.365984
C 1.393050 2.940859 1.713934
C 1.511620 2.537823 2.112130
C 1.637022 2.081457 2.468794
C 1.739873 1.691389 2.739768
C 1.801235 1.296243 2.950426
C 1.858919 1.016570 3.111818
C 1.953921 0.907510 3.279298
C 2.039457 0.906462 3.214573
C 2.163755 0.933483 3.190074
C 2.183052 1.092507 3.182847
C 2.311941 1.359933 3.044621
C 2.368242 1.723676 2.799311
C 2.416430 2.105016 2.562241
C 2.408972 2.266328 2.471335
C 2.473506 2.152624 2.453654
C 2.543400 2.110202 2.270611
C 2.593990 1.826770 2.148339
C 2.580695 1.415130 2.354130
C 2.645817 0.902049 2.579578
C 2.676281 0.401795 2.709598
C 2.715079 0.014672 2.715606
C 2.785557 -0.034121 2.618808
C 2.732233 0.107559 2.497855
C 2.792922 0.557937 2.230651
C 2.776065 1.040804 1.814074
C 2.811374 1.523403 1.448333
C 2.765858 1.913452 1.096467
C 2.874243 2.162855 0.940201
C 2.699219 1.830034 1.061273
C 2.619632 1.340187 1.259753
C 2.522380 0.673158 1.575361
C 2.548409 0.035696 1.893913
C 2.544573 -0.567641 2.169433
C 2.640146 -1.141845 2.403045
C 2.570586 -1.296384 2.392248
C 2.657836 -1.368412 2.357594
C 2.784102 -1.350424 2.248968
C 2.838376 -1.173837 2.044772
C 2.830647 -0.909590 1.816911
C 2.755630 -0.599825 1.644243
C 2.789401 -0.535646 1.551958
C 2.753578 -1.023330 1.562356
C 2.772144 -1.059973 1.382254
C 2.669722 -1.298391 1.338731
C 2.665854 -1.575228 1.345662
C 2.638717 -1.992773 1.461903
C 2.740185 -2.354272 1.463297
C 2.765854 -2.140393 1.335569
C 2.904451 -1.724447 1.245116
C 3.086871 -1.292954 1.175410
C 3.317015 -0.666689 0.993411
C 3.444294 -0.075807 0.746809
C 3.611256 0.268614 0.562806
C 3.663929 0.398430 0.529476
C 3.738399 0.313842 0.560928
C 3.645220 0.501279 0.435835
C 3.522329 0.615116 0.265533
C 3.353399 0.615430 0.233081
C 3.185650 0.566512 0.197078
C 3.209289 0.581643 0.077807
C 3.237245 0.640169 -0.101166
C 3.269659 0.535144 -0.199276
C 3.243631 0.077277 -0.112453
C 3.349843 -0.085107 -0.099671
C 3.407054 -0.225285 -0.161105
C 3.403202 -0.347700 -0.198604
C 3.207625 -0.357067 -0.216399
C 3.043153 -0.636481 -0.145295
C 2.798787 -0.927607 -0.151213
C 2.798580 -0.954283 -0.246039
C 2.731140 -1.183968 -0.236752
C 2.818698 -1.106578 -0.296410
C 2.912006 -1.371492 -0.238616
C 2.963871 -1.786485 -0.190853
C 2.995965 -1.797606 -0.258493
C 3.093731 -1.704203 -0.345458
C 3.180026 -1.795847 -0.394116
C 3.210489 -1.926377 -0.432401
C 3.098100 -2.020459 -0.506050
C 3.169904 -1.904881 -0.679362
C 3.266739 -1.573018 -0.920850
C 3.412235 -1.317154 -1.098805
C 3.459207 -0.830588 -1.291249
C 3.486755 -0.562396 -1.483285
C 3.486657 -0.474268 -1.638730
C 3.491604 -0.634600 -1.652741
C 3.393523 -0.414722 -1.659725
C 3.366973 -0.279551 -1.627640
C 3.272155 -0.172813 -1.645964
C 3.182014 -0.630651 -1.630520
C 3.069023 -0.876977 -1.554768
C 2.900638 -1.029621 -1.480371
C 2.810388 -1.276327 -1.473503
C 2.713182 -1.819345 -1.423476
C 2.512876 -2.294370 -1.391905
C 2.487789 -2.051003 -1.425018
C 2.443136 -1.411646 -1.392937
C 2.316161 -0.715478 -1.427445
C 2.238925 0.048384 -1.550238
C 2.034715 0.866374 -1.680041
C 1.893525 1.695364 -1.791575
C 1.752475 2.660157 -1.897223
C 1.254922 2.847667 -1.993147
C 0.961316 2.898547 -2.145963
C 0.729605 2.878976 -2.300737
C 0.545545 2.668876 -2.338759
C 0.459496 2.541729 -2.380489
C 0.444613 2.477214 -2.421181
C 0.378259 2.411732 -2.475775
C 0.504536 2.477786 -2.456440
C 0.498657 2.581261 -2.383749
C 0.450022 2.716063 -2.321641
C 0.349625 3.007378 -2.353406
C 0.504865 3.092150 -2.353634
C 0.703961 3.068445 -2.443996
C 0.946651 2.861610 -2.566548
C 1.123611 2.585804 -2.643401
C 1.342828 2.236611 -2.792507
C 1.658053 1.878108 -2.944733
C 2.000489 1.580019 -3.012393
C 2.064677 1.346172 -3.066345
C 2.028396 1.050002 -3.066556
C 1.988734 0.551452 -2.968970
C 2.084975 0.111047 -2.970948
C 2.105386 -0.231224 -2.952199
C 2.000563 -0.301777 -2.858570
C 1.912338 -0.719837 -2.886928
C 1.895420 -1.007529 -2.955729
C 1.915766 -1.127519 -3.005186
C 1.848698 -1.043662 -3.115077
C 1.752030 -0.886221 -3.178776
C 1.654131 -0.593014 -3.262938
C 1.628096 -0.432324 -3.356272
C 1.477773 0.014521 -3.412438
C 1.298508 0.322022 -3.486124
C 1.068396 0.617665 -3.490516
C 0.886437 0.916713 -3.526891
C 0.786771 0.818505 -3.422842
C 0.758784 0.358254 -3.371906
C 0.744432 -0.130441 -3.310573
C 0.760761 -0.521321 -3.236942
C 0.799856 -0.703676 -3.109031
C 0.804613 -0.911987 -3.183730
C 0.877240 -1.291259 -3.157184
C 0.788431 -1.338767 -3.302032
C 0.626620 -1.179193 -3.380779
C 0.574114 -1.002515 -3.447905
C 0.491205 -0.830892 -3.575806
C 0.427690 -0.728859 -3.645861
C 0.287465 -0.673608 -3.666717
C 0.109848 -0.460477 -3.712474
C -0.001661 -0.131579 -3.715899
C -0.135212 -0.031242 -3.706267
C -0.234491 0.108010 -3.658327
C -0.268420 -0.131671 -3.520148
C -0.505497 -0.501653 -3.502529
C -0.545559 -0.883502 -3.370715
C -0.636291 -1.282986 -3.241716
C -0.688978 -1.777463 -3.126857
C -0.584692 -2.003625 -2.986617
C -0.560990 -2.412352 -2.940914
C -0.633648 -2.614730 -2.931023
C -0.497473 -2.818884 -2.826734
C -0.374017 -2.892832 -2.755509
C -0.153939 -2.954676 -2.667907
C 0.033235 -3.066348 -2.587541
C 0.160451 -3.105379 -2.595877
C 0.147602 -3.218119 -2.555205
C 0.203105 -3.086466 -2.582941
C 0.269400 -2.686737 -2.645236
C 0.150125 -2.321405 -2.790650
C 0.023339 -1.914067 -2.948852
C -0.116913 -1.344917 -3.055758
C -0.332724 -0.910205 -3.155764
C -0.535489 -0.472332 -3.313178
C -0.793337 -0.268186 -3.383060
C -1.008075 -0.011660 -3.451232
C -1.090889 0.308683 -3.382746
C -1.176336 0.633113 -3.360494
C -1.325790 0.817016 -3.387930
C -1.357059 1.020426 -3.373150
C -1.408776 1.266928 -3.308504
C -1.363513 1.406205 -3.289520
C -1.436106 1.274381 -3.284890
C -1.553521 1.221159 -3.323803
C -1.739933 1.307728 -3.292430
C -1.836602 1.337914 -3.252476
C -2.005858 1.485623 -3.139847
C -2.206924 1.618700 -3.057236
C -2.295453 1.660937 -3.028173
C -2.395153 1.643802 -2.990828
C -2.539249 1.449489 -2.974606
C -2.562308 1.288703 -3.001927
C -2.591180 1.134037 -3.002812
C -2.635477 0.844025 -3.082699
C -2.682975 0.694863 -3.108308
C -2.745586 0.710973 -3.085345
C -2.767948 0.823457 -3.066013
C -2.726175 1.027528 -3.023708
