214
chr14 3D structure from Hi-C (resolution 500000bp)
C -1.317711 0.144448 -4.578806
C -1.143558 0.494936 -4.559614
C -0.951072 0.835487 -4.508161
C -0.710591 1.115551 -4.445364
C -0.235819 1.599068 -4.360595
C 0.316480 1.985911 -4.245034
C 0.839727 2.211725 -4.137170
C 1.075756 2.087062 -4.156121
C 1.145711 1.775665 -4.200323
C 0.543791 1.176968 -3.893810
C -0.222358 0.584657 -3.530994
C -1.154335 0.105487 -3.150218
C -2.184594 -0.231004 -2.823577
C -3.193751 -0.497661 -2.555238
C -3.752368 -0.741389 -2.369362
C -4.091275 -0.969651 -2.236032
C -3.710303 -1.048121 -2.521152
C -3.169143 -1.175054 -2.915385
C -2.493107 -1.372479 -3.383322
C -1.712383 -1.610985 -3.832056
C -0.842334 -1.809427 -4.191989
C -0.076297 -1.746568 -4.314939
C 0.658976 -1.559407 -4.354810
C 1.307497 -1.219857 -4.346904
C 1.813432 -0.797514 -4.327354
C 2.102746 -0.369180 -4.322922
C 2.140337 0.057372 -4.321016
C 1.713062 0.566217 -4.260103
C 1.078742 1.012632 -4.202125
C 0.291299 1.312622 -4.156619
C -0.570138 1.408035 -4.114051
C -1.424116 1.323191 -4.036446
C -2.213159 1.134165 -3.860413
C -2.904556 0.943737 -3.618914
C -3.244713 0.879564 -3.379197
C -3.453400 0.919447 -3.163066
C -3.461827 1.116452 -2.824033
C -3.337936 1.287259 -2.332205
C -3.183399 1.485991 -1.795943
C -3.040636 1.624464 -1.198674
C -2.680525 1.773996 -0.710660
C -2.413590 1.610964 -0.301145
C -2.273737 1.272153 0.163818
C -2.369270 0.919192 0.472754
C -2.537157 0.736601 0.597027
C -2.742522 0.685906 0.694462
C -2.679664 0.895283 0.597407
C -2.596082 1.089162 0.487517
C -2.478910 1.479847 0.255308
C -2.146520 1.961448 0.019763
C -1.750435 2.394309 -0.331732
C -1.358290 2.777091 -0.624786
C -0.866000 3.134865 -0.979183
C -0.602536 3.279538 -1.108115
C -0.653186 3.414412 -1.148538
C -0.721173 3.434126 -1.059002
C -0.917783 3.452333 -0.946198
C -1.066890 3.436791 -0.635675
C -1.289798 3.206664 -0.200637
C -1.661467 2.940992 0.232206
C -1.747239 2.742692 0.482324
C -1.900696 2.629693 0.718380
C -1.869570 2.510686 0.945379
C -1.881763 2.413920 1.170427
C -1.927705 2.325211 1.313153
C -1.918978 2.369256 1.239196
C -1.862780 2.266674 1.283518
C -2.026297 2.152865 1.402584
C -2.097378 2.048710 1.518747
C -2.038755 2.077683 1.627123
C -1.847206 2.032363 1.542459
C -1.559410 2.082955 1.354344
C -1.245208 2.327540 1.245381
C -0.884071 2.647726 1.136974
C -0.553645 2.914364 1.000659
C -0.215169 2.963630 0.937611
C 0.028697 2.961087 0.858795
C 0.243603 3.115626 0.838814
C 0.358295 3.122741 0.878510
C 0.511989 3.152403 0.792555
C 0.738712 3.155488 0.695680
C 0.762497 3.239468 0.758782
C 1.065119 3.429772 0.426587
C 1.207421 3.533765 0.120131
C 1.294978 3.483403 -0.015859
C 1.452863 3.481184 -0.056402
C 1.472217 3.358002 0.065887
C 1.343822 3.260018 0.297362
C 1.518709 3.214233 0.303977
C 1.576349 3.122554 0.633493
C 1.739430 2.997891 0.984356
C 1.710228 2.866589 1.216563
C 1.652528 2.711890 1.414401
C 1.756744 2.615764 1.634209
C 1.926534 2.571469 1.643625
C 1.834775 2.449578 1.789482
C 1.337144 2.188652 2.052983
C 0.753798 1.805154 2.253737
C 0.363254 1.559483 2.493408
C 0.052919 1.375265 2.640870
C -0.366543 1.064057 2.730724
C -0.668479 0.871117 2.926801
C -0.913508 0.686672 3.118223
C -0.702682 0.563889 2.936161
C -0.480580 0.653044 3.041742
C -0.268759 0.662122 3.016439
C -0.276959 0.502830 3.144970
C -0.214230 0.388737 3.179571
C -0.151658 0.215949 3.257386
C 0.073938 0.115951 3.063632
C 0.249439 0.210127 3.119306
C 0.397335 0.252996 3.035967
C 0.584952 0.305542 3.069010
C 0.934263 0.400329 3.059299
C 1.152181 0.382884 3.130581
C 1.184520 0.337667 2.915478
C 1.247713 0.341014 2.883875
C 1.329773 0.095263 3.042373
C 1.384379 -0.086934 3.094452
C 1.313020 -0.305619 3.021238
C 1.136397 -0.485363 2.941569
C 1.273003 -0.453671 2.838229
C 1.568398 -0.339492 2.859917
C 1.660626 -0.390831 2.896796
C 1.406134 -0.657645 2.846466
C 1.111211 -0.901917 2.802996
C 0.918646 -1.114516 2.824010
C 0.593759 -1.233882 2.887517
C 0.154805 -1.447118 2.949603
C -0.508998 -1.657983 3.004606
C -1.222931 -1.813099 2.950220
C -1.680645 -1.695537 2.765637
C -1.900072 -1.691729 2.628935
C -2.364456 -1.709311 2.353240
C -2.368614 -1.731904 2.160739
C -2.575608 -1.798442 1.941969
C -2.589825 -1.964217 1.801711
C -2.389208 -2.114332 1.674330
C -2.167272 -2.218231 1.658499
C -2.125714 -2.308936 1.554462
C -1.897476 -2.368484 1.604101
C -1.785621 -2.443625 1.544846
C -1.668007 -2.523096 1.458661
C -1.759856 -2.565998 1.293949
C -1.844377 -2.684976 1.209002
C -1.799424 -2.725236 1.082878
C -1.829650 -2.861639 0.970253
C -1.785162 -2.978363 1.016577
C -1.746908 -3.166737 1.005002
C -1.566456 -3.143317 1.060362
C -1.216374 -3.169856 1.215521
C -0.902756 -3.075016 1.340043
C -0.661363 -2.893126 1.426342
C -0.159634 -2.563685 1.535469
C 0.574230 -2.187351 1.459024
C 1.187848 -1.598192 1.440378
C 1.719293 -1.137484 1.363079
C 2.227617 -0.662439 1.247992
C 2.567779 -0.373123 1.170735
C 2.863262 -0.185784 1.069886
C 3.007048 0.019783 0.896196
C 3.004009 0.292544 0.569498
C 3.049789 0.354300 0.273717
C 3.081073 0.399892 0.084730
C 3.076432 0.442357 -0.169328
C 3.233792 0.627951 -0.342316
C 3.368437 0.736544 -0.556758
C 3.479093 0.783491 -0.608566
C 3.504214 0.635664 -0.460114
C 3.498185 0.511080 -0.405117
C 3.562819 0.378298 -0.497421
C 3.613756 0.207079 -0.521049
C 3.602543 0.021718 -0.543742
C 3.589765 -0.278851 -0.369300
C 3.459761 -0.581496 -0.195680
C 3.296375 -0.962963 0.054898
C 3.126410 -1.267525 0.311228
C 2.887953 -1.586115 0.579056
C 2.625282 -1.881976 0.846854
C 2.298510 -2.287095 1.066410
C 2.046748 -2.614377 1.091503
C 1.824067 -2.819721 1.076403
C 1.555132 -2.898667 0.954458
C 1.335810 -2.993233 0.193062
C 1.223755 -3.054325 -0.480210
C 1.325212 -3.085635 -0.843863
C 1.460384 -2.995277 -1.022374
C 1.402545 -2.873909 -1.121753
C 1.411267 -2.763988 -1.232568
C 1.495855 -2.688479 -1.314276
C 1.569570 -2.579103 -0.748008
C 1.699263 -2.506653 -0.285283
C 1.741468 -2.378272 -0.207996
C 1.823551 -2.198729 -0.311452
C 2.022028 -1.948355 -0.460672
C 2.200162 -1.966740 -0.606382
C 2.234695 -1.972166 -0.704471
C 2.143204 -2.038302 -0.772193
C 1.994993 -2.012551 -0.814498
C 1.896445 -2.101042 -0.902463
C 1.692243 -2.358976 -0.965157
C 1.378071 -2.721662 -0.975913
C 0.954022 -2.904908 -0.935072
C 0.739162 -3.073672 -0.997338
C 0.539469 -3.246707 -1.084674
C 0.343145 -3.488138 -1.195587
C -0.072743 -3.685471 -1.229972
C -0.395031 -3.761866 -1.349980
C -0.912560 -3.628069 -1.532155
C -1.257034 -3.505349 -1.851569
C -1.568946 -3.407324 -2.127414
C -1.756478 -3.339831 -2.302852
C -2.114930 -3.257373 -2.408190
C -2.427687 -3.118055 -2.535229
