214
chr14 3D structure from Hi-C (resolution 500000bp)
C -2.122814 4.308396 -1.302770
C -2.052007 4.387616 -1.031098
C -2.015207 4.428941 -0.750812
C -2.067877 4.401740 -0.495739
C -2.233305 4.310608 -0.054378
C -2.402449 4.169496 0.417028
C -2.578002 3.956951 0.848394
C -2.833874 3.629138 1.181577
C -3.197174 3.169343 1.397924
C -3.610239 2.414282 1.405349
C -3.887061 1.519066 1.052980
C -4.075746 0.717027 0.605344
C -4.237818 0.112632 0.098476
C -4.243282 0.081383 -0.474835
C -4.176290 0.200211 -0.979988
C -4.076628 0.437148 -1.327055
C -3.954801 0.940078 -1.431395
C -3.984458 1.293665 -0.999129
C -4.009407 1.491358 -0.450586
C -3.985042 1.452528 0.126230
C -4.056434 0.820579 0.706645
C -4.131929 0.028903 1.164012
C -4.160472 -0.874147 1.410530
C -4.124027 -1.795623 1.420468
C -4.013180 -2.343315 1.124343
C -3.980794 -2.650373 0.784488
C -4.027104 -2.707968 0.454357
C -4.116994 -2.531966 0.140660
C -4.228467 -2.142939 -0.084408
C -4.354758 -1.549205 -0.192620
C -4.484329 -0.806832 -0.214544
C -4.578644 -0.068481 -0.259815
C -4.603476 0.520121 -0.419747
C -4.567888 0.897503 -0.674292
C -4.473308 1.050247 -0.978412
C -4.368590 0.983924 -1.361066
C -4.039886 0.694731 -1.840384
C -3.539189 0.210670 -2.129669
C -2.995057 -0.366733 -2.259533
C -2.469584 -0.963926 -2.238597
C -1.871468 -1.268436 -2.122397
C -1.401753 -1.636565 -1.911436
C -0.894703 -1.992023 -1.548955
C -0.757311 -2.254872 -1.199329
C -0.819704 -2.431586 -1.091021
C -0.913372 -2.582584 -1.047635
C -0.939040 -2.375964 -1.193463
C -1.032855 -2.261329 -1.444848
C -1.094845 -1.929924 -1.811003
C -1.150646 -1.535938 -2.296111
C -1.198155 -1.054501 -2.699291
C -1.217242 -0.534561 -2.986720
C -1.231181 0.151694 -3.255002
C -1.194211 0.461094 -3.377530
C -1.182083 0.623382 -3.450521
C -1.203192 0.762951 -3.469398
C -1.189400 0.891535 -3.498734
C -1.094463 0.699323 -3.482695
C -0.892086 0.281845 -3.321318
C -0.709983 -0.329901 -3.155597
C -0.565231 -0.639066 -2.967376
C -0.509925 -1.062364 -2.870112
C -0.261832 -1.403171 -2.809515
C -0.146213 -1.715537 -2.769749
C 0.026968 -1.839603 -2.733518
C 0.086533 -1.803310 -2.848849
C 0.098618 -1.756309 -2.715664
C 0.085135 -1.953591 -2.623742
C 0.201185 -2.057827 -2.612595
C 0.295078 -2.065455 -2.586038
C 0.399872 -1.964412 -2.491689
C 0.435334 -1.700589 -2.488730
C 0.475589 -1.358238 -2.613645
C 0.548510 -0.906175 -2.935264
C 0.645310 -0.471285 -3.156611
C 0.734537 -0.179319 -3.065443
C 0.727175 0.113680 -2.972712
C 0.806600 0.391008 -3.036285
C 0.867620 0.538629 -2.978451
C 0.792178 0.856177 -2.879622
C 0.823344 0.963296 -2.874104
C 0.785427 1.109426 -2.884298
C 0.714120 1.530713 -3.027816
C 0.672225 1.799859 -3.132397
C 0.655716 1.833648 -3.078797
C 0.701389 1.938076 -3.106854
C 0.916384 1.682693 -3.018624
C 1.114721 1.405235 -2.916959
C 1.401220 1.220305 -2.873440
C 1.683462 0.967525 -2.822929
C 1.979736 0.737072 -2.875702
C 2.139174 0.563106 -2.772271
C 2.295778 0.322780 -2.627539
C 2.450846 0.398517 -2.644309
C 2.486457 0.456031 -2.647442
C 2.499514 0.400159 -2.580880
C 2.297552 -0.114597 -2.296221
C 2.052557 -0.721236 -1.786674
C 1.964142 -1.208115 -1.568379
C 1.939776 -1.580211 -1.424491
C 1.814676 -2.132337 -1.099784
C 1.805918 -2.453579 -0.867084
C 1.665354 -2.906233 -0.705098
C 1.743268 -2.641300 -0.633749
C 1.964687 -2.522637 -0.752586
C 2.104047 -2.359044 -0.728028
C 2.132420 -2.390107 -0.518686
C 2.141500 -2.382089 -0.417388
C 2.259987 -2.373249 -0.239015
C 2.391279 -2.053724 -0.183615
C 2.519256 -2.030669 -0.238767
C 2.619543 -1.876621 -0.271687
C 2.762163 -1.688042 -0.316207
C 2.907379 -1.474290 -0.356042
C 3.067558 -1.365286 -0.280210
C 2.906421 -1.223676 -0.230815
C 2.855853 -1.170839 -0.173204
C 2.966661 -1.241433 0.075314
C 3.057889 -1.201244 0.222603
C 2.947138 -1.267453 0.413437
C 2.889425 -1.282234 0.527041
C 2.987316 -1.068678 0.397530
C 3.205117 -0.839251 0.201556
C 3.291073 -0.779881 0.239197
C 3.167835 -0.805389 0.464039
C 2.918593 -0.988279 0.777707
C 2.722694 -1.188705 1.018201
C 2.508041 -1.429601 1.244981
C 2.205697 -1.808433 1.536475
C 1.821530 -2.347064 1.903224
C 1.327370 -2.840049 2.066386
C 0.893250 -3.076492 1.910631
C 0.670914 -3.108775 1.934937
C 0.261786 -3.223847 1.954063
C 0.088373 -3.198507 1.895447
C -0.127348 -3.229586 1.973054
C -0.248474 -3.096913 2.126773
C -0.162328 -2.835298 2.288642
C -0.065893 -2.646256 2.367150
C -0.198396 -2.649415 2.354594
C -0.092908 -2.531239 2.381833
C -0.132055 -2.417705 2.408681
C -0.216487 -2.319770 2.461683
C -0.376753 -2.318623 2.510153
C -0.518999 -2.332200 2.653122
C -0.498844 -2.199922 2.781773
C -0.487395 -2.031581 2.992305
C -0.472744 -1.894751 3.154392
C -0.403560 -1.831537 3.344411
C -0.173966 -1.653953 3.343590
C 0.185582 -1.459374 3.348177
C 0.493243 -1.306803 3.211418
C 0.658666 -1.212661 3.026412
C 0.981550 -0.983405 2.666261
C 1.517038 -0.602207 2.347999
C 1.968790 -0.166172 1.884907
C 2.232382 0.251112 1.433353
C 2.424567 0.619191 0.956335
C 2.553339 0.893972 0.675221
C 2.732052 1.124880 0.548664
C 2.763274 1.370137 0.374747
C 2.594730 1.737458 0.210404
C 2.462681 1.937660 0.167564
C 2.437188 2.055629 0.241319
C 2.388956 2.226835 0.264109
C 2.396652 2.471777 0.168318
C 2.270854 2.759310 -0.081845
C 2.242866 2.898216 -0.193857
C 2.246305 2.785008 -0.299124
C 2.144109 2.825719 -0.385583
C 1.958333 2.972710 -0.515035
C 1.778251 3.114720 -0.564746
C 1.710200 3.153148 -0.459118
C 1.802635 3.050349 -0.109613
C 1.880288 2.867864 0.240567
C 1.965210 2.601543 0.676749
C 2.022286 2.315372 1.080088
C 2.131979 2.021505 1.512795
C 2.211511 1.635851 1.915196
C 2.160345 1.243795 2.326882
C 1.999281 1.050378 2.658343
C 1.822610 0.880000 2.830658
C 1.593574 0.757793 2.886922
C 0.990203 1.120775 2.937182
C 0.443803 1.471010 2.981577
C 0.275475 1.738398 3.033482
C 0.262345 2.000501 2.884162
C 0.150352 1.958085 2.684132
C 0.083581 2.014678 2.547301
C 0.073680 2.113591 2.453370
C 0.491122 1.771275 2.267827
C 0.892950 1.568224 2.078493
C 0.934397 1.594169 1.803174
C 0.831813 1.637176 1.512900
C 0.861017 1.986104 1.211867
C 0.820552 2.255912 1.105166
C 0.779571 2.374307 1.123863
C 0.705511 2.318098 1.330737
C 0.590013 2.208991 1.477350
C 0.521345 2.150908 1.672031
C 0.406530 2.043148 2.064603
C 0.214489 1.686836 2.543756
C -0.012108 1.292652 2.890811
C -0.228443 1.057829 3.093281
C -0.466368 0.984068 3.230843
C -0.670261 0.946332 3.433222
C -0.962451 0.760760 3.670159
C -1.180546 0.701128 3.773552
C -1.590235 0.806363 3.703104
C -1.996664 0.916001 3.611996
C -2.406196 0.903310 3.514126
C -2.602432 0.975651 3.464539
C -2.895097 0.859978 3.415198
C -3.188875 0.758921 3.293240
