204
chr15 3D structure from Hi-C (resolution 500000bp)
C -4.400568 1.942958 -1.362902
C -4.315989 2.239143 -0.970757
C -4.207172 2.506642 -0.770339
C -4.109290 2.705785 -0.759261
C -3.990863 3.035246 -0.642005
C -3.838925 3.281786 -0.695375
C -3.645008 3.406803 -0.953241
C -3.449826 3.338293 -1.494621
C -3.298730 3.101089 -2.147144
C -3.194222 2.706713 -2.774348
C -3.081532 2.199241 -3.303481
C -2.804379 1.536016 -3.788536
C -2.487404 0.947021 -4.189312
C -2.226619 0.540060 -4.491328
C -2.063544 0.220984 -4.679066
C -2.143532 -0.366102 -4.522924
C -2.181445 -0.961169 -4.302022
C -2.175333 -1.490782 -4.089940
C -2.291622 -1.761821 -3.901210
C -2.486258 -1.943824 -3.738791
C -2.742458 -2.133480 -3.547175
C -3.013980 -2.260743 -3.320150
C -3.113564 -2.007262 -3.307737
C -3.302650 -1.654149 -3.241544
C -3.602034 -1.252707 -3.038259
C -3.978536 -0.880401 -2.636473
C -4.344934 -0.560373 -2.094173
C -4.617747 -0.283867 -1.486725
C -4.785431 -0.029317 -0.835483
C -4.868196 0.183031 -0.154013
C -4.889456 0.316056 0.493795
C -4.759324 0.078099 0.990226
C -4.713388 -0.185906 1.093919
C -4.626385 -0.546822 1.010877
C -4.484473 -1.062812 0.795360
C -4.310091 -1.716344 0.503014
C -4.040118 -2.416253 0.359667
C -3.703261 -2.999112 0.242843
C -3.714146 -3.077010 0.126211
C -3.734683 -2.976620 0.322627
C -3.780523 -2.779223 0.703222
C -3.754548 -2.503650 1.275816
C -3.524034 -2.018268 1.815600
C -3.483755 -1.830333 2.107944
C -3.287512 -1.697985 2.196747
C -2.787510 -1.841455 2.279319
C -2.190695 -2.104530 2.436820
C -1.558956 -2.353580 2.442178
C -1.042378 -2.618576 2.265950
C -0.855132 -3.027906 2.151641
C -0.595043 -3.168032 1.999399
C -0.579418 -3.234011 1.969564
C -0.622220 -3.239917 1.891028
C -0.815661 -3.437351 1.446123
C -1.013840 -3.678298 1.157894
C -1.197442 -3.907589 0.611330
C -1.252255 -4.070404 -0.126178
C -1.271548 -4.043927 -0.973556
C -1.292349 -3.985459 -1.872001
C -1.843249 -3.154469 -2.045690
C -2.163060 -2.133081 -1.657388
C -2.490565 -1.199901 -1.240999
C -2.733174 -0.466324 -0.400611
C -2.644318 0.065391 0.374017
C -2.583941 0.510475 1.355912
C -2.596729 0.950909 2.487911
C -1.970944 0.669116 2.874052
C -1.377982 0.191016 3.084985
C -0.862558 -0.318439 3.125154
C -0.409601 -0.708235 3.010468
C -0.332317 -0.797058 3.072561
C -0.303770 -0.978423 3.110362
C -0.125361 -1.241740 2.947882
C -0.034757 -1.269011 2.882995
C -0.016993 -1.151262 2.720983
C 0.056781 -0.988970 2.620759
C 0.100993 -0.566126 2.562021
C 0.083471 -0.146825 2.531571
C 0.090586 0.426862 2.470628
C -0.008110 1.040022 2.464046
C -0.151439 1.478186 2.416083
C -0.289631 1.934764 2.360675
C -0.468020 2.439224 2.363153
C -0.541113 2.747543 2.332318
C -0.539710 2.851141 2.266396
C -0.667066 2.861761 2.289015
C -0.754509 2.853853 2.455383
C -0.620902 2.556988 2.645972
C -0.374106 1.984522 2.693338
C -0.079844 1.191263 2.689675
C 0.067140 0.482117 2.769090
C 0.216553 -0.310939 2.867686
C 0.552034 -0.958910 2.855542
C 0.887622 -1.546051 2.801128
C 1.048860 -1.662540 2.818260
C 1.130665 -1.631632 3.047968
C 1.181895 -1.414424 3.111664
C 1.312348 -1.131021 3.087687
C 1.391782 -0.541572 3.158573
C 1.407082 -0.132302 3.048602
C 1.419111 0.240241 2.834131
C 1.432155 0.454969 2.783967
C 1.593373 0.534482 2.612849
C 1.744488 0.502128 2.520689
C 1.780410 0.323819 2.421862
C 1.837414 -0.062514 2.208572
C 1.913174 -0.478755 2.228004
C 2.123113 -0.788569 2.314188
C 2.259776 -1.023974 2.173270
C 2.265317 -1.035543 2.045367
C 2.283338 -0.775181 2.004240
C 2.284046 -0.436021 1.923724
C 2.342154 -0.114342 1.833107
C 2.314429 0.390670 1.700021
C 2.234929 0.931287 1.634231
C 2.184293 1.298361 1.556456
C 2.127488 1.503511 1.405012
C 2.055984 1.576492 1.253835
C 2.171091 1.628281 1.168636
C 2.248107 1.642958 1.119423
C 2.410104 1.606734 1.077095
C 2.550699 1.471302 0.902990
C 2.601254 1.389929 0.741444
C 2.504355 1.565425 0.732509
C 2.394706 1.885757 0.692650
C 2.113566 2.159139 0.680857
C 1.825079 2.497960 0.639903
C 1.494052 2.844126 0.528316
C 1.030851 3.200743 0.362669
C 0.721253 3.508498 0.311262
C 0.690563 3.528286 0.170464
C 0.700026 3.453903 0.042182
C 0.747019 3.491052 -0.122106
C 0.867268 3.455626 -0.264911
C 1.111245 3.327536 -0.377363
C 1.519378 3.085569 -0.438277
C 1.829239 2.880711 -0.585855
C 1.934462 2.853569 -0.671838
C 2.149036 2.740678 -0.856759
C 2.375048 2.479638 -0.950046
C 2.454432 2.320565 -1.039472
C 2.399235 2.368093 -1.185001
C 2.284433 2.350490 -1.342148
C 2.218313 2.276775 -1.493564
C 2.161671 2.210046 -1.610488
C 1.887702 2.311146 -1.637716
C 1.504810 2.543187 -1.768269
C 1.158123 2.779840 -1.873323
C 0.920331 2.777047 -1.872124
C 0.694492 2.747783 -1.878430
C 0.429466 2.776285 -1.990470
C 0.267904 2.800841 -2.194094
C 0.309671 2.690246 -2.203702
C 0.418172 2.507161 -2.156968
C 0.593860 2.270862 -2.234837
C 0.757435 1.976230 -2.342506
C 0.912793 1.801534 -2.207050
C 1.095585 1.570331 -2.066598
C 1.289721 1.336556 -1.948497
C 1.407393 1.118907 -2.011826
C 1.492136 0.731992 -2.028980
C 1.601722 0.520041 -2.089645
C 1.662644 0.356659 -2.159343
C 1.709064 0.156969 -2.396885
C 1.762610 0.031462 -2.406034
C 1.730208 -0.185686 -2.616224
C 1.759852 -0.214540 -2.500369
C 1.779572 -0.130771 -2.397819
C 1.758450 -0.221726 -2.114114
C 1.738515 -0.462339 -1.949747
C 1.699778 -0.694232 -1.721740
C 1.674613 -1.038035 -1.665267
C 1.652456 -1.291020 -1.351503
C 1.616422 -1.590066 -1.334660
C 1.749923 -1.680066 -1.396663
C 1.876987 -1.593663 -1.425799
C 2.068970 -1.313783 -1.438414
C 2.243449 -0.920959 -1.441917
C 2.530213 -0.543293 -1.400630
C 2.745826 -0.282694 -1.367737
C 2.814623 -0.191187 -1.308403
C 2.858099 -0.295118 -1.307394
C 2.850141 -0.451195 -1.279583
C 2.779882 -0.663214 -1.148251
C 2.715761 -1.088489 -1.064559
C 2.521935 -1.366609 -0.932617
C 2.387214 -1.636334 -0.809287
C 2.376846 -1.924237 -0.766300
C 2.357907 -2.113817 -0.565277
C 2.349441 -2.377129 -0.478560
C 2.240116 -2.661396 -0.417553
C 2.150456 -2.844086 -0.426282
C 2.073612 -3.040941 -0.375531
C 2.048022 -3.037635 -0.305643
C 2.143102 -2.914014 -0.236833
C 2.214110 -2.750886 -0.255748
C 2.239838 -2.490188 -0.243702
C 2.284031 -2.363470 -0.275562
C 2.376324 -2.062282 -0.193565
C 2.596464 -1.712982 -0.261528
C 2.826085 -1.475676 -0.330949
C 2.802163 -1.357562 -0.348404
C 2.745524 -1.338829 -0.383538
C 2.783243 -1.476633 -0.461682
