204
chr15 3D structure from Hi-C (resolution 500000bp)
C -4.298538 -0.441260 -2.617617
C -3.841911 -0.330608 -3.034159
C -3.400579 -0.282123 -3.366435
C -2.965430 -0.305258 -3.627766
C -2.215802 -0.385039 -4.105566
C -1.445130 -0.552338 -4.504349
C -0.779134 -0.791361 -4.783602
C -0.708429 -1.064910 -4.759501
C -0.984916 -1.401718 -4.439098
C -1.507304 -1.715732 -3.692059
C -2.178367 -1.883029 -2.812593
C -2.983077 -1.832851 -1.862418
C -3.843567 -1.576131 -0.952055
C -4.665033 -1.228552 -0.160532
C -4.959478 -0.948033 0.298227
C -5.110217 -0.823644 0.555941
C -5.071579 -0.849534 0.386151
C -4.939180 -1.056601 0.059529
C -4.702497 -1.460810 -0.432936
C -4.355222 -1.999323 -1.013215
C -3.890434 -2.559223 -1.584120
C -3.302682 -3.021056 -2.108070
C -2.669793 -3.285234 -2.614218
C -2.134227 -3.315057 -3.112878
C -1.767907 -3.168717 -3.566517
C -1.584449 -2.891897 -3.906879
C -1.575594 -2.486256 -4.124310
C -1.720018 -1.884372 -4.233664
C -2.013660 -1.185017 -4.236857
C -2.417806 -0.461825 -4.122049
C -2.824092 0.228132 -3.893170
C -3.146394 0.890166 -3.526367
C -3.513808 1.367533 -3.026549
C -3.817009 1.699207 -2.566239
C -4.049622 1.846684 -2.214079
C -4.135845 2.117750 -1.928102
C -4.050412 2.426110 -1.552911
C -3.843548 2.704343 -1.160782
C -3.867921 2.795493 -0.819951
C -3.855854 2.868872 -0.553194
C -3.835242 2.991766 -0.269565
C -3.599508 3.331574 -0.042327
C -3.138653 3.289969 -0.000420
C -2.892748 3.364489 -0.060675
C -2.594259 3.326450 -0.049697
C -2.115365 3.463751 -0.106002
C -1.502912 3.704073 -0.242138
C -0.792412 3.830113 -0.406078
C -0.328076 3.745577 -0.404815
C -0.256090 3.868374 -0.209085
C -0.092026 3.808743 -0.006241
C -0.011333 3.840240 -0.070044
C 0.112358 3.839445 -0.219496
C 0.097467 3.809458 -0.731586
C -0.019657 3.849681 -1.123041
C -0.298112 3.806039 -1.652923
C -0.517178 3.609992 -2.258536
C -0.673789 3.288115 -2.976273
C -0.749257 2.920281 -3.612882
C -0.576403 2.426208 -4.171929
C -0.310461 2.025704 -4.387211
C -0.064714 1.778411 -4.662164
C 0.427990 1.614517 -4.735264
C 0.833424 1.458648 -4.257689
C 1.142056 1.431924 -3.694927
C 1.445729 1.474771 -3.305952
C 1.522936 1.594440 -2.758617
C 1.668548 1.768686 -2.273439
C 1.811133 1.895003 -1.696557
C 1.848737 2.039574 -1.212754
C 1.987049 2.131163 -1.167484
C 2.078956 2.337171 -1.182130
C 2.030280 2.483641 -0.930028
C 2.064975 2.465156 -0.855288
C 1.962463 2.372928 -0.696468
C 2.005612 2.210675 -0.698819
C 2.031482 1.872340 -0.723747
C 2.088481 1.546264 -0.847196
C 2.187224 0.950835 -0.971505
C 2.346397 0.353139 -1.140133
C 2.402062 -0.061411 -1.323488
C 2.549801 -0.554091 -1.598862
C 2.612885 -1.035805 -1.876935
C 2.718054 -1.341561 -1.998002
C 2.668609 -1.491079 -1.995786
C 2.784530 -1.447504 -2.034097
C 2.861829 -1.262258 -2.220312
C 2.914205 -0.948180 -2.096269
C 2.769025 -0.372360 -1.679031
C 2.577480 0.346669 -1.217257
C 2.372371 1.013070 -0.874126
C 2.285034 1.762024 -0.576693
C 2.082686 2.308979 -0.120271
C 2.012347 2.705241 0.399446
C 2.053420 2.790131 0.551349
C 2.314746 2.757583 0.559001
C 2.477371 2.557369 0.554099
C 2.700245 2.320621 0.511859
C 3.038206 1.807900 0.396326
C 3.152249 1.445962 0.304833
C 3.059210 1.046991 0.246561
C 3.112836 0.834869 0.197577
C 3.065996 0.737066 0.324491
C 2.963191 0.787756 0.476868
C 2.820142 0.851159 0.613911
C 2.532402 1.028976 0.857878
C 2.501471 1.262098 1.040977
C 2.593621 1.509713 1.282544
C 2.446293 1.623206 1.518145
C 2.393182 1.484237 1.517262
C 2.526936 1.126543 1.465211
C 2.565284 0.752171 1.402396
C 2.607577 0.490765 1.396409
C 2.591950 0.055882 1.288031
C 2.718905 -0.404443 1.122064
C 2.789377 -0.725195 1.000533
C 2.725064 -0.941614 0.969600
C 2.594407 -1.032006 1.016740
C 2.656019 -1.142702 1.112708
C 2.622508 -1.199629 1.210707
C 2.605776 -1.208385 1.374417
C 2.481319 -1.148225 1.563184
C 2.338140 -1.145823 1.634595
C 2.292198 -1.289796 1.548230
C 2.362579 -1.581821 1.329653
C 2.280219 -1.781125 1.071280
C 2.270276 -2.079706 0.732734
C 2.192796 -2.425687 0.342408
C 1.960817 -2.856338 -0.114934
C 1.865782 -3.180677 -0.356408
C 1.815978 -3.259126 -0.393890
C 1.678111 -3.289692 -0.353559
C 1.623875 -3.371745 -0.236196
C 1.532335 -3.387894 -0.074029
C 1.500532 -3.304623 0.265852
C 1.531199 -3.157384 0.690544
C 1.504190 -3.078977 0.985513
C 1.426400 -3.074450 1.156907
C 1.295717 -3.052375 1.446473
C 0.955905 -2.838076 1.479978
C 0.810537 -2.740248 1.531384
C 0.629334 -2.839407 1.553175
C 0.319484 -2.858334 1.578954
C 0.106090 -2.796117 1.635659
C -0.007609 -2.805465 1.507463
C -0.091789 -2.892326 1.255523
C -0.033845 -3.196386 1.092603
C -0.152826 -3.454676 0.834623
C -0.243431 -3.470234 0.561851
C -0.263300 -3.478241 0.347487
C -0.478500 -3.542716 0.187662
C -0.732388 -3.663694 0.143802
C -0.778930 -3.558018 0.180235
C -0.779504 -3.435028 0.363486
C -0.806495 -3.253761 0.609539
C -0.888566 -3.069928 0.859060
C -0.730311 -2.803620 0.987966
C -0.542314 -2.601113 1.141503
C -0.458749 -2.317232 1.442974
C -0.557623 -2.141336 1.717768
C -0.712573 -1.812745 1.929440
C -0.835287 -1.633577 2.108424
C -0.923745 -1.567197 2.177185
C -1.112203 -1.542551 2.414134
C -1.094840 -1.396929 2.484733
C -1.349872 -1.380391 2.529831
C -1.189237 -1.342776 2.506229
C -0.959301 -1.346687 2.509806
C -0.750014 -1.155963 2.422914
C -0.667680 -0.725971 2.455240
C -0.669431 -0.343099 2.324334
C -0.865846 -0.027854 2.362502
C -0.754209 0.459367 2.359900
C -0.974225 0.771768 2.391163
C -1.081205 0.905370 2.414429
C -1.044592 0.822256 2.533298
C -0.853389 0.448668 2.641330
C -0.549351 0.039538 2.736383
C -0.192626 -0.332122 2.900168
C 0.047944 -0.587045 3.015039
C 0.175474 -0.656320 3.030016
C 0.144539 -0.564039 3.118059
C 0.171743 -0.438775 3.134172
C 0.148399 -0.087011 3.039321
C -0.066418 0.369322 3.040068
C -0.179443 0.742479 2.910100
C -0.199186 1.014966 2.841881
C -0.201075 1.286870 2.896528
C -0.032817 1.434584 2.898426
C -0.036400 1.684543 2.956179
C -0.102192 1.846208 3.022109
C -0.159466 1.954269 3.034052
C -0.282845 2.115223 3.038012
C -0.264319 2.120983 2.976215
C -0.133441 1.935606 3.017692
C -0.093801 1.772948 3.032995
C -0.016972 1.512697 3.025371
C 0.025397 1.346871 3.074938
C 0.178237 1.001960 3.097266
C 0.156349 0.641507 3.155211
C -0.010623 0.383985 3.261551
C -0.080366 0.297003 3.224961
C -0.264652 0.254407 3.222653
C -0.555225 0.306512 3.267327
