267
chr12 3D structure from Hi-C (resolution 500000bp)
C 3.747356 0.061670 1.554979
C 3.613406 0.220638 1.556615
C 3.583389 0.276990 1.546370
C 3.523047 0.307639 1.542091
C 3.501202 0.301640 1.279712
C 3.466284 0.370817 1.284130
C 3.461297 0.456164 1.244685
C 3.340455 0.521663 1.185437
C 3.301844 0.561383 1.116432
C 3.325235 0.441705 0.918217
C 3.445782 0.233101 0.690982
C 3.497688 0.168241 0.577917
C 3.399873 0.306270 0.509893
C 3.515148 0.310787 0.408467
C 3.670683 0.317963 0.231901
C 3.753984 0.193150 0.056034
C 3.736331 0.292721 -0.026711
C 3.660161 0.640233 -0.006127
C 3.572782 1.007995 0.267486
C 3.556976 1.329930 0.502840
C 3.420318 1.414515 0.465393
C 3.392537 1.335156 0.308158
C 3.354140 1.458818 0.250319
C 3.190250 1.697595 0.399984
C 3.057725 1.814022 0.374835
C 2.967478 1.779037 0.088352
C 2.869736 1.623054 -0.254736
C 2.699410 1.879962 -0.247335
C 2.423734 2.280836 0.004208
C 2.074181 2.565189 0.044142
C 1.956202 2.754683 -0.057639
C 1.721110 2.964318 -0.048736
C 1.389435 3.175521 -0.053673
C 1.211845 3.387308 -0.044450
C 1.025095 3.512618 -0.093267
C 0.921684 3.583315 -0.122929
C 1.084567 3.637325 -0.062995
C 1.083098 3.708469 -0.067692
C 1.080768 3.725676 -0.169556
C 1.165529 3.620936 -0.226085
C 1.188431 3.608714 -0.370667
C 1.209701 3.524577 -0.508509
C 1.320064 3.357242 -0.794587
C 1.323464 3.337461 -1.009887
C 1.484786 3.146065 -1.306772
C 1.709350 2.931510 -1.446539
C 1.935837 2.749675 -1.695109
C 2.104998 2.464695 -1.727430
C 2.290485 2.323801 -1.780775
C 2.380456 2.083464 -1.811162
C 2.526634 1.708831 -1.908593
C 2.495655 1.431387 -1.836268
C 2.420883 1.302045 -1.871798
C 2.342025 1.430153 -1.906069
C 2.132515 1.617550 -1.942111
C 2.035435 1.741362 -1.957303
C 1.795836 1.988022 -1.859191
C 1.486330 2.319087 -1.845263
C 1.346487 2.554334 -1.833229
C 1.355395 2.593233 -1.980915
C 1.324089 2.362890 -1.824293
C 1.472225 2.336599 -1.734238
C 1.381458 2.234528 -1.642955
C 1.167148 2.476176 -1.497611
C 0.980283 2.687733 -1.221816
C 0.724063 2.986780 -0.856224
C 0.464481 3.350582 0.003447
C 0.288691 3.706713 0.803920
C 0.044694 3.830459 1.594796
C -0.160792 4.023614 2.353649
C -0.259423 3.971623 2.902964
C -0.389351 3.946632 3.241670
C -0.537692 3.948757 3.223382
C -0.785509 3.899508 2.693580
C -0.959942 3.799150 1.844950
C -1.092795 3.683243 0.973820
C -0.992313 3.494525 -0.105842
C -0.769602 3.138982 -1.026480
C -0.625260 2.790433 -1.645291
C -0.512468 2.468985 -2.082088
C -0.348377 2.145036 -2.319045
C -0.186553 1.795955 -2.375245
C -0.135900 1.660518 -2.482046
C -0.154314 1.515149 -2.303110
C -0.174267 1.389332 -2.337693
C -0.099156 1.262688 -2.357455
C -0.045114 1.113525 -2.503749
C 0.083106 0.915397 -2.600573
C 0.162405 0.828323 -2.685786
C 0.387538 0.514435 -2.784428
C 0.551259 0.257202 -3.045809
C 0.651903 0.137951 -2.905769
C 0.847128 -0.114384 -2.829210
C 1.110565 -0.472614 -2.639304
C 1.351378 -0.821389 -2.500255
C 1.552496 -1.179199 -2.468775
C 1.689327 -1.545241 -2.274095
C 1.938212 -1.774011 -1.978987
C 2.132214 -2.068765 -1.869492
C 2.233863 -2.331463 -1.872197
C 2.354851 -2.371042 -1.816761
C 2.268846 -2.264152 -1.638175
C 2.160228 -2.101312 -1.424666
C 2.221001 -2.075533 -1.372755
C 2.121585 -2.096673 -1.315862
C 2.158375 -2.082806 -1.326528
C 1.975175 -1.876100 -1.363957
C 1.728624 -1.795005 -1.573982
C 1.640606 -1.811759 -1.803250
C 1.638599 -1.939318 -2.064777
C 1.436654 -1.824360 -2.123881
C 1.296261 -1.856417 -2.226374
C 1.046654 -1.774912 -2.383676
C 0.816408 -1.549504 -2.440142
C 0.571563 -1.359430 -2.477305
C 0.223811 -0.999878 -2.661790
C -0.278653 -0.562054 -2.710805
C -0.743871 -0.071561 -2.880774
C -1.244679 0.400421 -3.116373
C -1.630338 0.931048 -3.089777
C -1.795362 1.102459 -3.025161
C -1.889007 1.039049 -2.978154
C -1.796930 0.785429 -2.838472
C -1.761273 0.696081 -2.791575
C -1.711420 0.379160 -2.779977
C -1.577079 0.009404 -2.648499
C -1.373273 -0.485864 -2.639158
C -1.290949 -0.878449 -2.773746
C -1.212984 -1.087038 -2.811668
C -1.232313 -1.119726 -2.690999
C -1.192212 -1.222923 -2.608048
C -1.125599 -1.235071 -2.475023
C -1.043382 -1.188107 -2.348785
C -1.044077 -1.256931 -2.311569
C -0.889845 -1.394634 -2.189744
C -0.859378 -1.356559 -1.973144
C -0.929236 -1.363147 -1.930864
C -1.059671 -1.268171 -1.946597
C -1.247368 -1.079809 -1.936663
C -1.468090 -0.800446 -1.877671
C -1.706215 -0.586725 -1.862702
C -2.061840 -0.110503 -1.840645
C -2.371133 0.352892 -1.762154
C -2.543605 0.730985 -1.671553
C -2.671099 1.107655 -1.447833
C -2.778291 1.183905 -1.385990
C -2.921917 1.285803 -1.381197
C -3.082493 1.545214 -1.319414
C -2.989762 1.362648 -1.228935
C -2.868474 1.083611 -1.207906
C -2.816267 0.800645 -1.221502
C -2.768475 0.525160 -1.234063
C -2.742292 0.559844 -1.047910
C -2.701851 0.427592 -0.897756
C -2.676534 0.464218 -0.693409
C -2.858654 0.738827 -0.491609
C -2.954260 1.062015 -0.244358
C -3.019315 1.245818 -0.072969
C -3.076353 1.112651 -0.000662
C -3.159012 1.078002 -0.023531
C -3.250638 1.051921 -0.030629
C -3.329558 0.780363 -0.121026
C -3.313521 0.273632 -0.408574
C -3.287883 0.005303 -0.480065
C -3.324289 0.037695 -0.409687
C -3.520056 -0.009553 -0.480197
C -3.552991 -0.060599 -0.389833
C -3.587260 0.068499 -0.188351
C -3.621000 0.173002 0.016555
C -3.715929 0.517624 0.453571
C -3.848468 0.632089 0.636883
C -3.852022 0.550229 0.664173
C -3.736179 0.612274 0.892053
C -3.695517 0.284081 0.835372
C -3.648690 0.145365 0.923727
C -3.546857 -0.021025 0.874845
C -3.338272 -0.435949 0.629820
C -3.324666 -0.784790 0.413544
C -3.445430 -0.972363 0.352372
C -3.329883 -1.088487 0.292631
C -3.180768 -1.068161 0.274929
C -2.913460 -1.396305 0.027844
C -2.730864 -1.659397 -0.089663
C -2.558608 -1.764712 -0.120082
C -2.312161 -1.921948 -0.101778
C -1.952241 -2.215522 -0.199889
C -1.729199 -2.393821 -0.193640
C -1.478116 -2.511125 -0.134238
C -1.409902 -2.467970 0.009270
C -1.320007 -2.570540 0.049027
C -1.533190 -2.426043 0.328706
C -1.635737 -2.252037 0.459383
C -1.851738 -1.981765 0.797799
C -1.977015 -1.875762 0.916390
C -2.176672 -1.765990 1.116860
C -2.252107 -1.642369 1.200289
C -2.374488 -1.338199 1.408858
C -2.336075 -1.457727 1.400324
C -2.273567 -1.571493 1.484564
C -2.165272 -1.760254 1.370007
C -1.990053 -1.872684 1.316054
C -1.825054 -2.203623 1.147906
C -1.767411 -2.557456 1.075306
C -1.605448 -2.920289 0.963185
C -1.283136 -2.913757 0.886110
C -1.008159 -3.118879 0.807030
C -0.768716 -3.195716 0.738921
C -0.629115 -3.185904 0.768786
C -0.542745 -2.927467 1.013093
C -0.382494 -2.703519 1.118468
C -0.294313 -2.509983 1.244876
C -0.324525 -2.504189 1.474558
C -0.262135 -2.416720 1.592182
C -0.174056 -2.406438 1.841326
C -0.031966 -2.530362 1.884890
C 0.126342 -2.627377 1.839226
C 0.302674 -2.757304 1.895576
C 0.581108 -2.939648 1.840401
C 0.843170 -3.014164 1.658358
C 0.999228 -3.055394 1.758062
C 1.154375 -3.251993 1.577021
C 1.171061 -3.332350 1.745887
C 1.230229 -3.240993 1.949807
C 1.234649 -3.111135 2.105395
C 1.069316 -2.814717 2.372215
C 0.755274 -2.493092 2.744393
C 0.405159 -2.173042 2.849459
C 0.082695 -1.698413 3.103476
C -0.176434 -1.350792 3.170528
C -0.355207 -1.319580 3.114634
C -0.464702 -1.241950 3.198145
C -0.514164 -1.226047 3.118546
C -0.407096 -1.245817 2.961417
C -0.211940 -1.324566 2.787456
C -0.058877 -1.299861 2.820381
C 0.079926 -1.185234 2.814823
C 0.273485 -1.151412 2.723208
C 0.543624 -1.367995 2.450980
C 0.823866 -1.622706 2.264352
C 1.224272 -1.944810 2.052837
C 1.575414 -2.166594 1.976026
C 1.872565 -2.582474 1.646070
C 2.206780 -2.924736 1.546512
C 2.367973 -3.006157 1.520033
C 2.364674 -2.894149 1.654076
C 2.286008 -2.658894 1.923986
C 2.040079 -2.498722 2.108541
C 1.555736 -2.127739 2.248453
C 0.998587 -1.555756 2.637173
C 0.419807 -1.008669 2.842406
C -0.160706 -0.591134 3.000066
C -0.691901 -0.226182 3.089753
C -1.121342 0.092799 3.115928
C -1.454830 0.441768 3.211217
C -1.470472 0.498508 3.234213
C -1.356945 0.474290 3.187302
C -1.312329 0.350439 3.138953
C -1.151073 0.308726 3.222533
C -0.978917 0.234916 3.207412
C -0.693657 0.041382 3.183966
C -0.377872 -0.160091 3.174218
C -0.088945 -0.218146 3.323764
C 0.219869 -0.280160 3.401126
C 0.471246 -0.168454 3.568241
C 0.652308 -0.248087 3.556394
C 0.873577 -0.276684 3.647458
C 0.987938 -0.188203 3.786772
