267
chr12 3D structure from Hi-C (resolution 500000bp)
C -2.730281 0.703664 -2.654944
C -2.737446 0.779381 -2.600135
C -2.716529 0.816559 -2.517941
C -2.673148 0.913266 -2.406868
C -2.461913 0.818083 -2.467952
C -2.487137 0.959111 -2.424862
C -2.427119 1.045333 -2.447215
C -2.360128 1.173540 -2.268664
C -2.266173 1.245833 -2.161458
C -2.176697 1.231604 -2.272256
C -2.083934 1.034102 -2.564957
C -2.008374 1.043524 -2.733464
C -1.850102 1.094152 -2.697249
C -1.917364 1.278228 -2.640461
C -1.877395 1.339682 -2.812476
C -1.786775 1.383088 -2.903366
C -1.720626 1.540871 -2.800103
C -1.613664 1.741468 -2.710463
C -1.696019 2.098348 -2.427777
C -1.826763 2.447248 -2.265053
C -1.644635 2.372586 -2.301028
C -1.528363 2.389242 -2.367525
C -1.418817 2.321482 -2.427110
C -1.358392 2.406725 -2.423947
C -1.367446 2.595455 -2.173932
C -1.082729 2.362868 -2.357631
C -0.758669 2.161073 -2.437391
C -0.643390 2.366919 -2.259738
C -0.517669 2.541441 -2.020953
C -0.397658 2.795487 -1.770051
C -0.236518 2.937997 -1.523209
C -0.008318 3.072977 -1.349154
C 0.081225 3.334366 -1.005861
C 0.220762 3.467960 -0.793326
C 0.398831 3.559054 -0.641126
C 0.481489 3.613729 -0.504250
C 0.532192 3.683722 -0.531428
C 0.626418 3.709033 -0.588505
C 0.781893 3.670847 -0.641585
C 0.913588 3.518181 -0.768499
C 0.934149 3.528011 -0.896891
C 0.911333 3.393606 -1.016421
C 1.019307 3.239570 -1.200643
C 1.160386 3.186986 -1.298206
C 1.344306 3.083590 -1.467266
C 1.306485 2.970909 -1.665862
C 1.250701 2.898851 -1.862418
C 1.185206 2.616115 -2.066840
C 1.162105 2.590706 -2.127645
C 1.092608 2.414385 -2.234869
C 0.947696 2.055930 -2.429283
C 0.689548 1.703608 -2.534153
C 0.671750 1.551997 -2.598806
C 0.812285 1.546822 -2.607264
C 0.946350 1.699397 -2.367848
C 1.061435 1.660415 -2.505953
C 1.135969 1.828961 -2.206678
C 1.323302 2.140731 -1.832256
C 1.543378 2.361244 -1.707719
C 1.599115 2.392153 -1.822366
C 1.440908 2.192168 -1.744410
C 1.418223 1.993903 -2.025969
C 1.374779 1.986881 -1.720702
C 1.465188 2.137781 -1.503339
C 1.445245 2.266282 -1.294632
C 1.337353 2.559533 -0.839599
C 1.028042 2.955550 -0.139436
C 0.526738 3.436848 0.421768
C -0.048691 3.880310 1.167033
C -0.543550 4.155701 1.639052
C -1.031041 4.237347 1.980303
C -1.321172 4.301117 2.225796
C -1.315648 4.281208 2.366387
C -0.833785 4.077294 2.217848
C -0.075613 3.729958 1.854837
C 0.699670 3.378251 1.510191
C 1.478872 2.886655 0.777402
C 2.028793 2.420875 0.146987
C 2.444987 1.962421 -0.319105
C 2.705899 1.559604 -0.756569
C 2.645337 1.263693 -0.922625
C 2.532347 0.999551 -1.029036
C 2.556767 0.881457 -1.132037
C 2.413292 0.854937 -0.956576
C 2.436343 0.734258 -1.019927
C 2.382089 0.617994 -1.149782
C 2.415634 0.443701 -1.323527
C 2.428185 0.265418 -1.462346
C 2.406228 0.165310 -1.550412
C 2.260332 -0.144698 -1.794091
C 2.269380 -0.364521 -2.054851
C 2.082115 -0.455325 -2.090702
C 1.850112 -0.602947 -2.192785
C 1.469322 -0.770313 -2.323863
C 1.109997 -0.987569 -2.609023
C 0.759295 -1.223593 -2.850200
C 0.399510 -1.354383 -2.978450
C -0.035852 -1.531490 -3.024714
C -0.281177 -1.719448 -3.169310
C -0.465125 -1.920998 -3.260421
C -0.582448 -1.973230 -3.214302
C -0.651360 -1.889859 -2.994279
C -0.608916 -1.691161 -2.742931
C -0.559677 -1.745367 -2.704327
C -0.472386 -1.741749 -2.657696
C -0.355877 -1.780055 -2.626639
C -0.094027 -1.666246 -2.487137
C 0.249306 -1.640299 -2.419430
C 0.453304 -1.764319 -2.489386
C 0.587976 -2.056174 -2.600688
C 0.662723 -2.037313 -2.438274
C 0.734341 -2.102843 -2.320084
C 0.832403 -2.116475 -2.189567
C 1.048203 -1.940255 -1.955636
C 1.280515 -1.760847 -1.655024
C 1.746617 -1.554449 -1.405868
C 2.190847 -1.223581 -1.084560
C 2.697168 -0.791472 -0.682546
C 3.234308 -0.245627 -0.274070
C 3.529608 0.212843 0.123172
C 3.588059 0.365543 0.262379
C 3.496572 0.281280 0.216272
C 3.248852 0.189095 0.199057
C 3.223368 0.165275 0.306542
C 3.125662 -0.102359 0.213555
C 2.934698 -0.574598 0.014056
C 2.736103 -0.963614 -0.267550
C 2.708202 -1.341823 -0.447189
C 2.652817 -1.563705 -0.533042
C 2.569937 -1.596729 -0.454977
C 2.402630 -1.595748 -0.444593
C 2.261031 -1.641237 -0.494083
C 2.127884 -1.628310 -0.469807
C 2.091873 -1.700391 -0.437680
C 1.866127 -1.804769 -0.481773
C 1.654948 -1.657868 -0.342806
C 1.636618 -1.555217 -0.235683
C 1.747189 -1.492751 -0.124585
C 1.817335 -1.311074 0.087251
C 1.864497 -0.960971 0.357411
C 2.001637 -0.802772 0.583702
C 2.186328 -0.340302 1.007486
C 2.427286 -0.025010 1.332479
C 2.510791 0.206540 1.546512
C 2.400731 0.515241 1.826267
C 2.460325 0.581254 1.975229
C 2.606507 0.515943 2.064774
C 2.664541 0.642318 2.329774
C 2.576685 0.390671 2.180064
C 2.405897 0.052446 1.988426
C 2.323274 -0.276917 1.854276
C 2.302505 -0.556983 1.758859
C 2.315906 -0.701831 1.684726
C 2.189406 -0.830020 1.682118
C 2.198857 -1.024644 1.614906
C 2.337066 -1.163695 1.769605
C 2.480434 -1.356072 1.796958
C 2.557318 -1.478163 1.899497
C 2.579067 -1.768831 1.808152
C 2.492943 -1.811549 1.978419
C 2.485603 -1.860908 2.044087
C 2.359960 -1.801019 2.122281
C 2.208836 -1.959565 2.041481
C 2.045087 -1.613425 2.207006
C 1.984502 -1.255171 2.377380
C 1.900494 -0.772829 2.679034
C 1.823349 -0.646925 2.729475
C 1.747627 -0.412940 2.928183
C 1.679471 -0.164978 3.065389
C 1.542991 0.316895 3.418026
C 1.479618 0.458774 3.627451
C 1.339751 0.390162 3.652090
C 1.265461 0.170559 3.619149
C 1.176530 -0.098811 3.619921
C 1.031346 -0.255466 3.578142
C 0.910281 -0.469977 3.533150
C 0.917279 -0.887929 3.156464
C 0.903218 -1.205063 3.035257
C 0.876890 -1.367083 3.062795
C 0.841665 -1.486173 2.928157
C 0.790565 -1.443836 2.798890
C 0.756179 -1.736477 2.385814
C 0.723922 -2.009432 2.030409
C 0.604344 -2.104784 1.888772
C 0.442394 -2.311724 1.623884
C 0.328994 -2.595318 1.270453
C 0.187637 -2.748359 0.966780
C -0.002323 -2.860243 0.754791
C -0.136308 -2.775335 0.829068
C -0.207333 -2.848537 0.894042
C -0.224818 -2.745484 1.196484
C -0.235517 -2.554095 1.395439
C -0.308535 -2.294195 1.769199
C -0.323841 -2.198114 2.004647
C -0.408830 -2.065419 2.222992
C -0.371978 -1.897741 2.377954
C -0.398859 -1.547658 2.565849
C -0.549326 -1.501152 2.609594
C -0.598224 -1.492692 2.649302
C -0.682104 -1.625068 2.446356
C -0.740295 -1.689695 2.215181
C -0.732497 -1.944588 2.079447
C -0.902402 -2.246682 1.978732
C -1.102156 -2.595969 1.711008
C -1.149650 -2.594954 1.368299
C -1.284851 -2.820009 0.954348
C -1.277808 -2.822994 0.657908
C -1.388952 -2.875876 0.636858
C -1.518212 -2.592297 0.653224
C -1.545955 -2.367785 0.523715
C -1.560498 -2.172368 0.557721
C -1.703354 -2.093039 0.710414
C -1.825652 -1.900304 0.791003
C -2.075196 -1.870138 0.916245
C -2.187713 -1.864466 0.806210
C -2.288219 -1.893174 0.604230
C -2.454859 -1.926150 0.445075
C -2.596086 -2.041864 0.170117
C -2.672570 -2.126289 -0.055844
C -2.895071 -2.025737 -0.182556
C -3.044632 -1.923122 -0.413350
C -3.282360 -1.853088 -0.354385
C -3.425263 -1.765331 -0.230636
C -3.513489 -1.714303 -0.068669
C -3.513608 -1.405850 0.285800
C -3.521913 -1.029608 0.614456
C -3.321023 -0.857843 1.003641
C -3.106769 -0.631741 1.428048
C -2.903666 -0.364094 1.697209
C -2.767119 -0.304857 1.751083
C -2.761340 -0.137720 1.882120
C -2.700043 -0.157236 1.808685
C -2.595551 -0.247461 1.665713
C -2.590653 -0.428526 1.441529
C -2.631937 -0.521419 1.399211
C -2.674256 -0.617181 1.379795
C -2.700830 -0.678891 1.298186
C -2.695378 -0.880379 0.937142
C -2.728719 -1.090416 0.569185
C -2.872450 -1.359797 0.123663
C -2.972396 -1.537895 -0.211025
C -3.029801 -1.814801 -0.681600
C -3.057165 -2.113159 -1.137062
C -3.027277 -2.315153 -1.437864
C -2.974460 -2.436886 -1.404525
C -3.113764 -2.192667 -1.113015
C -3.112823 -1.980474 -0.794522
C -2.872077 -1.657616 -0.282944
C -2.674957 -1.188460 0.384355
C -2.476616 -0.641572 1.070492
C -2.338870 -0.203434 1.724952
C -2.176074 0.234061 2.257914
C -1.851999 0.485505 2.637596
C -1.612080 0.717916 3.017541
C -1.599608 0.789934 3.017380
C -1.616143 0.844714 2.917819
C -1.675641 0.845888 2.834590
C -1.778533 0.939784 2.804475
C -1.827062 0.942846 2.650151
C -2.057646 0.796896 2.347494
C -2.308384 0.662424 1.992762
C -2.638534 0.675934 1.836185
C -2.930841 0.631795 1.568224
C -3.181326 0.722394 1.333932
C -3.316267 0.646466 1.055035
C -3.557319 0.670609 0.872589
C -3.723908 0.787901 0.828325
