204
chr15 3D structure from Hi-C (resolution 500000bp)
C -4.457327 0.823340 -3.455130
C -4.179809 1.125474 -3.636960
C -3.870664 1.323312 -3.837903
C -3.572149 1.379211 -4.047285
C -3.073612 1.510247 -4.431709
C -2.656373 1.470107 -4.757627
C -2.434906 1.229093 -4.955633
C -2.518808 0.699059 -4.879429
C -2.803357 0.133051 -4.602454
C -3.300811 -0.039147 -3.724057
C -3.874821 -0.098097 -2.798136
C -4.501826 -0.117839 -1.955687
C -5.068729 -0.293460 -1.230861
C -5.475690 -0.542927 -0.554648
C -5.602804 -0.713741 -0.137509
C -5.563792 -0.983980 0.043407
C -5.344287 -1.682321 -0.425676
C -5.042687 -2.421206 -0.989482
C -4.627579 -3.067329 -1.530012
C -4.116369 -3.444818 -2.047981
C -3.506623 -3.644331 -2.659153
C -2.794705 -3.666173 -3.321715
C -2.095389 -3.511336 -3.944708
C -1.549739 -3.242180 -4.467327
C -1.257959 -2.956060 -4.834458
C -1.235687 -2.653984 -5.020662
C -1.457660 -2.232158 -5.047639
C -1.996555 -1.472298 -4.711551
C -2.705991 -0.689625 -4.174950
C -3.462199 0.076839 -3.444871
C -4.105222 0.840099 -2.599819
C -4.461720 1.677076 -1.758646
C -4.893231 1.836423 -0.884049
C -5.191319 1.862222 -0.150769
C -5.286081 1.715852 0.030518
C -5.169056 1.874214 -0.038682
C -4.719306 2.176860 -0.147315
C -4.142216 2.307508 -0.173803
C -3.897945 2.406512 -0.332305
C -3.508434 3.085468 -0.935582
C -3.042268 3.759468 -1.538232
C -2.271836 4.312820 -1.721952
C -1.336059 4.160682 -1.774911
C -1.007293 4.092075 -1.752327
C -0.835611 4.056955 -1.767638
C -0.498320 4.033180 -1.646856
C 0.000344 4.020847 -1.214635
C 0.520887 3.927862 -0.722613
C 0.636698 3.803164 -0.350817
C 0.394961 4.037911 0.051350
C 0.418830 3.949936 0.266102
C 0.475848 3.958205 0.287055
C 0.610373 3.942456 0.152566
C 0.743392 3.979475 -0.360692
C 0.770452 4.074571 -0.757633
C 0.698912 4.016404 -1.503232
C 0.673352 3.824847 -2.317083
C 0.713369 3.486978 -3.193003
C 0.759415 3.009846 -4.032620
C 0.807027 2.321324 -4.775668
C 0.879544 1.648608 -5.112430
C 1.053965 1.132553 -5.520061
C 1.463275 0.971649 -5.377054
C 1.599143 0.805713 -4.749741
C 1.684407 0.769705 -4.038832
C 1.914695 0.749913 -3.365021
C 2.033452 0.987507 -2.634118
C 2.137260 1.301563 -1.848481
C 2.086468 1.582096 -1.089328
C 1.983447 1.722908 -0.545148
C 2.091549 1.785856 -0.497180
C 2.210395 1.967889 -0.401123
C 2.093204 2.258788 -0.259072
C 2.139032 2.294810 -0.186113
C 2.080484 2.210660 -0.193893
C 2.089027 2.014925 -0.180551
C 2.129429 1.638660 -0.256335
C 2.277062 1.221383 -0.315910
C 2.421570 0.692811 -0.470081
C 2.628501 0.114994 -0.658185
C 2.703055 -0.297785 -0.798886
C 2.820742 -0.692950 -0.868472
C 2.975269 -1.062686 -0.984441
C 3.064814 -1.366562 -1.076179
C 3.038842 -1.413781 -1.155114
C 3.027564 -1.394926 -1.057345
C 3.121414 -1.307806 -1.034348
C 3.081469 -1.089049 -0.851626
C 2.933535 -0.627330 -0.650425
C 2.702045 0.034586 -0.365528
C 2.528623 0.681164 -0.014400
C 2.407204 1.283223 0.337762
C 2.225429 1.719608 0.527346
C 2.015418 2.011139 0.806756
C 2.066317 2.111152 0.893953
C 2.205844 2.036670 0.946632
C 2.333350 1.841595 0.992224
C 2.465480 1.505173 0.924616
C 2.643700 1.062291 0.798439
C 2.761910 0.763147 0.759919
C 2.795665 0.538183 0.754126
C 2.757086 0.373296 0.781701
C 2.655310 0.288969 0.819816
C 2.522067 0.287823 0.839119
C 2.371858 0.486885 0.958439
C 2.201080 0.791438 1.213026
C 2.071569 1.112618 1.385390
C 1.980443 1.267507 1.502636
C 1.935883 1.379551 1.644469
C 2.001707 1.334859 1.726292
C 2.164912 1.058979 1.749032
C 2.277120 0.682793 1.789573
C 2.282482 0.320100 1.754050
C 2.375017 -0.151875 1.700733
C 2.486510 -0.494231 1.617938
C 2.528522 -0.835961 1.476085
C 2.441895 -1.019747 1.412928
C 2.338254 -1.157966 1.315639
C 2.267314 -1.250892 1.224725
C 2.059077 -1.215686 1.052575
C 1.836610 -1.183234 0.890984
C 1.600965 -1.108649 0.828918
C 1.383458 -1.031497 0.801629
C 1.372031 -1.201551 0.714894
C 1.429992 -1.449628 0.596489
C 1.456405 -1.719052 0.333594
C 1.615657 -2.150188 0.173671
C 1.754891 -2.488877 0.056109
C 1.821249 -2.801048 -0.153208
C 1.832557 -3.170114 -0.414858
C 1.724383 -3.262472 -0.528924
C 1.586294 -3.277592 -0.546269
C 1.517625 -3.227275 -0.405724
C 1.423548 -3.127941 -0.348515
C 1.238026 -2.980440 -0.289248
C 1.042293 -2.848457 -0.126194
C 0.842065 -2.631134 0.082759
C 0.716677 -2.594914 0.096676
C 0.479166 -2.454145 0.143418
C 0.131992 -2.245515 0.178715
C -0.049304 -2.172765 0.280020
C -0.034996 -2.261067 0.366421
C -0.098498 -2.281841 0.453130
C -0.138931 -2.293088 0.530350
C -0.144532 -2.285160 0.675969
C -0.063531 -2.487503 0.689223
C 0.130067 -2.807578 0.662669
C 0.288509 -3.044056 0.657525
C 0.310987 -3.159658 0.698929
C 0.374649 -3.256951 0.763128
C 0.461386 -3.346648 0.865108
C 0.541514 -3.407588 0.946565
C 0.471210 -3.365135 1.086773
C 0.494694 -3.273995 1.233707
C 0.445276 -3.162918 1.392416
C 0.307620 -2.956073 1.533965
C 0.240841 -2.789457 1.629517
C 0.162372 -2.576932 1.650331
C 0.003393 -2.367971 1.680047
C -0.055066 -2.113258 1.746545
C -0.334784 -1.798630 1.808222
C -0.606149 -1.632730 1.885198
C -0.727974 -1.614786 1.959396
C -0.768142 -1.554291 2.035467
C -0.807377 -1.474808 2.127283
C -1.080002 -1.533329 2.280185
C -1.016926 -1.568955 2.397569
C -0.812729 -1.649763 2.550168
C -0.669362 -1.452731 2.620848
C -0.675439 -1.055943 2.631032
C -0.769613 -0.652106 2.586855
C -0.858287 -0.266823 2.570402
C -0.676682 0.203174 2.486087
C -0.734874 0.475254 2.439291
C -0.755777 0.604837 2.368750
C -0.611129 0.470396 2.364593
C -0.323964 0.145193 2.400133
C -0.004123 -0.386832 2.479306
C 0.338211 -0.908195 2.559689
C 0.477513 -1.172518 2.647830
C 0.444215 -1.216467 2.706429
C 0.368380 -1.138628 2.779574
C 0.265610 -0.990464 2.869926
C 0.020725 -0.692674 2.916736
C -0.303578 -0.199683 2.969923
C -0.503090 0.224105 3.003284
C -0.668444 0.534295 3.036982
C -0.658361 0.789507 3.123725
C -0.554050 0.921337 3.217624
C -0.581832 1.158960 3.235321
C -0.620565 1.363539 3.279920
C -0.617413 1.546055 3.298598
C -0.716505 1.750539 3.284097
C -0.665381 1.800098 3.231948
C -0.549773 1.660656 3.213410
C -0.492632 1.546863 3.158597
C -0.382682 1.344390 3.172867
C -0.272831 1.239092 3.135548
C -0.064052 0.947019 3.151032
C 0.171659 0.527747 3.216270
C 0.058411 0.231247 3.246173
C 0.051371 0.142188 3.240499
C -0.075461 0.139140 3.245229
C -0.231222 0.213246 3.194646
