204
chr15 3D structure from Hi-C (resolution 500000bp)
C 5.531215 1.309602 3.036690
C 5.293122 1.343105 3.326849
C 5.059688 1.539396 3.490418
C 4.805911 1.788786 3.594117
C 4.288757 2.077455 3.928708
C 3.620434 2.438899 4.217323
C 2.863931 2.841313 4.421384
C 2.160106 3.167937 4.586270
C 1.618852 3.311326 4.764091
C 1.299970 3.218752 4.976752
C 1.190891 2.881997 5.205314
C 1.197165 2.369839 5.444906
C 1.222658 1.783978 5.704314
C 1.217205 1.255190 5.933817
C 1.097019 0.851981 6.080114
C 0.750574 0.550977 6.146252
C 0.096543 0.337115 6.148619
C -0.785957 0.319817 6.078576
C -1.646302 0.520951 5.947733
C -2.259011 0.884561 5.759133
C -2.638367 1.329773 5.512025
C -2.870378 1.841859 5.195228
C -2.998108 2.424272 4.805404
C -2.984438 3.078977 4.357509
C -2.808993 3.750957 3.870685
C -2.529694 4.361015 3.369775
C -2.227322 4.848258 2.925931
C -1.884709 5.191823 2.617979
C -1.430658 5.412749 2.430847
C -0.801974 5.543725 2.324118
C -0.040350 5.589481 2.264802
C 0.773705 5.530136 2.174399
C 1.600174 5.320146 2.221154
C 2.407596 5.028497 2.184696
C 3.180883 4.743357 1.946840
C 3.807079 4.550411 1.553376
C 3.845806 4.513613 0.829125
C 3.635707 4.333032 0.143785
C 3.238764 4.412000 -0.195155
C 2.801916 4.670349 -0.459618
C 2.416655 4.968667 -0.704102
C 2.021619 5.073889 -1.150995
C 1.723024 4.766768 -1.539860
C 1.708717 4.537465 -1.702447
C 1.643525 4.395254 -1.805454
C 1.620559 4.085251 -2.165732
C 1.545941 3.585146 -2.666540
C 1.303409 3.046739 -3.096253
C 0.942226 2.751216 -3.232051
C 0.523042 2.833358 -3.360536
C 0.207369 2.757850 -3.305272
C 0.082074 2.714097 -3.347855
C -0.041669 2.684978 -3.290637
C -0.378528 3.058173 -3.093918
C -0.656084 3.350149 -2.962929
C -1.107556 3.791701 -2.582297
C -1.663706 4.157372 -2.072227
C -2.272862 4.365073 -1.502623
C -2.950659 4.504864 -0.780102
C -3.596130 4.488290 -0.002145
C -4.077819 4.073350 0.718195
C -4.581667 3.757946 1.501719
C -3.421117 3.281444 1.386685
C -2.765548 2.667756 1.180441
C -1.969037 2.111814 0.850438
C -0.864996 1.530383 0.392884
C 0.149965 1.095598 -0.157025
C 1.161770 0.807487 -0.924050
C 2.110142 0.649737 -1.792088
C 1.669180 0.528947 -2.040870
C 1.824186 0.472985 -2.211468
C 1.871124 0.542217 -2.448265
C 1.682869 0.753083 -2.672605
C 1.653721 0.720620 -2.760708
C 1.642084 0.602484 -2.689291
C 1.664796 0.464873 -2.640329
C 1.717988 0.167564 -2.391556
C 1.871374 -0.069597 -2.128705
C 2.178011 -0.509274 -1.751460
C 2.470583 -0.909249 -1.284209
C 2.640850 -1.172568 -0.950016
C 2.838821 -1.427151 -0.690154
C 3.033317 -1.716485 -0.384679
C 3.155969 -1.893857 -0.257806
C 3.210011 -1.954073 -0.194706
C 3.095070 -1.948538 -0.252087
C 3.164968 -1.942678 -0.386449
C 2.933690 -1.772665 -0.606379
C 2.546758 -1.459530 -0.936412
C 2.161480 -1.031757 -1.418582
C 1.762944 -0.622232 -1.915376
C 1.332364 -0.259075 -2.447463
C 1.021744 0.042394 -2.766960
C 0.572788 0.186778 -3.020269
C 0.554650 0.133027 -3.186992
C 0.703616 -0.036722 -3.244975
C 0.759162 -0.220403 -3.211517
C 0.900638 -0.535939 -3.044887
C 1.164718 -0.966155 -2.755117
C 1.261864 -1.217754 -2.593707
C 1.370822 -1.399918 -2.474402
C 1.391148 -1.548191 -2.369486
C 1.248988 -1.563771 -2.296267
C 1.086337 -1.545106 -2.255774
C 0.837998 -1.379034 -2.336756
C 0.505606 -1.158273 -2.553320
C 0.313596 -1.016114 -2.773558
C 0.095219 -0.916956 -2.887621
C -0.087230 -0.841624 -2.998233
C -0.106959 -0.974036 -3.037466
C 0.018988 -1.281348 -2.919795
C 0.180036 -1.636062 -2.718129
C 0.236612 -1.861845 -2.476963
C 0.398388 -2.202715 -2.160538
C 0.604744 -2.470014 -1.914088
C 0.758126 -2.689737 -1.650526
C 0.755181 -2.787708 -1.440328
C 0.744582 -2.793710 -1.279136
C 0.703190 -2.792449 -1.128880
C 0.649369 -2.881682 -1.093684
C 0.526246 -2.865483 -1.112223
C 0.330814 -2.840164 -1.113595
C 0.190223 -2.798398 -1.060613
C 0.283785 -2.843132 -0.890559
C 0.481601 -3.008930 -0.645499
C 0.721082 -3.118096 -0.408418
C 1.047642 -3.227587 0.011516
C 1.306380 -3.259557 0.423785
C 1.572778 -3.292472 0.837023
C 1.825492 -3.324467 1.277968
C 1.841200 -3.238096 1.469476
C 1.777425 -3.158459 1.587795
C 1.690273 -3.069478 1.633257
C 1.517135 -2.943998 1.585602
C 1.309136 -2.774720 1.535284
C 1.067549 -2.621579 1.421396
C 0.841756 -2.413142 1.261257
C 0.737303 -2.355419 1.295900
C 0.542135 -2.159625 1.288207
C 0.268514 -1.941068 1.303704
C 0.100690 -1.812840 1.349928
C 0.054551 -1.911788 1.347156
C -0.021419 -1.971534 1.393183
C -0.188438 -2.010541 1.380271
C -0.319986 -2.079382 1.311258
C -0.303129 -2.301176 1.355338
C -0.174818 -2.596071 1.473148
C -0.103918 -2.814879 1.611920
C -0.142447 -2.891191 1.759786
C -0.229905 -2.955739 1.767257
C -0.267932 -3.151850 1.763097
C -0.262378 -3.283862 1.777591
C -0.449823 -3.269237 1.796236
C -0.552606 -3.297008 1.708840
C -0.670802 -3.322489 1.534225
C -0.851469 -3.207948 1.362741
C -0.952917 -3.154918 1.239601
C -1.036353 -2.998807 1.147732
C -1.227278 -2.720360 1.050372
C -1.303388 -2.479214 0.883929
C -1.603047 -2.114600 0.746903
C -1.909301 -1.904457 0.773283
C -2.005161 -1.839589 0.762929
C -2.051545 -1.781945 0.714103
C -2.117548 -1.717848 0.616794
C -2.433260 -1.730211 0.717964
C -2.465897 -1.911554 0.622796
C -2.432499 -2.148117 0.531630
C -2.272578 -2.047021 0.247340
C -2.284977 -1.718935 -0.039601
C -2.404273 -1.355916 -0.254541
C -2.509703 -0.990767 -0.489082
C -2.375903 -0.683551 -0.878753
C -2.422289 -0.398928 -1.012037
C -2.425179 -0.259839 -1.092111
C -2.412898 -0.455219 -1.090543
C -2.336980 -0.892888 -1.003049
C -2.211429 -1.438706 -0.828005
C -2.051569 -2.049131 -0.663834
C -1.989068 -2.346069 -0.611512
C -2.064525 -2.392063 -0.598700
C -2.115473 -2.303177 -0.651190
C -2.207775 -2.151972 -0.767615
C -2.357513 -1.857497 -0.897123
C -2.592780 -1.379869 -1.119836
C -2.729651 -0.950154 -1.315413
C -2.767040 -0.688310 -1.525300
C -2.866478 -0.496360 -1.701866
C -2.916555 -0.456791 -1.923951
C -3.019342 -0.320153 -2.056112
C -3.058211 -0.166958 -2.244978
C -3.080211 -0.065120 -2.347106
C -3.179993 0.112100 -2.478633
C -3.200591 0.157216 -2.465214
C -3.041397 -0.031440 -2.496611
C -2.966030 -0.210005 -2.403951
C -2.869270 -0.464861 -2.327619
C -2.896830 -0.646820 -2.208865
C -2.783452 -0.975320 -2.107444
C -2.632966 -1.402480 -1.938917
C -2.734681 -1.640255 -1.686105
C -2.798943 -1.749715 -1.575193
C -2.887866 -1.685076 -1.498566
C -3.035366 -1.496858 -1.398957
