363
chr5 3D structure from Hi-C (resolution 500000bp)
C -0.642549 2.334090 -4.837160
C -0.355099 2.632216 -4.538202
C -0.160949 2.926959 -4.231881
C 0.003248 3.143533 -4.009011
C 0.180177 3.568419 -3.683190
C 0.372213 3.934379 -3.247331
C 0.770874 4.030905 -2.897735
C 0.983452 4.127287 -2.778131
C 0.979895 3.979230 -2.817369
C 0.939608 3.732881 -2.935347
C 0.874713 3.448746 -3.058736
C 0.898952 3.342659 -3.176529
C 0.898156 3.147882 -3.255134
C 0.803201 3.134832 -3.191230
C 0.707910 3.209677 -3.106656
C 0.673301 3.273230 -2.980678
C 0.743895 3.309409 -2.932548
C 0.767314 3.259082 -2.912813
C 0.696668 2.999443 -2.983711
C 0.714699 3.029227 -2.917399
C 0.862410 3.058839 -2.827749
C 1.020583 3.131275 -2.671983
C 1.191926 3.336646 -2.457018
C 1.267487 3.492299 -2.202923
C 1.347653 3.699887 -1.996750
C 1.387333 3.647571 -1.982226
C 1.407395 3.476948 -2.041225
C 1.386382 3.398112 -2.102108
C 1.397478 3.310037 -2.148523
C 1.383618 3.099862 -2.288261
C 1.421764 2.903653 -2.474961
C 1.460599 2.740498 -2.589725
C 1.547025 3.144727 -2.298447
C 1.746453 3.350724 -2.212597
C 1.883884 3.255190 -2.133396
C 1.920769 3.331605 -1.968995
C 1.977789 3.431280 -1.748811
C 2.010859 3.641614 -1.425227
C 2.072391 3.923703 -1.052690
C 2.165348 3.891158 -0.958209
C 2.142610 3.897184 -0.761325
C 2.093902 4.000717 -0.532519
C 2.215486 3.862382 -0.433798
C 2.286026 3.735691 -0.433613
C 2.346431 3.633048 -0.398879
C 2.465308 3.517998 -0.406415
C 2.583267 3.399231 -0.365151
C 2.693176 3.392573 -0.253512
C 2.797236 3.344321 -0.280982
C 2.842176 3.382187 -0.316503
C 2.931661 3.419964 -0.323762
C 3.048193 3.351327 -0.377586
C 3.168124 3.277503 -0.384713
C 3.255415 3.197699 -0.394891
C 3.333874 3.090685 -0.516958
C 3.364663 3.242844 -0.428720
C 3.415021 3.144440 -0.525664
C 3.423827 3.083154 -0.591822
C 3.450355 3.077096 -0.745373
C 3.310367 2.943040 -0.974536
C 3.036911 2.730668 -1.281130
C 2.698039 2.424097 -1.658387
C 2.517976 2.063228 -2.088942
C 2.358724 1.942451 -2.331824
C 2.232657 1.707457 -2.743938
C 2.087203 1.460657 -3.135432
C 1.999782 1.327487 -3.318967
C 2.016860 1.265538 -3.421628
C 2.165083 1.332862 -3.356004
C 2.161670 1.214579 -3.425782
C 2.045265 1.028946 -3.528090
C 1.872677 0.891714 -3.454948
C 1.827205 0.858562 -3.241667
C 1.866266 0.882852 -3.131169
C 2.023100 0.931909 -3.012135
C 2.100818 0.953307 -2.858251
C 2.308869 1.034379 -2.744419
C 2.530850 1.117303 -2.571507
C 2.752673 1.187597 -2.467555
C 2.953769 1.243371 -2.292590
C 3.043285 1.175452 -2.250828
C 3.189536 1.204394 -2.069959
C 3.258497 1.163346 -2.029512
C 2.990341 0.978104 -2.111570
C 2.856210 1.017833 -2.024796
C 2.965211 1.162741 -1.702109
C 2.910610 1.190970 -1.637413
C 3.040628 1.403648 -1.353518
C 3.051110 1.512630 -1.400452
C 3.081926 1.952473 -0.933167
C 3.108463 2.621649 0.229732
C 2.927622 3.176582 1.199483
C 2.432971 3.725386 1.991939
C 1.873514 4.352957 2.814839
C 1.118172 4.898363 3.386065
C 0.306815 5.495138 4.066249
C -0.380719 5.851736 4.227664
C -0.012627 5.323292 3.548090
C 0.172314 4.627461 2.718856
C 0.656303 3.975007 2.127859
C 1.243733 3.260402 1.640734
C 1.903250 2.530219 1.246920
C 2.570751 1.632435 0.814550
C 3.137739 0.730808 0.439641
C 2.926956 0.534378 0.292167
C 2.955764 0.343954 0.162570
C 2.767225 0.117770 -0.151712
C 2.478573 -0.158518 -0.641647
C 2.232059 -0.550241 -1.164440
C 2.065659 -0.834145 -1.584215
C 1.973117 -1.144515 -1.969489
C 1.787818 -1.268493 -2.183656
C 1.882234 -1.218388 -2.036379
C 2.083713 -1.197239 -1.904716
C 2.258945 -1.106433 -1.649176
C 2.453426 -0.972990 -1.370562
C 2.643574 -0.892878 -1.108534
C 2.700446 -0.785892 -0.824760
C 2.858918 -0.843380 -0.728788
C 2.719825 -0.938512 -0.867297
C 2.568582 -0.968699 -0.919406
C 2.509628 -1.050935 -0.972340
C 2.556423 -1.055183 -0.880752
C 2.604871 -0.878923 -0.641485
C 2.721177 -0.707059 -0.417725
C 2.767920 -0.536160 -0.133397
C 2.835760 -0.554094 0.028827
C 2.835268 -0.749987 0.009064
C 2.754946 -0.900289 -0.091304
C 2.529333 -0.998463 -0.333692
C 2.305534 -1.201571 -0.636706
C 2.148015 -1.487909 -0.960293
C 2.082983 -1.790755 -1.280079
C 1.949610 -1.918469 -1.496946
C 1.861182 -1.930995 -1.637317
C 1.838555 -2.183335 -1.939074
C 1.009181 -1.128336 -1.886313
C 0.187762 -0.023756 -1.726194
C -0.609230 1.185520 -1.389518
C -1.420470 2.455100 -0.976711
C -1.518444 2.417733 -1.071872
C -1.695255 2.376755 -1.112577
C -1.786587 2.621444 -0.948516
C -1.107503 1.507232 -1.123395
C -0.497963 0.285432 -1.505545
C 0.035154 -0.950307 -2.008814
C 0.554806 -2.230598 -2.547319
C 0.471219 -2.201219 -2.550978
C 0.483473 -2.235005 -2.616667
C 0.393094 -2.297924 -2.607317
C 0.382376 -2.472887 -2.585534
C 0.438165 -2.596981 -2.478886
C 0.443526 -2.765690 -2.462881
C 0.455706 -2.950103 -2.456307
C 0.456355 -3.132069 -2.379876
C 0.487270 -3.219197 -2.238276
C 0.558243 -3.290164 -2.150325
C 0.557027 -3.271284 -2.064537
C 0.580256 -3.231423 -1.928803
C 0.683139 -3.156928 -1.688988
C 0.794699 -3.078028 -1.459201
C 1.014831 -2.942084 -1.160735
C 1.263472 -2.763676 -0.847545
C 1.474068 -2.675973 -0.532807
C 1.791254 -2.517621 -0.106865
C 2.056025 -2.394673 0.266182
C 2.371630 -2.213673 0.655567
C 2.619089 -1.963764 1.082432
C 2.748699 -1.670195 1.415202
C 2.837821 -1.552205 1.691119
C 2.933325 -1.410294 1.895631
C 2.823165 -1.516433 1.806609
C 2.805004 -1.418813 1.895040
C 2.636043 -1.386571 1.847591
C 2.442680 -1.578996 1.645584
C 2.203847 -1.953407 1.301860
C 1.996170 -2.213636 0.996284
C 1.852802 -2.452572 0.886571
C 1.885570 -2.403435 1.018950
C 1.722038 -2.437290 0.900787
C 1.727924 -2.301949 1.057006
C 1.836297 -1.995365 1.381347
C 1.954649 -1.587571 1.805666
C 1.975011 -1.251019 2.091489
C 1.945759 -1.068918 2.162728
C 1.906964 -1.024285 2.181813
C 1.866244 -1.193503 2.130126
C 1.735702 -1.595963 1.862544
C 1.452212 -2.013759 1.434463
C 1.245340 -2.378100 1.069296
C 1.046265 -2.778142 0.773443
C 0.986197 -2.894185 0.748765
C 0.994853 -2.767297 0.874775
C 1.133961 -2.562299 1.156228
C 1.162524 -2.396874 1.342192
C 1.353666 -2.141327 1.749034
C 1.572582 -1.880594 2.212462
C 1.761944 -1.639337 2.670718
C 1.737575 -1.716766 2.725807
C 1.716157 -1.708583 2.859952
C 1.622508 -1.674622 2.969667
C 1.619380 -1.500472 3.173104
C 1.499761 -1.582775 3.122597
C 1.245239 -1.780215 2.907971
C 1.117696 -1.735251 2.896735
C 1.150490 -1.386640 3.199496
C 1.058194 -1.316750 3.279484
C 0.973806 -1.236652 3.330634
C 0.921368 -1.151767 3.411169
C 0.938758 -1.020529 3.589097
C 1.026222 -0.908925 3.793724
C 0.962454 -1.088429 3.611657
C 0.821799 -1.287711 3.321801
C 0.700371 -1.541302 2.980050
C 0.566414 -1.946983 2.582155
C 0.428823 -2.381647 2.203340
C 0.328472 -2.462118 2.025336
C 0.287716 -2.234629 2.011045
C 0.293942 -2.106566 2.128960
C 0.207271 -2.284236 2.050285
C 0.104002 -2.463051 1.967500
C 0.024677 -2.422713 1.950431
C -0.075113 -2.389689 1.851397
C -0.187189 -2.321300 1.714926
C -0.302564 -2.377158 1.595277
C -0.404817 -2.296796 1.619884
C -0.360061 -1.834916 1.903324
C -0.347109 -1.683230 2.080898
C -0.337642 -1.600314 2.190424
C -0.333350 -1.537733 2.336651
C -0.351610 -1.726214 2.377293
C -0.378625 -1.848911 2.516632
C -0.387831 -1.693504 2.617186
C -0.430586 -1.662648 2.696346
C -0.454660 -1.581858 2.772279
C -0.535868 -1.632884 2.730565
C -0.555219 -1.398403 2.998420
C -0.590940 -1.071518 3.265109
C -0.659348 -0.959953 3.320854
C -0.741749 -1.065703 3.334932
C -0.848842 -1.203261 3.329396
C -0.914907 -1.128317 3.313942
C -0.952041 -0.972892 3.474558
C -1.021940 -1.110918 3.333979
C -1.123637 -1.317743 3.236164
C -1.243070 -1.530428 3.088705
C -1.388475 -1.789056 2.839405
C -1.492246 -2.060086 2.763053
C -1.503421 -1.851937 2.923800
C -1.516949 -1.818032 2.981180
C -1.599751 -1.942030 2.832335
C -1.632124 -1.935156 2.723396
C -1.619795 -1.943145 2.591780
C -1.582582 -1.802698 2.623765
C -1.493831 -1.409728 2.633390
C -1.542192 -1.498041 2.550354
C -1.495260 -1.270780 2.570508
C -1.399114 -0.870454 2.748417
C -1.333558 -0.577784 2.833728
C -1.353211 -0.611026 2.685487
C -1.388026 -0.765324 2.380894
C -1.512250 -1.226170 1.905581
C -1.656099 -1.651861 1.324137
C -1.876089 -2.127553 0.749637
C -2.067385 -2.568016 0.205486
C -2.232190 -3.018515 -0.392822
C -2.346906 -3.032493 -0.772341
C -2.416273 -2.879326 -0.953159
C -2.445527 -2.625699 -1.018512
C -2.425544 -2.299067 -0.973835
C -2.351223 -1.821704 -0.768932
C -2.320693 -1.481437 -0.651787
C -2.293467 -1.397248 -0.574799
C -2.311513 -1.402890 -0.587727
C -2.353669 -1.544136 -0.696097
C -2.366980 -1.743675 -0.888140
C -2.403241 -1.931836 -1.036759
C -2.452384 -2.267712 -1.229120
C -2.423255 -2.235170 -1.216659
C -2.426373 -1.793798 -0.998745
C -2.440587 -1.646080 -0.776401
C -2.501393 -1.502697 -0.536628
C -2.551993 -1.380663 -0.225139
C -2.582551 -1.410427 -0.003039
C -2.624414 -1.421972 0.217477
C -2.693385 -1.437710 0.506953
C -2.679795 -1.403271 0.802939
C -2.632618 -1.055601 1.195286
C -2.535829 -0.729644 1.495229
C -2.517866 -0.543376 1.582364
C -2.491223 -0.118076 1.845394
C -2.461745 0.228793 2.040496
C -2.451072 0.335520 2.100058
C -2.477343 0.280362 1.936974
C -2.546992 0.067527 1.801224
C -2.633332 -0.141088 1.588765
C -2.685704 -0.293282 1.392202
C -2.808664 -0.619000 1.011231
C -2.930918 -0.888737 0.614549
C -3.047446 -1.116083 0.219631
C -3.178735 -1.332121 0.061283
C -3.262574 -1.255704 0.018023
C -3.213663 -0.977423 0.266265
C -3.258444 -0.589574 0.590511
C -3.222768 -0.237099 0.906267
C -3.223839 -0.157140 1.116448
C -3.236633 -0.149706 1.296354
C -3.247338 0.029779 1.436255
C -3.266315 0.087763 1.493367
C -3.370206 0.025404 1.348085
C -3.448051 -0.194045 1.287004
C -3.509486 -0.505173 1.143977
C -3.565942 -0.599585 1.039777
C -3.624688 -0.528290 0.957157
C -3.666281 -0.780722 0.732676
C -3.689814 -1.067627 0.448513
C -3.744817 -1.262332 0.379313
C -3.760603 -1.380320 0.218582
C -3.754581 -1.228314 0.390225
C -3.687134 -1.068277 0.617972
C -3.655722 -0.899203 0.923922
C -3.691194 -0.480608 1.322697
C -3.722756 -0.067605 1.690466
C -3.693750 -0.029363 1.908901
C -3.578447 0.261040 2.226512
C -3.551196 0.461135 2.365693
C -3.563459 0.671080 2.542027
C -3.506223 0.790225 2.594384
C -3.428935 0.760250 2.618670
C -3.346096 0.758835 2.674402
C -3.321897 1.066457 2.670301
C -3.337246 1.169905 2.603889
C -3.318624 1.242879 2.418570
C -3.321391 1.140564 2.074576
C -3.416219 0.946612 1.723228
C -3.493701 0.819922 1.333976
C -3.525928 0.546685 0.905265
C -3.595534 0.246325 0.535081
C -3.684194 0.117235 0.217539
C -3.742288 -0.017302 -0.048193
C -3.829708 -0.080849 -0.282742
C -3.851189 -0.199918 -0.590524
C -3.853534 -0.405584 -0.906222
C -3.928395 -0.422164 -1.098730
C -3.953102 -0.520449 -1.319268
C -3.989985 -0.593326 -1.478984
C -4.050973 -0.524362 -1.524388
C -4.027716 -0.349377 -1.517098
C -4.063726 -0.192912 -1.490438
C -4.146768 -0.112123 -1.558580
C -4.139203 -0.157944 -1.687856
C -4.125564 -0.189252 -1.834620
C -4.221275 -0.131697 -2.142700
C -4.238776 -0.129939 -2.323290
C -4.272629 -0.025440 -2.395028
C -4.284397 0.231064 -2.348756
C -4.212837 0.339383 -2.339653
C -4.195764 0.618347 -2.246345
C -4.197058 0.864609 -2.142014
C -4.117220 0.850669 -2.083097
C -4.101588 0.864177 -2.080656
C -4.088598 0.735804 -2.181155
C -4.021375 0.444837 -2.399646
