363
chr5 3D structure from Hi-C (resolution 500000bp)
C -5.179713 0.224743 0.459042
C -5.000344 -0.179315 0.605512
C -4.855720 -0.581668 0.721698
C -4.721976 -0.893055 0.858586
C -4.710692 -1.276162 1.063448
C -4.430419 -1.686168 1.309811
C -4.102066 -2.108018 1.523154
C -3.983542 -2.283698 1.584433
C -3.940385 -2.164813 1.604567
C -3.899167 -1.884554 1.561527
C -3.920306 -1.559595 1.549230
C -3.908261 -1.509238 1.534569
C -3.936314 -1.299170 1.519303
C -3.939081 -1.226091 1.511963
C -3.907438 -1.305288 1.528087
C -3.844913 -1.294986 1.508248
C -3.809500 -1.396836 1.659357
C -3.771202 -1.367861 1.618580
C -3.697291 -1.127767 1.569223
C -3.683809 -1.087153 1.632290
C -3.645660 -1.073477 1.738671
C -3.520528 -1.269408 1.727016
C -3.424067 -1.621555 1.856066
C -3.376088 -1.802974 1.871413
C -3.294605 -2.019994 2.040303
C -3.240544 -1.980451 2.038922
C -3.190490 -1.858547 1.963219
C -3.118117 -1.836906 1.943310
C -3.131111 -1.736220 1.988981
C -3.110509 -1.549258 1.988105
C -3.078856 -1.351112 2.003360
C -3.061874 -1.223184 1.970794
C -3.025029 -1.683732 2.130514
C -2.911752 -2.090877 2.263329
C -2.805704 -2.169055 2.268954
C -2.673829 -2.249272 2.282357
C -2.554824 -2.426204 2.294174
C -2.357916 -2.709662 2.243220
C -2.156337 -3.076640 2.294154
C -1.978939 -3.127290 2.223818
C -1.829565 -3.130291 2.248805
C -1.715857 -3.226397 2.300274
C -1.595326 -3.134362 2.341358
C -1.472076 -3.008891 2.466693
C -1.416753 -2.878789 2.633968
C -1.397305 -2.795936 2.675303
C -1.387356 -2.681702 2.840636
C -1.350272 -2.659388 2.922135
C -1.283298 -2.634537 2.978395
C -1.359122 -2.614393 3.142194
C -1.404510 -2.630084 3.193381
C -1.372289 -2.623244 3.260823
C -1.360845 -2.507358 3.392809
C -1.320319 -2.418707 3.483340
C -1.400672 -2.320336 3.529723
C -1.392224 -2.356114 3.685507
C -1.305440 -2.405684 3.657984
C -1.375386 -2.286830 3.681422
C -1.491536 -2.209330 3.646278
C -1.549613 -2.053687 3.524336
C -1.731442 -1.744709 3.243704
C -1.920830 -1.268977 2.992115
C -2.195324 -0.816180 2.837966
C -2.444222 -0.486958 2.767724
C -2.649733 -0.036871 2.671408
C -2.879289 0.360965 2.624085
C -3.011264 0.577023 2.522754
C -3.009729 0.635206 2.673936
C -2.933005 0.528031 2.830664
C -2.886244 0.664344 2.801724
C -2.864597 0.860254 2.732898
C -2.811063 0.846641 2.554676
C -2.692236 0.787885 2.465132
C -2.665001 0.677653 2.476076
C -2.599861 0.595406 2.480884
C -2.536166 0.562115 2.496247
C -2.432744 0.395565 2.654981
C -2.304529 0.220455 2.794235
C -2.126456 0.079817 3.002154
C -1.965946 -0.081925 3.189551
C -1.847883 -0.012666 3.301870
C -1.699141 -0.095404 3.423118
C -1.619662 -0.168154 3.446644
C -1.667397 0.038687 3.215083
C -1.594274 0.029045 3.129916
C -1.466788 -0.227887 3.214471
C -1.389691 -0.278788 3.181575
C -1.186108 -0.603235 3.251169
C -1.123793 -0.737270 3.307146
C -0.913712 -1.230281 3.454647
C -0.236227 -2.332100 3.335637
C 0.268301 -3.275941 3.039667
C 0.653799 -4.067204 2.499984
C 0.983080 -4.956065 1.919740
C 0.670020 -5.538875 1.005662
C 0.296790 -6.122264 -0.020451
C -0.222751 -6.325569 -0.967135
C -0.540147 -5.460810 -0.524994
C -0.899274 -4.516443 -0.334091
C -1.072061 -3.679364 0.105583
C -1.127435 -2.903932 0.615542
C -0.611006 -2.208891 1.460270
C -0.055818 -1.419888 2.290929
C 0.522690 -0.673410 3.009548
C 0.452432 -0.474476 2.745223
C 0.452325 -0.304006 2.810370
C 0.266543 0.016085 2.719617
C -0.022121 0.525483 2.552874
C -0.330662 1.047956 2.376733
C -0.486495 1.466201 2.261900
C -0.673960 1.897939 2.208983
C -0.732487 2.035126 2.174074
C -0.627309 1.976121 2.241340
C -0.475188 1.896381 2.356587
C -0.238768 1.692435 2.509963
C -0.006496 1.532234 2.655094
C 0.186798 1.291503 2.820082
C 0.343996 1.071582 2.831224
C 0.452581 1.106656 2.854842
C 0.425887 1.274832 2.780542
C 0.426090 1.271474 2.700834
C 0.366952 1.338047 2.570578
C 0.422908 1.150668 2.515824
C 0.491887 0.882371 2.475786
C 0.643455 0.565186 2.533441
C 0.795117 0.218598 2.565533
C 0.835551 0.084069 2.486594
C 0.847304 0.282263 2.406566
C 0.823882 0.487332 2.324443
C 0.642156 0.790492 2.171773
C 0.445403 1.154501 2.027464
C 0.286051 1.589982 1.946565
C 0.163545 2.017227 1.926090
C 0.058767 2.302439 1.895816
C -0.111106 2.396182 1.806946
C -0.219524 2.682199 1.919891
C -0.139504 1.377167 1.543813
C -0.137464 0.114669 1.067320
C -0.276151 -1.183056 0.494238
C -0.540204 -2.514337 -0.177008
C -0.702630 -2.464557 -0.228925
C -0.749165 -2.447704 -0.307426
C -0.807647 -2.671883 -0.486319
C -1.008601 -1.314524 -0.219587
C -1.164253 0.141839 0.074313
C -1.222496 1.564295 0.430888
C -1.175156 2.986892 0.825901
C -1.144965 2.963388 0.699012
C -1.150836 3.058157 0.619100
C -1.096419 3.130061 0.555161
C -1.044565 3.292080 0.514435
C -0.964758 3.336878 0.514059
C -0.839984 3.464869 0.540158
C -0.740734 3.583509 0.544253
C -0.625892 3.685838 0.561308
C -0.475563 3.738465 0.618353
C -0.396058 3.775090 0.629251
C -0.221720 3.715921 0.671155
C -0.085709 3.656205 0.666907
C 0.069028 3.497742 0.696108
C 0.265374 3.331827 0.770701
C 0.496263 3.109538 0.894991
C 0.756016 2.805257 1.088839
C 1.045930 2.527217 1.263030
C 1.312337 2.179055 1.494471
C 1.677752 1.808612 1.777153
C 1.964035 1.432582 1.982266
C 2.245284 0.956429 2.155040
C 2.480194 0.675669 2.265370
C 2.662107 0.456799 2.304135
C 2.767337 0.322689 2.356236
C 2.759943 0.476197 2.218255
C 2.725063 0.367541 2.122031
C 2.665630 0.401117 2.023938
C 2.532605 0.748971 1.848001
C 2.353946 1.141809 1.639734
C 2.180575 1.522197 1.460359
C 2.121898 1.758876 1.365181
C 2.121768 1.636968 1.359962
C 2.037372 1.777076 1.235515
C 2.143332 1.630679 1.250855
C 2.273335 1.188042 1.311913
C 2.489106 0.689744 1.435000
C 2.572738 0.210016 1.467626
C 2.635556 0.044540 1.426632
C 2.693565 0.021399 1.382153
C 2.728122 0.244228 1.328055
C 2.653096 0.618330 1.180019
C 2.445219 1.167125 0.968014
C 2.230386 1.571232 0.778632
C 2.108812 2.067393 0.586522
C 2.121778 2.143278 0.516725
C 2.232864 2.160266 0.543021
C 2.369072 1.704887 0.619439
C 2.451068 1.536907 0.593174
C 2.763714 1.187815 0.687618
C 3.056534 0.737736 0.795756
C 3.386945 0.212916 0.938890
C 3.458733 0.227067 0.891079
C 3.525877 0.069773 0.877123
C 3.605408 0.117919 0.809170
C 3.689309 -0.051795 0.784586
C 3.614598 0.094757 0.665496
C 3.490017 0.419630 0.494693
C 3.412961 0.529304 0.400171
C 3.460344 0.078772 0.406783
C 3.437731 -0.079262 0.297527
C 3.427852 -0.208719 0.228224
C 3.473299 -0.297552 0.177305
C 3.512349 -0.596691 0.198285
C 3.660631 -0.816161 0.197779
C 3.628422 -0.636735 0.096752
C 3.488010 -0.258195 -0.017098
C 3.300255 0.091877 -0.103019
C 3.077335 0.570459 -0.213643
C 2.900696 1.028000 -0.318443
C 2.856185 1.227665 -0.410048
C 2.689519 1.018213 -0.390992
C 2.689693 0.852241 -0.370895
C 2.683092 1.012379 -0.427609
C 2.690698 1.208670 -0.528531
C 2.733645 1.250517 -0.601092
C 2.619115 1.242886 -0.677031
C 2.496733 1.216975 -0.725452
C 2.501364 1.364957 -0.827094
C 2.427315 1.233320 -0.875909
C 2.477350 0.624957 -0.838751
C 2.515185 0.377576 -0.845588
C 2.515261 0.255712 -0.864942
C 2.643917 0.135765 -0.872165
C 2.712550 0.285314 -0.923597
C 2.792882 0.170237 -0.945003
C 2.884157 0.064887 -0.976925
C 2.897420 0.054114 -1.014190
C 2.949505 -0.036449 -1.034478
C 2.909311 0.033285 -1.122467
C 2.969317 -0.279058 -1.118974
C 3.006895 -0.703533 -1.114619
C 3.007002 -0.719882 -1.204048
C 3.027133 -0.697455 -1.309309
C 3.083917 -0.553138 -1.425948
C 3.046105 -0.602954 -1.490213
C 3.126510 -0.795642 -1.501808
C 3.076895 -0.646013 -1.597376
C 3.096943 -0.327733 -1.713402
C 3.025617 -0.114100 -1.788866
C 2.833623 0.302669 -1.847951
C 2.883053 0.486849 -1.969954
C 2.953975 0.422390 -2.045625
C 2.980987 0.318602 -2.050921
C 2.890697 0.510527 -2.097320
C 2.792741 0.508640 -2.157039
C 2.698418 0.605093 -2.162720
C 2.759792 0.495304 -2.197061
C 2.566524 0.255164 -2.044522
C 2.490206 0.215052 -2.030745
C 2.450545 0.076346 -2.027600
C 2.458812 -0.352758 -1.970705
C 2.431655 -0.681896 -1.869067
C 2.327679 -0.547494 -1.886150
C 2.096963 -0.309312 -1.867809
C 1.878475 0.269623 -1.989115
C 1.506363 0.906493 -2.021824
C 1.112857 1.495853 -2.114682
C 0.766886 2.110308 -2.226638
C 0.414741 2.760536 -2.313103
C 0.132596 2.929845 -2.336218
C -0.061873 2.887977 -2.382361
C -0.244019 2.669040 -2.374993
C -0.255785 2.288801 -2.357900
C -0.258145 1.813894 -2.324384
C -0.245248 1.500137 -2.285079
C -0.282791 1.367210 -2.282910
C -0.357193 1.346280 -2.331199
C -0.451585 1.495622 -2.318830
C -0.545791 1.748568 -2.341945
C -0.635482 2.031241 -2.367599
C -0.610906 2.460454 -2.387581
C -0.667559 2.375192 -2.367837
C -0.646361 1.931619 -2.341244
C -0.582752 1.694467 -2.314029
C -0.395120 1.468643 -2.386687
C -0.111498 1.243166 -2.482270
C 0.055736 1.171207 -2.544028
C 0.258721 1.019797 -2.652481
C 0.518914 0.795626 -2.687767
C 0.832518 0.672172 -2.768868
C 1.125382 0.310948 -2.796780
C 1.291797 -0.042465 -2.763141
C 1.298472 -0.176660 -2.722661
C 1.307685 -0.686538 -2.716149
C 1.266592 -1.028235 -2.652471
C 1.219025 -1.022922 -2.689420
C 1.112391 -0.867100 -2.722801
C 1.022593 -0.728258 -2.747743
C 0.846115 -0.516427 -2.797373
C 0.704579 -0.323972 -2.832616
C 0.564303 0.128870 -2.916930
C 0.350205 0.431882 -3.037839
C 0.221636 0.843080 -3.149673
C 0.048188 0.975832 -3.141732
C 0.000256 0.940709 -3.216847
C 0.100029 0.563981 -3.201361
C 0.216055 -0.018068 -3.211091
C 0.357968 -0.451708 -3.243493
C 0.479912 -0.564198 -3.259661
C 0.545853 -0.695874 -3.269932
C 0.592628 -0.842637 -3.346231
C 0.562285 -0.929647 -3.356705
C 0.501840 -0.755294 -3.467782
C 0.507185 -0.441579 -3.576480
C 0.488281 -0.112318 -3.619501
C 0.445817 0.077823 -3.620533
C 0.334775 0.087796 -3.611256
C 0.278220 0.384212 -3.578802
C 0.210475 0.771644 -3.617066
C 0.141132 0.946318 -3.636288
C 0.088325 1.081102 -3.604388
C 0.139031 0.863801 -3.620151
C 0.284600 0.616233 -3.568017
C 0.474887 0.259935 -3.576607
C 0.686655 -0.220732 -3.693790
C 0.900310 -0.746121 -3.689907
C 1.087244 -0.918894 -3.712666
C 1.219826 -1.239680 -3.739549
C 1.231151 -1.518007 -3.643164
C 1.255436 -1.794299 -3.670663
C 1.213318 -1.814237 -3.707813
C 1.133969 -1.855557 -3.631793
C 1.016185 -1.863592 -3.615438
C 0.875713 -2.078148 -3.565014
C 0.740829 -2.175482 -3.520740
C 0.632180 -2.050819 -3.563372
C 0.417479 -1.779481 -3.558011
C 0.196525 -1.462523 -3.528795
C -0.047469 -1.205395 -3.520437
C -0.253045 -0.745106 -3.436351
C -0.442306 -0.374195 -3.417783
C -0.649564 -0.124169 -3.429673
C -0.846610 0.066273 -3.442787
C -1.029211 0.213212 -3.445448
C -1.165671 0.459246 -3.397256
C -1.309242 0.779648 -3.415814
C -1.454663 0.830294 -3.522268
C -1.586843 1.045888 -3.512445
C -1.682341 1.119806 -3.549420
C -1.785848 1.093409 -3.542142
C -1.870266 0.895410 -3.522901
C -1.939982 0.711012 -3.615604
C -2.030114 0.683050 -3.702626
C -2.120111 0.740757 -3.678590
C -2.237747 0.824159 -3.702447
C -2.524960 0.966553 -3.751243
C -2.667985 1.015374 -3.744321
C -2.767707 0.958996 -3.746707
C -2.870384 0.678567 -3.711316
C -2.948755 0.648824 -3.608273
C -3.006202 0.459991 -3.560276
C -2.997492 0.220735 -3.506316
C -2.961146 0.145353 -3.431425
C -2.974084 0.148945 -3.409099
C -3.032252 0.326923 -3.399415
C -3.073764 0.739223 -3.336900
