214
chr14 3D structure from Hi-C (resolution 500000bp)
C -3.435924 -2.503262 -1.322013
C -3.527111 -2.464165 -1.164460
C -3.604058 -2.125297 -1.299761
C -3.627229 -1.795051 -1.465560
C -3.633675 -1.490715 -1.571954
C -3.601967 -1.228977 -1.763653
C -3.532879 -0.984805 -2.097412
C -3.391599 -0.849825 -2.481728
C -3.068517 -0.966220 -2.813121
C -2.604386 -1.411401 -2.940731
C -2.110607 -1.925438 -3.043425
C -1.660623 -2.353733 -3.166334
C -1.314517 -2.599070 -3.296614
C -1.087965 -2.716631 -3.396022
C -0.980982 -2.791852 -3.422467
C -1.058857 -2.911113 -3.127464
C -1.211102 -3.009970 -2.796473
C -1.313104 -3.163486 -2.458751
C -1.366053 -3.395001 -2.112574
C -1.402918 -3.681400 -1.776731
C -1.506561 -3.911388 -1.473206
C -1.633809 -4.008864 -1.246963
C -1.907716 -3.645602 -1.306001
C -2.277633 -3.137752 -1.350968
C -2.788211 -2.435490 -1.239719
C -3.336690 -1.646849 -0.998621
C -3.811361 -0.798892 -0.690626
C -4.102322 0.066828 -0.402851
C -4.258439 0.919490 -0.193802
C -4.190311 1.526699 -0.161774
C -4.078952 1.978982 -0.259886
C -3.967369 2.187121 -0.502627
C -3.906671 2.212965 -0.771653
C -3.910249 2.051170 -0.984732
C -3.974090 1.619074 -0.979739
C -4.072879 1.067645 -0.870203
C -4.043649 0.473290 -0.581483
C -3.872794 0.112549 -0.133648
C -3.615433 -0.021712 0.336414
C -3.258953 0.045480 0.758353
C -2.779223 0.057001 1.149640
C -2.382069 0.306622 1.320927
C -1.982567 0.792653 1.462703
C -1.784241 1.324267 1.481342
C -1.733344 1.698269 1.506796
C -1.791353 1.888011 1.552978
C -1.914574 1.774719 1.659925
C -2.053490 1.560066 1.742106
C -2.211598 1.156399 1.850683
C -2.278614 0.541005 1.887210
C -2.365301 -0.177509 1.941771
C -2.457398 -0.864877 1.956728
C -2.500722 -1.509215 2.004810
C -2.443961 -1.921678 2.040995
C -2.523163 -1.983834 2.081890
C -2.543914 -1.823178 2.170798
C -2.630899 -1.618974 2.319950
C -2.609688 -1.223504 2.513668
C -2.435693 -0.782590 2.636434
C -2.284961 -0.166791 2.732372
C -2.079125 0.148501 2.740698
C -1.966049 0.472720 2.847974
C -1.658890 0.598395 2.913145
C -1.439666 0.699181 3.058566
C -1.268547 0.763819 3.149614
C -1.251744 0.817195 3.217450
C -1.094403 0.798758 3.149712
C -1.095506 0.997333 3.195305
C -0.944632 1.018996 3.260938
C -0.957932 0.871115 3.318615
C -0.863763 0.741190 3.236004
C -0.812064 0.429252 3.196903
C -0.734650 -0.020304 3.214333
C -0.780544 -0.554611 3.298165
C -0.683456 -0.987041 3.295212
C -0.547107 -1.325726 3.176034
C -0.369110 -1.443440 3.077009
C -0.238570 -1.669357 3.062049
C -0.073349 -1.802926 2.996694
C -0.074771 -2.020248 2.840402
C 0.005082 -2.186571 2.715437
C -0.001451 -2.341650 2.587025
C -0.094290 -2.671521 2.347080
C -0.210173 -3.022918 2.093951
C -0.230978 -3.181222 1.903651
C -0.283678 -3.315411 1.751609
C -0.123910 -3.226945 1.715421
C 0.006345 -3.165992 1.688646
C 0.198474 -3.204493 1.731498
C 0.449106 -3.186418 1.784570
C 0.775907 -3.106707 1.818765
C 0.971945 -2.911730 1.882273
C 1.239341 -2.619312 1.994934
C 1.475683 -2.530343 2.116867
C 1.619418 -2.457464 2.241643
C 1.705663 -2.246412 2.344639
C 1.669685 -1.488104 2.536860
C 1.482108 -0.648047 2.660616
C 1.408532 -0.018183 2.711815
C 1.363013 0.270288 2.749835
C 1.271873 0.810348 2.689731
C 1.246738 1.317536 2.721594
C 1.010691 1.886243 2.724228
C 1.052476 1.761340 2.607975
C 1.212728 1.546545 2.724561
C 1.342030 1.298554 2.745379
C 1.416176 1.536236 2.643567
C 1.461466 1.619708 2.582568
C 1.622980 1.463496 2.582832
C 1.912531 1.064782 2.483663
C 2.033163 0.957102 2.422382
C 2.263166 0.720839 2.257891
C 2.462398 0.539121 2.073658
C 2.637587 0.306673 2.047097
C 2.821747 0.141223 2.028437
C 2.770156 0.225367 1.799335
C 2.791547 0.255528 1.684110
C 2.997756 0.361924 1.625972
C 3.041020 0.683145 1.516678
C 2.968164 0.946580 1.504041
C 2.899462 1.043088 1.370287
C 2.986556 0.878980 1.275201
C 3.126104 0.494128 1.283353
C 3.244887 0.547706 1.248815
C 2.834493 0.906009 1.286651
C 2.559421 1.147195 1.290723
C 2.458154 1.358681 1.144505
C 2.453003 1.596464 1.063398
C 2.130650 2.140005 1.035931
C 2.117430 2.751517 0.845394
C 1.577857 3.248674 0.778781
C 1.412134 3.306382 0.634013
C 1.293839 3.319055 0.488497
C 1.109091 3.503470 0.211036
C 0.874946 3.566559 0.103625
C 0.816561 3.559411 -0.160798
C 0.449217 3.711272 -0.299000
C 0.691905 3.639026 -0.479513
C 0.784100 3.567989 -0.612180
C 0.708847 3.575340 -0.768121
C 0.530648 3.521323 -0.603049
C 0.424066 3.453177 -0.610561
C 0.246391 3.423846 -0.588735
C 0.003908 3.419466 -0.562208
C -0.329272 3.410283 -0.683957
C -0.369660 3.337775 -0.814106
C -0.435795 3.314064 -1.004212
C -0.453792 3.268450 -1.202619
C -0.572059 3.335744 -1.373992
C -0.310238 3.218633 -1.458495
C 0.075954 3.076065 -1.470598
C 0.463780 2.927790 -1.383345
C 0.744348 2.732406 -1.240093
C 1.180580 2.344244 -1.015527
C 1.792619 1.836599 -0.848350
C 2.399708 1.114900 -0.685245
C 2.670880 0.468454 -0.519910
C 2.948607 -0.112293 -0.404618
C 3.112229 -0.574874 -0.329471
C 3.253193 -0.931108 -0.383638
C 3.237087 -1.211346 -0.395900
C 3.074293 -1.600907 -0.321721
C 2.931794 -1.800856 -0.330668
C 2.871630 -1.888975 -0.429661
C 2.664676 -2.108892 -0.506588
C 2.540585 -2.397934 -0.597318
C 2.460079 -2.637770 -0.736985
C 2.392616 -2.810155 -0.844632
C 2.309896 -2.818318 -0.985673
C 2.123244 -2.857001 -1.054986
C 1.941909 -2.925992 -1.167015
C 1.874992 -2.918616 -1.362462
C 1.925379 -2.795431 -1.468889
C 1.997305 -2.589326 -1.522688
C 2.128403 -2.278095 -1.516576
C 2.305452 -1.733998 -1.551690
C 2.556231 -1.120067 -1.598669
C 2.728898 -0.658092 -1.679047
C 2.906233 -0.099370 -1.707046
C 2.911974 0.438478 -1.784209
C 2.815583 0.925499 -1.912986
C 2.681114 1.284522 -1.986626
C 2.411218 1.479737 -2.072612
C 1.547936 1.629959 -2.302856
C 0.726388 1.859441 -2.432695
C 0.633578 1.735328 -2.650960
C 0.635033 1.526142 -2.741988
C 0.547512 1.360552 -2.650997
C 0.446314 1.195951 -2.660267
C 0.512282 0.978759 -2.714771
C 1.168604 0.746248 -2.618150
C 1.834373 0.368821 -2.568313
C 1.711967 0.195884 -2.507791
C 1.554062 0.003052 -2.449202
C 1.492405 -0.348874 -2.541064
C 1.509513 -0.593575 -2.714514
C 1.449717 -0.583749 -2.774608
C 1.334231 -0.487194 -2.842510
C 1.260312 -0.397944 -2.894809
C 1.225176 -0.319158 -2.982873
C 1.156875 -0.049620 -3.090649
C 1.036065 0.384181 -3.174576
C 0.792702 0.822834 -3.186975
C 0.587650 0.988654 -3.271235
C 0.407227 1.091185 -3.363313
C 0.180905 1.240083 -3.484265
C -0.080936 1.514974 -3.508242
C -0.355464 1.596779 -3.597294
C -0.730487 1.426702 -3.664451
C -1.022314 1.075933 -3.779298
C -1.274148 0.736321 -3.885912
C -1.422430 0.558817 -3.968761
C -1.638578 0.505634 -3.971477
C -1.843964 0.282146 -3.990376
