214
chr14 3D structure from Hi-C (resolution 500000bp)
C -1.796912 4.302373 0.621410
C -1.766628 4.317469 0.320373
C -1.799992 4.283374 0.049242
C -1.893962 4.209342 -0.155864
C -2.038637 4.104695 -0.538134
C -2.236611 3.929361 -0.883590
C -2.493769 3.668693 -1.158841
C -2.817437 3.324536 -1.334595
C -3.173059 2.926212 -1.381876
C -3.431635 2.040482 -0.935043
C -3.611230 1.145811 -0.519349
C -3.755871 0.283253 -0.292777
C -3.848075 -0.529353 -0.170962
C -3.923727 -1.209650 -0.065299
C -3.998225 -1.685740 0.046644
C -4.050103 -1.884755 0.064691
C -4.150165 -1.476781 -0.295979
C -4.252822 -0.967869 -0.503356
C -4.323997 -0.474201 -0.433621
C -4.391378 -0.058002 -0.165439
C -4.420013 0.202434 0.170298
C -4.396738 0.239186 0.476253
C -4.350389 -0.031561 0.790506
C -4.197032 -0.614993 0.982776
C -4.042072 -1.252237 1.027289
C -3.968874 -1.050045 0.973057
C -3.855232 -0.681570 0.852469
C -3.704659 -0.178557 0.757295
C -3.537358 0.406850 0.774078
C -3.387769 1.029736 0.928405
C -3.378479 1.804246 1.189918
C -3.426872 2.517704 1.462657
C -3.442771 2.371558 1.669488
C -3.580685 1.932121 1.578462
C -3.736193 1.366220 1.242349
C -3.881906 0.734162 0.741555
C -3.869321 0.124410 0.072288
C -3.602996 -0.435940 -0.584198
C -3.198161 -0.971508 -1.203505
C -2.714442 -1.594017 -1.641413
C -2.134425 -1.811801 -1.819169
C -1.547597 -1.996710 -1.772115
C -1.050257 -2.236438 -1.605164
C -0.825425 -2.485550 -1.360475
C -0.842739 -2.673997 -1.247296
C -0.937225 -2.828106 -1.208697
C -1.044380 -2.642672 -1.269369
C -1.171051 -2.480114 -1.470542
C -1.491786 -2.201018 -1.730435
C -1.691122 -1.667050 -2.081070
C -1.869377 -1.029933 -2.391180
C -1.973770 -0.499868 -2.669724
C -2.109367 0.010309 -2.892974
C -2.151765 0.296711 -3.129825
C -2.152157 0.399259 -3.268284
C -2.074781 0.334643 -3.392527
C -2.042329 0.191027 -3.477125
C -1.872282 -0.136759 -3.536938
C -1.551181 -0.528182 -3.434124
C -1.149932 -0.987713 -3.330391
C -0.879638 -1.203239 -3.182208
C -0.633408 -1.505533 -3.067885
C -0.285669 -1.544790 -3.039502
C -0.036768 -1.680625 -3.050919
C 0.188409 -1.653490 -3.149070
C 0.171321 -1.629539 -3.219388
C 0.155420 -1.654549 -3.052857
C 0.147975 -1.846042 -2.901451
C 0.011800 -2.002694 -2.865078
C 0.046895 -2.072250 -2.838903
C 0.134026 -1.930092 -2.708943
C 0.057361 -1.676188 -2.620579
C -0.048424 -1.150078 -2.673120
C -0.084715 -0.572207 -2.970579
C -0.064858 -0.099500 -3.275454
C 0.129410 0.274152 -3.225580
C 0.099272 0.562253 -3.176994
C 0.070578 0.795757 -3.277916
C 0.200650 0.888804 -3.240303
C 0.271325 1.041768 -3.155304
C 0.250435 1.222672 -3.079406
C 0.194710 1.392096 -3.051767
C 0.078839 1.832297 -3.172520
C 0.027405 2.185538 -3.140355
C 0.068689 2.314787 -3.021699
C 0.130602 2.490796 -2.978237
C 0.321673 2.366720 -3.023648
C 0.579497 2.173798 -3.005074
C 0.911629 2.100745 -2.956708
C 1.301515 1.962998 -2.887166
C 1.641388 1.752986 -2.925161
C 1.868444 1.559247 -2.893253
C 2.049571 1.288855 -2.838374
C 2.270619 1.086013 -2.879428
C 2.381225 0.948945 -2.902613
C 2.470617 0.810455 -2.856752
C 2.315038 0.133389 -2.707285
C 2.168469 -0.530949 -2.386780
C 2.138300 -1.046596 -2.226448
C 2.151822 -1.551371 -2.051032
C 2.067398 -1.949612 -1.733434
C 2.072361 -2.221299 -1.577907
C 1.919805 -2.799273 -1.373066
C 2.004332 -2.619597 -1.260448
C 2.177655 -2.477278 -1.401981
C 2.309701 -2.354281 -1.357443
C 2.324693 -2.376240 -1.176369
C 2.389802 -2.377396 -0.995840
C 2.538467 -2.396304 -0.755462
C 2.672904 -1.999781 -0.714379
C 2.773290 -1.785313 -0.755356
C 2.917983 -1.566320 -0.633220
C 3.003513 -1.398127 -0.699133
C 3.165094 -1.214901 -0.788256
C 3.312778 -1.053161 -0.816139
C 3.159453 -0.957343 -0.763915
C 3.227914 -0.887089 -0.636268
C 3.371837 -0.958501 -0.328122
C 3.403251 -0.987424 -0.107850
C 3.360300 -1.036697 0.228373
C 3.259072 -0.940299 0.383162
C 3.307998 -0.728604 0.320111
C 3.510515 -0.359869 0.215366
C 3.500423 -0.295674 0.132870
C 3.381804 -0.513403 0.242389
C 3.200424 -0.738640 0.432238
C 3.040030 -0.936198 0.583852
C 2.952257 -1.205826 0.769721
C 2.706644 -1.711312 1.075370
C 2.512178 -2.156931 1.522330
C 2.101956 -2.748863 1.692053
C 1.711787 -3.013130 1.596671
C 1.456294 -3.152767 1.569578
C 1.029219 -3.356725 1.545755
C 0.779695 -3.401447 1.527351
C 0.414135 -3.415994 1.566083
C 0.065385 -3.568118 1.471063
C 0.054598 -3.379034 1.648778
C -0.014230 -3.158267 1.827270
C -0.072213 -3.108164 1.918633
C 0.071522 -2.969301 2.059779
C 0.024465 -2.870531 2.160689
C 0.036507 -2.756716 2.270892
C -0.149633 -2.733561 2.403141
C -0.363347 -2.711257 2.523640
C -0.310166 -2.633465 2.593694
C -0.461370 -2.521321 2.759653
C -0.500835 -2.391789 2.887437
C -0.448263 -2.341275 3.028745
C -0.242427 -2.208139 3.011591
C 0.071618 -2.032747 3.045025
C 0.450258 -1.836464 2.957680
C 0.639771 -1.644546 2.767980
C 1.113751 -1.221744 2.449419
C 1.637579 -0.753140 2.152864
C 2.037461 -0.116700 1.688522
C 2.327597 0.473394 1.259823
C 2.575362 1.044925 0.787019
C 2.754249 1.372499 0.518288
C 2.930347 1.689926 0.384303
C 2.887327 1.881750 0.274898
C 2.737891 2.183027 0.156093
C 2.615756 2.365793 0.121869
C 2.537889 2.477678 0.198621
C 2.424817 2.595196 0.222361
C 2.303072 2.927235 0.082077
C 2.122645 3.208919 -0.068730
C 1.967586 3.408536 -0.139586
C 1.826654 3.416946 -0.187555
C 1.655343 3.401082 -0.126062
C 1.456848 3.433554 -0.195398
C 1.275643 3.506691 -0.175069
C 1.277885 3.472975 0.066560
C 1.420749 3.317602 0.383731
C 1.582893 3.020130 0.688089
C 1.730600 2.655767 1.071139
C 1.879905 2.284008 1.419401
C 2.084752 1.880086 1.852528
C 2.302748 1.366708 2.274212
C 2.291650 0.918826 2.628234
C 2.157901 0.688848 2.945084
C 2.025791 0.480824 3.080853
C 1.842730 0.295621 3.135208
C 1.249024 0.629981 3.160919
C 0.648809 1.026196 3.197019
C 0.491979 1.333985 3.243751
C 0.413849 1.560966 3.159060
C 0.311807 1.509570 3.023562
C 0.228812 1.551295 2.925123
C 0.216692 1.742611 2.803313
C 0.667150 1.456701 2.659023
C 1.034917 1.307090 2.573106
C 0.960154 1.427514 2.354882
C 0.891847 1.587115 2.161610
C 0.823982 1.943172 1.954441
C 0.790462 2.288213 1.924434
C 0.667122 2.271992 1.998909
C 0.527558 2.166389 2.129876
C 0.436492 2.025809 2.243641
C 0.359329 1.921891 2.430115
C 0.219714 1.687270 2.742411
C 0.055140 1.322267 3.096979
C -0.196407 0.846082 3.296417
C -0.350423 0.683265 3.417468
C -0.543690 0.654363 3.565922
C -0.781057 0.615560 3.665618
C -1.050274 0.385338 3.780170
C -1.300503 0.252631 3.792133
C -1.683147 0.241523 3.674820
C -2.060509 0.267900 3.594726
C -2.423383 0.169520 3.487452
C -2.641720 0.146753 3.428628
C -2.876649 -0.055643 3.372261
C -3.115567 -0.263321 3.250860
