267
chr12 3D structure from Hi-C (resolution 500000bp)
C -3.072377 2.491886 -1.792886
C -3.100555 2.493630 -1.631876
C -3.099103 2.487733 -1.530970
C -3.124030 2.458397 -1.358994
C -3.111910 2.332174 -1.262639
C -3.144740 2.299155 -1.161173
C -3.144995 2.223301 -1.017708
C -3.148942 2.187812 -0.679767
C -3.144718 2.116070 -0.500257
C -3.154540 2.031905 -0.607984
C -3.145506 1.870612 -0.963869
C -3.128186 1.748892 -0.999272
C -3.160134 1.708692 -0.810935
C -3.292387 1.626646 -0.970808
C -3.337885 1.474054 -1.232588
C -3.436079 1.351738 -1.392512
C -3.539932 1.189248 -1.371321
C -3.633798 1.139625 -1.013638
C -3.843397 1.054742 -0.929701
C -4.001007 1.203071 -0.564697
C -3.905910 1.024979 -0.506291
C -3.935315 0.958877 -0.500143
C -3.854150 0.813133 -0.583375
C -3.769112 0.759176 -0.277407
C -3.662838 0.732184 -0.083889
C -3.506671 0.604760 0.008607
C -3.386832 0.207459 -0.278912
C -3.405763 0.174160 0.138765
C -3.400852 0.018968 0.370887
C -3.451855 -0.084496 0.808326
C -3.493100 -0.240612 0.975804
C -3.532504 -0.409054 1.230996
C -3.491779 -0.503293 1.625083
C -3.452321 -0.594915 2.016365
C -3.452294 -0.722056 2.178989
C -3.413099 -0.837698 2.367817
C -3.380457 -0.990481 2.346846
C -3.359701 -1.042235 2.381405
C -3.345522 -1.243617 2.328432
C -3.412845 -1.374700 2.097590
C -3.445295 -1.483063 1.848148
C -3.451004 -1.706195 1.514198
C -3.467644 -1.786775 1.353414
C -3.468795 -1.842424 1.322991
C -3.506937 -2.006598 1.178726
C -3.516958 -2.007089 0.854676
C -3.470974 -2.028114 0.584348
C -3.452096 -1.989708 0.309024
C -3.436194 -1.828143 0.254502
C -3.393956 -1.742888 -0.008797
C -3.331799 -1.583041 -0.455333
C -3.235677 -1.437732 -0.848259
C -3.149170 -1.417923 -0.941540
C -3.109418 -1.591162 -0.971272
C -3.013641 -1.686871 -0.584813
C -2.950914 -1.728373 -0.486866
C -2.883269 -1.701114 -0.044854
C -2.812489 -1.771206 0.567735
C -2.766294 -1.905913 0.938690
C -2.869729 -2.013445 0.834335
C -2.812459 -1.774543 0.708925
C -2.771456 -1.683568 0.406956
C -2.671658 -1.624321 0.523777
C -2.620577 -1.725567 0.721762
C -2.565806 -1.819138 0.850065
C -2.485183 -1.650694 1.243149
C -2.375591 -1.138073 2.161274
C -2.326217 -0.367771 3.067634
C -2.253705 0.441417 3.839203
C -2.124096 1.126209 4.430967
C -1.966537 1.785925 4.829773
C -1.897479 2.078411 5.163317
C -1.758572 2.039360 5.363663
C -1.516387 1.654858 5.065825
C -1.343939 0.833703 4.523377
C -1.224456 -0.011968 4.045939
C -1.211941 -0.859490 3.447454
C -1.191499 -1.577636 2.677962
C -1.091355 -1.983022 2.070601
C -1.038954 -2.253865 1.568030
C -1.020156 -2.424548 1.363903
C -0.991251 -2.549846 1.067369
C -0.972319 -2.735278 0.943701
C -0.934864 -2.884665 0.764725
C -0.924886 -2.957541 0.632102
C -0.926880 -2.950043 0.381354
C -0.962199 -2.948021 0.228457
C -0.927216 -2.870591 -0.173893
C -0.931978 -2.808178 -0.300834
C -0.906270 -2.633402 -0.722118
C -0.905373 -2.421321 -0.908409
C -0.892199 -2.254342 -1.049412
C -0.896029 -1.967369 -1.277612
C -0.867878 -1.584457 -1.670059
C -0.933514 -1.263900 -1.927426
C -0.961346 -0.986378 -2.223018
C -0.946111 -0.729000 -2.474139
C -0.894203 -0.457650 -2.891378
C -0.922413 -0.236946 -3.246543
C -0.944306 -0.073956 -3.449196
C -0.966609 0.037866 -3.512152
C -0.958287 0.123703 -3.492365
C -0.915011 0.234500 -3.307259
C -0.972046 0.285969 -3.313163
C -0.988573 0.257102 -3.176328
C -0.892408 0.229645 -3.082637
C -0.763948 0.029600 -2.863979
C -0.644083 -0.367002 -2.761171
C -0.541558 -0.579925 -2.706142
C -0.478249 -0.819021 -2.837732
C -0.373046 -0.994245 -2.746170
C -0.289529 -1.072308 -2.770208
C -0.247048 -1.230951 -2.689397
C -0.210821 -1.552531 -2.453361
C -0.116117 -1.720968 -2.105787
C 0.055337 -2.145722 -1.682121
C 0.153582 -2.459948 -1.094516
C 0.258541 -2.826891 -0.378434
C 0.317194 -3.162044 0.420339
C 0.389738 -3.412306 1.158031
C 0.436950 -3.243059 1.549720
C 0.444620 -3.054562 1.515510
C 0.375681 -2.732468 1.414392
C 0.444734 -2.724801 1.359849
C 0.540085 -2.696525 0.969337
C 0.601223 -2.521410 0.520317
C 0.632174 -2.326466 -0.099436
C 0.681589 -2.349519 -0.590516
C 0.760924 -2.343820 -0.722895
C 0.875010 -2.416093 -0.910070
C 0.896504 -2.280667 -0.970375
C 0.877594 -2.127551 -0.987619
C 0.886002 -2.092233 -1.048526
C 0.928470 -2.101759 -1.112362
C 1.014468 -1.983880 -1.305254
C 1.035986 -1.902166 -1.391104
C 1.094226 -1.912211 -1.325241
C 1.150862 -1.897046 -1.193808
C 1.242050 -1.957540 -0.864377
C 1.338270 -2.073972 -0.463833
C 1.424267 -2.083348 -0.111751
C 1.446900 -2.151951 0.487768
C 1.470970 -2.213398 1.065285
C 1.465207 -2.197170 1.666567
C 1.512793 -2.199201 2.023335
C 1.571470 -2.185831 2.183400
C 1.654161 -2.232009 2.237766
C 1.740115 -2.341843 2.350243
C 1.835115 -2.328371 2.028409
C 1.941205 -2.264243 1.592742
C 2.058767 -2.215434 1.089862
C 2.196821 -2.233098 0.722386
C 2.276341 -2.230688 0.483512
C 2.392158 -2.219686 0.322919
C 2.530363 -2.192069 0.360854
C 2.685849 -2.284873 0.447539
C 2.717884 -2.241431 0.408191
C 2.773501 -2.333779 0.443861
C 2.813153 -2.243243 0.448552
C 2.883058 -2.193116 0.541085
C 2.903235 -2.049096 0.624720
C 2.778511 -1.871025 0.687556
C 2.671375 -1.658966 0.739216
C 2.678437 -1.583765 1.166036
C 2.642400 -1.422146 1.614563
C 2.595900 -1.314098 1.989679
C 2.564337 -1.183525 2.140547
C 2.684278 -1.127337 2.160598
C 2.848600 -1.109421 2.084983
C 2.935336 -1.075270 2.371225
C 3.030081 -1.018454 2.477543
C 3.092340 -0.864532 2.413652
C 3.207729 -0.829467 2.296720
C 3.295590 -0.809213 1.987613
C 3.221524 -0.723374 1.996717
C 3.200358 -0.653017 1.986867
C 3.166487 -0.648317 1.430629
C 3.259338 -0.632175 1.200322
C 3.293721 -0.632974 1.115539
C 3.344439 -0.663493 0.896609
C 3.363505 -0.625773 0.816677
C 3.341602 -0.596407 0.311723
C 3.305620 -0.594642 -0.149877
C 3.254296 -0.507454 -0.335143
C 3.093062 -0.419678 -0.703821
C 3.074265 -0.340341 -1.275286
C 2.946260 -0.202451 -1.644209
C 2.821096 -0.050892 -1.859926
C 2.803835 0.111759 -1.740492
C 2.768167 0.251555 -1.699177
C 2.900707 0.355690 -1.361860
C 2.961885 0.430239 -1.037786
C 2.946558 0.544178 -0.533794
C 2.974143 0.616019 -0.248339
C 2.981552 0.647810 -0.016131
C 2.943023 0.683130 0.228684
C 2.946681 0.740387 0.601904
C 2.862623 0.748351 0.598697
C 2.825046 0.793685 0.540757
C 2.885827 0.859779 0.279925
C 2.820296 0.953054 0.058813
C 2.772463 1.042289 -0.112975
C 2.787243 1.124715 -0.363163
C 2.788460 1.195175 -0.770534
C 2.669269 1.318951 -1.008337
C 2.571397 1.383946 -1.428766
C 2.378603 1.356338 -1.755115
C 2.337454 1.447335 -1.876192
C 2.235385 1.582968 -1.663366
C 2.118098 1.683109 -1.615692
C 1.989921 1.807925 -1.503145
C 1.996124 1.933038 -1.305627
C 1.952823 2.059744 -1.162636
C 1.787516 2.231543 -1.011922
C 1.617579 2.269805 -1.086968
C 1.574417 2.337469 -1.371971
C 1.473840 2.431893 -1.616728
C 1.303218 2.462604 -1.919333
C 1.132332 2.509235 -2.261775
C 1.037428 2.597170 -2.393344
C 1.053734 2.602438 -2.616578
C 0.993026 2.702542 -2.653369
C 0.925049 2.751534 -2.583585
C 0.836764 2.730204 -2.440215
C 0.960954 2.786653 -2.006451
C 1.094004 2.818376 -1.511672
C 1.210795 2.785727 -1.020832
C 1.319018 2.790378 -0.433207
C 1.370410 2.788568 0.108061
C 1.467385 2.805280 0.206698
C 1.521350 2.815161 0.329967
C 1.506904 2.833223 0.366924
C 1.428061 2.842416 0.336207
C 1.287270 2.853659 0.019423
C 1.205045 2.940220 -0.059065
C 1.251240 2.965974 -0.105972
C 1.178008 2.972723 -0.125387
C 1.053474 3.031046 -0.390884
C 0.887343 3.013483 -0.917878
C 0.721337 3.041824 -1.437850
C 0.636324 3.071713 -1.809369
C 0.520043 3.145767 -2.256490
C 0.386383 3.204071 -2.794115
C 0.319296 3.262599 -3.077167
C 0.370800 3.400689 -3.028447
C 0.434311 3.527085 -2.632914
C 0.507858 3.519194 -2.328878
C 0.590921 3.412208 -1.708511
C 0.787210 3.217655 -0.991327
C 0.981338 3.148389 -0.035492
C 1.141009 2.996587 0.777586
C 1.273728 2.729695 1.412601
C 1.463499 2.556639 1.952045
C 1.662877 2.475603 2.487654
C 1.741589 2.507348 2.601281
C 1.687256 2.588480 2.601836
C 1.664584 2.569081 2.492960
C 1.682418 2.661205 2.431301
C 1.690551 2.798536 2.209434
C 1.476061 2.979335 1.861224
C 1.300384 3.193721 1.432656
C 1.129056 3.434297 1.208757
C 0.952798 3.631118 0.816821
C 0.656782 3.918428 0.639425
C 0.458437 4.068742 0.353818
C 0.238294 4.247222 0.262547
C 0.158274 4.382125 0.205023
