267
chr12 3D structure from Hi-C (resolution 500000bp)
C -3.471382 0.696596 -2.784400
C -3.461977 0.902881 -2.634118
C -3.453420 0.985433 -2.496032
C -3.425267 1.144686 -2.364181
C -3.322865 1.239007 -2.270721
C -3.287319 1.370966 -2.144858
C -3.264679 1.438219 -2.070536
C -3.158372 1.695381 -1.901092
C -3.061398 1.763319 -1.777575
C -2.972348 1.698953 -1.909572
C -2.914419 1.403151 -2.187355
C -2.840226 1.336398 -2.300701
C -2.746366 1.422229 -2.300762
C -2.694707 1.539541 -2.380390
C -2.639720 1.418080 -2.565774
C -2.566288 1.376367 -2.851236
C -2.444219 1.449524 -3.026402
C -2.342548 1.830746 -2.860751
C -2.285435 2.092860 -2.914928
C -2.416775 2.510560 -2.719243
C -2.236759 2.437939 -2.686004
C -2.131574 2.390023 -2.785358
C -2.016330 2.284821 -2.791443
C -1.934039 2.458818 -2.452348
C -1.798879 2.495948 -2.324970
C -1.582687 2.436767 -2.225367
C -1.201901 2.154504 -2.392924
C -1.079727 2.435918 -2.184105
C -0.900186 2.641130 -1.982007
C -0.668923 3.012444 -1.727250
C -0.476834 3.195957 -1.706870
C -0.246514 3.435781 -1.620983
C -0.046805 3.729751 -1.399341
C 0.201814 3.957634 -1.226960
C 0.450032 4.084926 -1.176573
C 0.577405 4.174004 -1.114511
C 0.633288 4.167462 -1.103902
C 0.766253 4.154864 -1.141737
C 0.904518 4.108616 -1.196799
C 0.970609 3.983528 -1.361875
C 0.960401 3.859632 -1.553612
C 0.964421 3.688485 -1.792219
C 1.063735 3.575413 -1.939603
C 1.256821 3.472081 -2.122091
C 1.346291 3.371211 -2.273463
C 1.316277 3.131621 -2.492268
C 1.224490 2.904993 -2.646267
C 1.119074 2.610585 -2.817129
C 1.059866 2.486860 -2.831306
C 0.963605 2.280376 -2.997318
C 0.689606 1.928097 -3.175135
C 0.476371 1.570069 -3.320262
C 0.407509 1.403874 -3.361108
C 0.550013 1.379218 -3.421969
C 0.779460 1.599367 -3.192654
C 0.866216 1.585261 -3.166231
C 0.950608 1.838516 -2.895633
C 1.100900 2.265706 -2.408647
C 1.173360 2.551362 -2.125264
C 1.213409 2.619712 -2.295583
C 1.015999 2.478676 -2.232617
C 0.812670 2.250037 -2.322959
C 0.718868 2.308249 -2.112677
C 0.748421 2.481072 -1.856025
C 0.831323 2.566088 -1.751798
C 0.889309 2.795628 -1.399439
C 0.715419 3.349018 -0.511718
C 0.183796 3.947406 0.354350
C -0.382860 4.460356 1.215430
C -0.900664 4.805099 1.946692
C -1.379301 4.959082 2.545803
C -1.485393 5.123814 2.892174
C -1.385766 5.192273 3.080259
C -1.001766 4.839803 2.855530
C -0.251046 4.382162 2.337037
C 0.544465 3.977905 1.799292
C 1.213432 3.511129 1.102308
C 1.783179 2.967515 0.394399
C 2.059561 2.504696 -0.095109
C 2.245691 2.084631 -0.499098
C 2.358624 1.888891 -0.690922
C 2.426434 1.636293 -0.925202
C 2.558036 1.500067 -1.075401
C 2.725693 1.387754 -1.209815
C 2.801622 1.271428 -1.342640
C 2.790692 1.026303 -1.472656
C 2.841396 0.862381 -1.612461
C 2.618352 0.608626 -1.721830
C 2.513371 0.502403 -1.735410
C 2.303995 0.210838 -1.903331
C 2.102242 0.008064 -1.989791
C 1.931774 -0.116500 -2.039836
C 1.577799 -0.270024 -2.156443
C 1.055533 -0.499960 -2.212319
C 0.749760 -0.721641 -2.373534
C 0.418564 -0.975091 -2.551358
C 0.040624 -1.157185 -2.663584
C -0.293660 -1.431764 -2.808197
C -0.679820 -1.691974 -2.984211
C -0.881637 -1.843588 -3.031210
C -0.982658 -1.872197 -3.040500
C -1.102893 -1.886135 -2.994564
C -1.200193 -1.759959 -2.797153
C -1.140852 -1.793782 -2.772150
C -1.131849 -1.723485 -2.677388
C -1.013477 -1.677053 -2.594567
C -0.759722 -1.567262 -2.508608
C -0.408639 -1.585415 -2.548259
C -0.140705 -1.631423 -2.492563
C 0.109316 -1.771877 -2.624783
C 0.240160 -1.775954 -2.544570
C 0.356013 -1.837577 -2.521897
C 0.521824 -1.829225 -2.449249
C 0.886187 -1.575448 -2.214306
C 1.187177 -1.342188 -1.913165
C 1.688987 -1.054094 -1.679722
C 2.148188 -0.631819 -1.248965
C 2.645104 -0.086417 -0.777097
C 3.222695 0.387956 -0.349794
C 3.600307 0.928882 0.121367
C 3.600676 1.046935 0.357882
C 3.449141 0.951754 0.346277
C 3.132138 0.893945 0.389710
C 3.064842 0.834455 0.399322
C 3.036399 0.468281 0.168173
C 2.774424 0.145190 -0.054054
C 2.513342 -0.387028 -0.391815
C 2.376576 -0.861558 -0.690658
C 2.456225 -1.030556 -0.750454
C 2.471763 -1.265404 -0.848473
C 2.391562 -1.438331 -0.910583
C 2.204422 -1.435955 -0.839738
C 2.155563 -1.461180 -0.782233
C 2.115971 -1.536031 -0.739061
C 1.993357 -1.611207 -0.772826
C 1.800314 -1.683777 -0.720981
C 1.902343 -1.671741 -0.627805
C 2.040662 -1.657849 -0.547876
C 2.156514 -1.393823 -0.261610
C 2.215824 -1.067233 0.077541
C 2.336465 -0.811610 0.283533
C 2.481314 -0.374678 0.758844
C 2.619434 0.114248 1.159214
C 2.697865 0.555052 1.573651
C 2.672247 0.901760 1.916748
C 2.788625 0.832963 1.947691
C 2.953193 0.699647 1.952692
C 3.134792 0.720058 2.052778
C 3.136045 0.368989 1.842363
C 3.008108 -0.000750 1.637682
C 2.899067 -0.362692 1.414421
C 2.863857 -0.603475 1.322008
C 2.802375 -0.717971 1.277186
C 2.742161 -0.780519 1.324091
C 2.818866 -0.906810 1.409852
C 2.914691 -0.822768 1.593777
C 2.929020 -0.913669 1.589915
C 2.985162 -0.981068 1.680184
C 2.984243 -1.203113 1.637563
C 2.995033 -1.266006 1.771085
C 2.950873 -1.233371 1.880412
C 2.695879 -1.154819 1.957124
C 2.551325 -1.292069 1.904664
C 2.592363 -1.028582 2.211203
C 2.534897 -0.720106 2.473919
C 2.497033 -0.418677 2.785886
C 2.354655 -0.360568 2.927089
C 2.284549 -0.402902 2.977138
C 2.228371 -0.423385 3.109387
C 2.180265 -0.204626 3.456268
C 2.171262 -0.250336 3.613430
C 2.073929 -0.313635 3.651067
C 1.944098 -0.350483 3.622288
C 1.865394 -0.547252 3.426612
C 1.784797 -0.681318 3.442021
C 1.770657 -0.862562 3.363580
C 1.722755 -1.242656 2.959706
C 1.741312 -1.486747 2.786124
C 1.765200 -1.751686 2.709177
C 1.796240 -2.085786 2.601326
C 1.799161 -2.196555 2.583839
C 1.685996 -2.465246 2.246248
C 1.597188 -2.701422 1.975962
C 1.449128 -2.801792 1.840782
C 1.201278 -2.964005 1.621348
C 0.944455 -3.197100 1.205942
C 0.707494 -3.362196 0.881281
C 0.451506 -3.466652 0.687086
C 0.324571 -3.431251 0.754250
C 0.192165 -3.328041 0.742818
C 0.179209 -3.102892 1.065949
C 0.156199 -2.927212 1.271252
C 0.164839 -2.643236 1.704552
C 0.153821 -2.437774 1.969093
C 0.154184 -2.219290 2.158925
C 0.165183 -1.977879 2.393187
C 0.196017 -1.687834 2.696414
C 0.138149 -1.590693 2.607392
C 0.066288 -1.490675 2.602731
C -0.054616 -1.680267 2.487075
C -0.141675 -1.826487 2.287110
C -0.230031 -1.979425 2.237743
C -0.367066 -2.151522 2.068287
C -0.527526 -2.464593 1.772217
C -0.657251 -2.700128 1.624646
C -0.815332 -3.018008 1.272618
C -0.916031 -3.103880 0.888632
C -1.064755 -3.102881 0.818463
C -1.221341 -2.917243 0.899979
C -1.379901 -2.887970 0.859788
C -1.526699 -2.762875 0.951430
C -1.653445 -2.578972 1.129690
C -1.777065 -2.431439 1.278258
C -1.915584 -2.294257 1.370004
C -2.041916 -2.287520 1.284888
C -2.178448 -2.430096 1.102287
C -2.339250 -2.432163 0.895633
C -2.439111 -2.625573 0.578723
C -2.601708 -2.785219 0.290084
C -2.755256 -2.777742 0.126809
C -2.841878 -2.879115 -0.026210
C -2.906766 -2.875518 -0.117945
C -2.916291 -2.683539 -0.114794
C -2.883760 -2.607617 -0.051530
C -2.881166 -2.190550 0.260146
C -2.771664 -1.826534 0.605522
C -2.617372 -1.491521 0.991198
C -2.523225 -1.149859 1.456022
C -2.455952 -0.819647 1.949184
C -2.447732 -0.909893 2.023503
C -2.403001 -0.827026 2.112269
C -2.409764 -0.929951 2.166155
C -2.443659 -0.975303 2.127209
C -2.487594 -1.232160 1.868932
C -2.538924 -1.205309 1.793247
C -2.569037 -1.191398 1.686656
C -2.577343 -1.077411 1.567543
C -2.733350 -1.182110 1.357468
C -2.795754 -1.471252 0.918149
C -2.931227 -1.728185 0.436428
C -3.127851 -1.807098 0.174255
C -3.244261 -2.137741 -0.320601
C -3.403576 -2.508197 -0.736651
C -3.531023 -2.740439 -0.939093
C -3.635087 -2.771036 -0.897530
C -3.727966 -2.509313 -0.587558
C -3.689327 -2.352806 -0.306929
C -3.410071 -2.117349 0.167325
C -3.165388 -1.696469 0.886117
C -2.916764 -1.090633 1.659866
C -2.607894 -0.592256 2.352641
C -2.159749 -0.193966 2.877073
C -1.824643 0.090709 3.338941
C -1.552463 0.396947 3.813208
C -1.510298 0.489598 3.852732
C -1.491647 0.539085 3.854287
C -1.477107 0.458708 3.752370
C -1.579517 0.496841 3.717214
C -1.780268 0.449312 3.535727
C -2.076334 0.316694 3.228881
C -2.443277 0.092715 2.850381
C -2.844729 0.017461 2.610091
C -3.196459 -0.082729 2.277285
C -3.612517 0.015084 2.062123
C -3.850130 -0.139147 1.779363
C -4.112651 -0.198673 1.655453
C -4.282484 -0.136527 1.556946
