291
chr8 3D structure from Hi-C (resolution 500000bp)
C -2.187657 2.960004 3.602914
C -2.372688 3.256316 3.572382
C -2.639848 3.034087 3.405498
C -2.788890 2.727387 3.164469
C -2.887068 2.832761 2.933019
C -3.033911 2.801964 2.659492
C -3.424738 2.151717 2.354954
C -3.751526 1.497436 2.117265
C -3.775473 1.002267 1.918707
C -3.555995 0.744231 1.885373
C -3.269591 0.579346 2.041756
C -3.094963 0.532368 2.367463
C -2.663043 0.869456 2.950796
C -2.184095 0.512077 3.276243
C -1.718380 0.137105 3.454059
C -1.404019 -0.155168 3.603065
C -1.236492 -0.280468 3.695257
C -1.190952 -0.318903 3.678481
C -0.984308 -0.487757 3.540057
C -0.931040 -1.097987 3.214288
C -0.933653 -1.005216 3.101896
C -1.156707 -0.725939 3.417521
C -1.301939 -0.597290 3.347255
C -1.538694 -0.490424 3.167735
C -1.853279 -0.398035 2.980472
C -2.225464 -0.261265 2.732060
C -2.674984 -0.037813 2.403513
C -3.132940 0.182428 2.069708
C -3.433200 0.153944 1.433492
C -3.691304 0.170636 1.172090
C -3.829999 0.111319 1.075265
C -3.725356 0.004919 1.082046
C -3.571948 -0.233048 1.116267
C -3.406178 -0.452170 1.187870
C -3.272521 -0.675298 1.331640
C -3.037412 -0.780008 1.475950
C -2.720864 -0.919058 1.700080
C -2.437548 -1.006322 1.889773
C -2.311403 -0.986991 2.030271
C -2.154063 -0.920407 2.153113
C -1.924747 -0.973107 2.318494
C -1.560669 -1.168905 2.467042
C -1.214504 -1.454616 2.590185
C -1.070870 -1.657768 2.603271
C -1.023822 -1.754836 2.597055
C -1.021131 -1.880800 2.528339
C -1.091025 -1.784506 2.446659
C -1.190545 -1.828393 2.373990
C -1.457942 -1.648410 2.291806
C -1.635694 -1.514637 2.196699
C -1.754935 -1.451589 2.140516
C -1.679296 -1.550509 2.090038
C -1.464541 -1.660556 2.136727
C -1.174754 -1.991836 2.149836
C -0.856889 -2.174147 2.150787
C -0.472698 -2.446912 2.155953
C -0.265584 -2.613978 2.148736
C -0.110873 -2.710553 2.121798
C -0.096579 -2.725223 2.021362
C -0.289867 -2.709984 1.822732
C -0.762058 -2.537381 1.575536
C -1.249831 -2.337848 1.341553
C -1.706885 -2.157104 1.081767
C -2.061777 -2.016046 0.852430
C -2.349696 -1.876453 0.673854
C -2.726960 -1.677344 0.503568
C -2.977099 -1.536339 0.374858
C -3.035094 -1.458218 0.335677
C -3.059535 -1.301529 0.290756
C -3.174012 -1.121668 0.264898
C -3.279745 -0.997706 0.228131
C -3.209770 -1.030978 0.277483
C -2.872274 -1.179494 0.436190
C -2.409503 -1.432326 0.650209
C -1.980958 -1.680672 0.810009
C -1.785996 -2.226461 0.967534
C -1.591855 -2.730767 1.077954
C -1.495501 -2.747637 1.112262
C -1.551257 -2.633582 1.072302
C -1.603107 -2.522394 1.081171
C -1.688718 -2.447387 1.086284
C -1.631057 -2.427939 1.120291
C -1.489906 -2.096171 1.105176
C -1.500621 -1.735496 0.993811
C -1.777938 -1.386015 0.910652
C -1.903657 -0.370733 0.855124
C -2.069547 0.702095 0.810512
C -2.308285 1.915985 0.754636
C -2.915980 2.923556 0.459917
C -3.389247 3.363960 0.224244
C -3.455374 3.654151 0.130694
C -3.074914 3.428764 0.156741
C -2.716393 2.343601 0.180142
C -2.539772 1.398307 0.032938
C -2.459372 0.459224 -0.218845
C -2.115181 -0.222024 -0.275992
C -1.919032 -0.369027 -0.448965
C -1.940304 -0.456267 -0.666352
C -2.121967 -0.437931 -0.964737
C -2.339102 -0.313287 -1.232492
C -2.295561 -0.467484 -1.354937
C -2.242764 -0.511054 -1.425096
C -2.134161 -0.580192 -1.387112
C -1.991152 -0.648938 -1.306601
C -1.631217 -0.919568 -1.086919
C -1.312841 -1.097506 -0.875246
C -1.246038 -1.137371 -0.872919
C -1.239963 -1.080664 -0.877962
C -1.022668 -1.286650 -0.752116
C -0.937143 -1.472663 -0.791454
C -0.863681 -1.599622 -0.832469
C -1.006200 -1.648659 -1.051580
C -1.041078 -1.782709 -1.208131
C -0.765607 -2.018090 -1.098843
C -0.627841 -2.192189 -1.125352
C -0.780003 -2.146430 -1.355092
C -0.845200 -2.096379 -1.543136
C -0.773348 -2.193590 -1.611414
C -0.468259 -2.298824 -1.407462
C -0.298072 -2.296158 -1.333142
C -0.365789 -2.222116 -1.499814
C -0.551896 -2.008660 -1.671629
C -0.615530 -1.856743 -1.749418
C -0.513803 -1.862690 -1.641141
C -0.567324 -1.722697 -1.719493
C -0.850464 -1.423674 -2.015815
C -0.819388 -1.416144 -2.030639
C -0.870896 -1.324374 -2.081483
C -0.543879 -1.504717 -1.839395
C -0.215783 -1.705139 -1.582162
C -0.013133 -1.751116 -1.399989
C 0.307896 -1.929663 -1.158863
C 0.445717 -1.983831 -1.061543
C 0.231203 -1.694778 -1.200878
C 0.156155 -1.479481 -1.256608
C -0.102558 -1.218325 -1.525650
C -0.078233 -1.179555 -1.680281
C -0.029437 -1.191639 -1.743149
C -0.091542 -1.158877 -1.926624
C -0.028654 -1.176520 -2.006671
C 0.177701 -1.412407 -2.009450
C 0.405676 -1.628004 -1.976922
C 0.556909 -1.708529 -1.917694
C 0.497886 -1.628240 -1.855367
C 0.472794 -1.559428 -1.869194
C 0.400405 -1.391563 -1.948655
C 0.316128 -1.241081 -2.023638
C 0.230777 -1.041734 -2.126647
C 0.248121 -0.993135 -2.181035
C 0.174763 -0.905964 -2.362840
C 0.149586 -0.860344 -2.583295
C 0.037428 -0.753022 -2.941389
C -0.009697 -0.648905 -3.086982
C 0.005162 -0.595133 -3.145766
C 0.122624 -0.636171 -3.021323
C 0.016167 -0.410012 -3.014096
C 0.274894 -0.546484 -2.757767
C 0.428974 -0.589994 -2.500394
C 0.512516 -0.559018 -2.209550
C 0.710730 -0.666241 -1.864892
C 0.812194 -0.678831 -1.673728
C 0.629694 -0.456245 -1.802235
C 0.624355 -0.415094 -1.866589
C 0.312032 -0.092057 -1.996291
C 0.051899 0.243637 -2.248706
C -0.172277 0.492238 -2.475049
C -0.414984 0.766051 -2.640916
C -0.489715 0.837569 -2.528480
C -0.596854 0.995996 -2.343057
C -0.579889 1.012616 -2.081673
C -0.430830 0.985028 -2.014669
C -0.498996 1.122281 -1.976123
C -0.515688 1.251587 -1.856555
C -0.517751 1.356769 -1.863200
C -0.583899 1.591106 -2.054526
C -0.438174 1.580602 -2.197821
C -0.173144 1.366740 -2.277491
C -0.188659 1.463246 -2.329159
C 0.067591 1.280943 -2.322550
C 0.333636 1.060614 -2.323088
C 0.358573 1.096880 -2.222023
C 0.449193 1.040604 -2.098850
C 0.496733 1.065582 -1.962395
C 0.277820 1.403978 -1.885331
C 0.490524 1.156434 -1.666442
C 0.684725 0.920140 -1.385111
C 0.858085 0.716405 -1.127227
C 1.223850 0.333316 -0.946827
C 1.329288 0.284758 -0.781226
C 1.507200 0.051074 -0.584001
C 1.608931 -0.005852 -0.506554
C 1.561285 0.124934 -0.465874
C 1.579269 0.142456 -0.410831
C 1.612727 0.141002 -0.334664
C 1.714065 0.025744 -0.306500
C 2.038917 -0.442083 -0.326650
C 2.301126 -0.698248 -0.304505
C 2.568840 -1.094040 -0.135342
C 2.817145 -1.380826 0.032441
C 2.917061 -1.458101 0.098884
C 3.023957 -1.526592 0.030270
C 3.065639 -1.583290 0.080326
C 3.057721 -1.515777 0.187399
C 2.988566 -1.421595 0.065566
C 2.924824 -1.199571 -0.310114
C 2.833499 -1.033800 -0.638279
C 2.754776 -0.841871 -0.931254
C 2.530798 -0.479389 -1.283956
C 2.286970 -0.016891 -1.692776
C 2.108946 0.319165 -2.070166
C 2.066336 0.481757 -2.203749
C 1.978844 0.689044 -2.237236
C 1.893712 0.907909 -2.343998
C 1.857748 1.030153 -2.429021
C 1.933357 1.021684 -2.365100
C 2.074229 0.907831 -2.270735
C 2.109014 0.911807 -2.194464
C 1.956223 1.146451 -2.294604
C 1.858885 1.285292 -2.263363
C 1.764485 1.427717 -2.254022
C 1.620429 1.640193 -2.269203
C 1.493161 1.858424 -2.252835
C 1.417835 2.152455 -2.271622
C 1.418475 2.342712 -2.329242
C 1.608897 2.299121 -2.238607
C 1.797023 2.259381 -2.201962
C 1.862988 2.346235 -2.121271
C 2.090953 2.233365 -1.985100
C 2.108427 2.289791 -1.870392
C 2.101158 2.269920 -1.789130
C 2.206685 2.049879 -1.580928
C 2.110303 2.088103 -1.450116
C 2.108560 1.923374 -1.275422
C 2.304096 1.576147 -1.082052
C 2.332069 1.405075 -0.974923
C 2.439851 1.270114 -0.899682
C 2.520091 1.073457 -0.760325
C 2.455570 1.223567 -0.742969
C 2.547131 1.150099 -0.699342
C 2.465435 1.379570 -0.719629
C 2.304444 1.653251 -0.741075
C 2.106709 1.922899 -0.724703
C 2.165807 1.746897 -0.606397
C 2.255363 1.609605 -0.461259
C 2.337152 1.433804 -0.265257
C 2.408490 1.318945 -0.050625
C 2.632325 0.988917 0.172223
C 2.870221 0.656818 0.397788
C 3.089303 0.496752 0.528785
C 3.057353 0.699475 0.581801
C 2.966492 0.968659 0.612973
C 3.024594 1.012229 0.669051
C 3.051513 1.011249 0.695591
C 2.999703 1.119141 0.682678
C 2.928721 1.669804 0.719962
C 2.856821 1.783493 0.724432
C 2.943567 1.684454 0.727694
C 3.037056 1.547698 0.767373
C 2.878777 1.755674 0.697486
C 2.686650 2.052686 0.609278
C 2.566328 2.220949 0.578453
C 2.406469 1.952001 0.494499
C 2.348110 1.888482 0.578191
C 2.273041 1.898970 0.717202
C 2.182307 1.950290 0.798446
C 2.178947 1.926967 0.881768
C 2.223544 1.789943 0.996465
C 2.113237 1.860708 1.015361
C 2.034483 1.979874 0.999177
C 1.928170 2.169273 0.922537
C 1.775694 2.398194 0.730815
C 1.525895 2.700557 0.533043
C 1.344499 2.851290 0.406477
C 1.146494 3.001932 0.315446
C 1.134170 2.949680 0.379770
C 1.184289 2.807947 0.505930
C 1.258802 2.629891 0.690324
C 1.438092 2.250738 0.957867
C 1.744212 1.741379 1.256302
C 2.108560 1.266680 1.614837
C 2.365819 1.056482 1.983564
C 2.578571 0.891828 2.322233
C 2.759269 0.689059 2.582995
C 2.933607 0.478602 2.894748
C 3.028924 0.402664 3.336742
C 3.079259 0.399502 3.607296
C 2.983693 0.501783 3.792757
C 2.924323 0.629506 4.082408
C 2.954375 0.524929 4.207946
C 2.967681 0.523196 4.407663
C 2.900584 0.631652 4.533221
