291
chr8 3D structure from Hi-C (resolution 500000bp)
C -3.051999 3.844582 1.913032
C -3.168631 4.163592 1.709645
C -3.421127 3.816493 1.563456
C -3.514493 3.369860 1.517774
C -3.544888 3.376032 1.249436
C -3.614107 3.260086 0.995396
C -3.844531 2.537869 0.928430
C -4.062311 1.803805 0.925705
C -4.138826 1.127283 0.897500
C -3.893045 0.929246 1.029813
C -3.600211 0.927332 1.224588
C -3.523502 1.015066 1.596406
C -3.260316 1.531269 2.031682
C -2.855364 1.359406 2.516149
C -2.389879 1.127189 2.887697
C -2.012752 1.038007 3.244007
C -1.829476 0.994759 3.385963
C -1.770921 0.945133 3.364764
C -1.489564 0.783773 3.310458
C -1.330510 0.030285 3.273931
C -1.301866 0.055502 3.142794
C -1.562232 0.337703 3.337917
C -1.717021 0.321305 3.197683
C -1.912978 0.328239 2.970501
C -2.245075 0.249726 2.774315
C -2.602766 0.253867 2.368145
C -3.017576 0.336679 1.883396
C -3.416062 0.323638 1.491659
C -3.660727 0.122185 0.888145
C -3.861163 0.121485 0.637109
C -3.991370 0.022569 0.531949
C -3.870149 -0.022600 0.551252
C -3.720880 -0.179554 0.760663
C -3.547581 -0.287290 0.968101
C -3.414000 -0.297742 1.118031
C -3.181578 -0.251156 1.279869
C -2.931887 -0.324461 1.555221
C -2.661096 -0.310810 1.840628
C -2.548541 -0.182456 1.962920
C -2.434304 -0.079690 2.050934
C -2.211210 -0.045185 2.231789
C -1.853667 -0.134296 2.482463
C -1.512240 -0.359533 2.755782
C -1.273934 -0.431915 2.875097
C -1.166093 -0.465785 2.889927
C -1.096852 -0.596443 2.907120
C -1.122335 -0.670436 2.829910
C -1.181605 -0.781432 2.749152
C -1.449914 -0.831952 2.584366
C -1.620144 -0.808633 2.432642
C -1.757158 -0.839815 2.339835
C -1.748062 -1.012002 2.378814
C -1.524970 -1.072086 2.453845
C -1.197328 -1.187034 2.618166
C -0.936568 -1.291547 2.749286
C -0.547794 -1.425774 2.883900
C -0.295517 -1.544465 2.971131
C -0.139217 -1.589625 2.994531
C -0.093262 -1.658575 2.891270
C -0.298417 -1.799859 2.717472
C -0.743844 -1.894807 2.385593
C -1.144630 -1.888214 2.051278
C -1.568672 -1.879667 1.740141
C -1.915212 -1.875948 1.455989
C -2.180894 -1.892507 1.207527
C -2.543677 -1.733035 0.924991
C -2.811331 -1.645560 0.726611
C -2.881350 -1.529103 0.649793
C -2.941052 -1.459950 0.574944
C -3.086005 -1.326931 0.419313
C -3.212996 -1.226650 0.302136
C -3.149400 -1.215380 0.365143
C -2.828265 -1.335631 0.643514
C -2.376791 -1.441704 0.992381
C -1.928048 -1.553997 1.288312
C -1.772680 -1.893856 1.525411
C -1.615126 -2.233090 1.860352
C -1.544314 -2.267862 1.897529
C -1.642472 -2.130632 1.818655
C -1.745219 -2.040141 1.738444
C -1.801989 -1.946672 1.687842
C -1.829345 -1.913582 1.677503
C -1.648755 -1.613029 1.652592
C -1.619699 -1.251526 1.396036
C -1.899172 -1.050983 1.188009
C -2.043317 -0.218731 0.672360
C -2.253074 0.737727 0.165014
C -2.640207 1.735742 -0.404578
C -3.248653 2.450612 -1.081612
C -3.707219 2.656134 -1.543543
C -3.773405 2.754733 -1.722969
C -3.392092 2.637111 -1.620467
C -2.993858 1.704100 -1.122945
C -2.701866 0.770861 -0.839452
C -2.461987 -0.139678 -0.682598
C -2.038119 -0.831203 -0.469513
C -1.827873 -0.987076 -0.549764
C -1.757718 -1.113713 -0.710231
C -1.849186 -1.187310 -0.974968
C -2.013399 -1.244971 -1.286540
C -1.970588 -1.401952 -1.326282
C -1.906294 -1.485293 -1.350725
C -1.811887 -1.477578 -1.293044
C -1.684822 -1.538554 -1.168490
C -1.398401 -1.668143 -0.826951
C -1.101287 -1.784841 -0.497404
C -1.024776 -1.821039 -0.420825
C -1.023086 -1.806751 -0.457343
C -0.796642 -1.916736 -0.225773
C -0.692915 -2.035296 -0.150247
C -0.555327 -2.125591 -0.090369
C -0.637902 -2.295891 -0.258077
C -0.673959 -2.371099 -0.439831
C -0.383546 -2.485512 -0.241269
C -0.234394 -2.593760 -0.177523
C -0.344902 -2.676895 -0.441899
C -0.307905 -2.786155 -0.582465
C -0.246624 -2.831723 -0.600261
C 0.028668 -2.768370 -0.373622
C 0.206484 -2.764052 -0.238339
C 0.119412 -2.749726 -0.395716
C -0.037107 -2.650923 -0.644320
C -0.075357 -2.592859 -0.733177
C 0.002731 -2.514654 -0.663979
C -0.028137 -2.496285 -0.815947
C -0.294201 -2.401633 -1.223010
C -0.297550 -2.338254 -1.257794
C -0.324699 -2.272679 -1.374992
C 0.006297 -2.260067 -1.046015
C 0.290384 -2.229847 -0.706878
C 0.445834 -2.182536 -0.551690
C 0.699342 -2.162891 -0.227962
C 0.858243 -2.072146 -0.026357
C 0.727980 -1.958677 -0.225408
C 0.665205 -1.866221 -0.343769
C 0.382334 -1.780701 -0.722644
C 0.393524 -1.784443 -0.876080
C 0.409362 -1.773472 -0.925105
C 0.377016 -1.803620 -1.080416
C 0.391298 -1.921597 -1.247875
C 0.603365 -2.051301 -1.157779
C 0.834291 -2.142245 -1.044004
C 1.049372 -2.236712 -0.918196
C 1.049300 -2.186390 -0.911950
C 1.013546 -2.092073 -0.907217
C 0.906607 -1.924909 -1.022780
C 0.806874 -1.767781 -1.115579
C 0.685058 -1.672212 -1.321902
C 0.669550 -1.628200 -1.434894
C 0.629572 -1.606667 -1.674541
C 0.551811 -1.591736 -1.909715
C 0.461864 -1.656581 -2.303500
C 0.429187 -1.640634 -2.520468
C 0.456004 -1.646696 -2.618838
C 0.570541 -1.612582 -2.484024
C 0.410193 -1.452349 -2.542658
C 0.590472 -1.418645 -2.273162
C 0.763908 -1.383118 -2.026780
C 0.834601 -1.278158 -1.827537
C 1.066788 -1.310435 -1.515404
C 1.205551 -1.260022 -1.263006
C 0.994464 -1.131126 -1.450248
C 1.005808 -1.067047 -1.536282
C 0.688955 -0.860466 -1.775678
C 0.408707 -0.703182 -2.166132
C 0.202868 -0.546717 -2.396497
C -0.107175 -0.322252 -2.609822
C -0.255021 -0.184488 -2.616553
C -0.395794 0.027257 -2.600897
C -0.402766 0.126713 -2.371194
C -0.379455 0.220636 -2.269681
C -0.498981 0.337953 -2.264965
C -0.564633 0.459788 -2.253882
C -0.590916 0.515275 -2.333639
C -0.633739 0.585766 -2.603732
C -0.484345 0.514025 -2.639377
C -0.193297 0.333947 -2.553077
C 0.026942 0.187707 -2.627848
C 0.330247 0.034597 -2.549036
C 0.579244 -0.106114 -2.438303
C 0.634481 -0.014637 -2.411576
C 0.773675 -0.030507 -2.258058
C 0.939474 -0.122647 -2.217056
C 0.746466 0.115126 -2.379164
C 0.860107 0.147252 -2.123063
C 1.048012 0.124041 -1.757142
C 1.248165 0.043154 -1.412422
C 1.593581 -0.193128 -0.967234
C 1.676718 -0.171041 -0.748926
C 1.788901 -0.143089 -0.412298
C 1.794367 -0.062782 -0.280695
C 1.650033 0.107827 -0.250422
C 1.596019 0.178404 -0.223036
C 1.605827 0.192232 -0.161234
C 1.757585 0.099637 -0.098220
C 2.063373 -0.145057 0.145996
C 2.259059 -0.269106 0.290350
C 2.579248 -0.548255 0.642010
C 2.883709 -0.782459 0.934848
C 3.026984 -0.810661 1.095954
C 3.145840 -0.843368 1.096517
C 3.194086 -0.792902 1.158816
C 3.224420 -0.726712 1.109927
C 3.190889 -0.702725 0.941637
C 3.193859 -0.670202 0.528340
C 3.176932 -0.613260 0.114581
C 3.118213 -0.607301 -0.262259
C 2.965020 -0.472682 -0.766291
C 2.752526 -0.337120 -1.322472
C 2.588144 -0.233276 -1.751829
C 2.552865 -0.132589 -1.944718
C 2.404463 0.017237 -2.089614
C 2.260559 0.178922 -2.242714
C 2.225493 0.282806 -2.334959
C 2.300504 0.291056 -2.290493
C 2.386421 0.292335 -2.144190
C 2.378085 0.341405 -2.096158
C 2.201236 0.475394 -2.260582
C 2.143833 0.524089 -2.313428
C 2.092666 0.570606 -2.390530
C 1.881774 0.762601 -2.538571
C 1.640881 0.972240 -2.621365
C 1.442584 1.174105 -2.825135
C 1.417477 1.318349 -2.979034
C 1.529385 1.374638 -2.877120
C 1.615471 1.467884 -2.841758
C 1.629187 1.587525 -2.813646
C 1.834616 1.579227 -2.683273
C 1.943872 1.621860 -2.605166
C 1.966707 1.680404 -2.528523
C 2.050966 1.610091 -2.260416
C 2.078632 1.620854 -2.175324
C 2.182680 1.559438 -1.881401
C 2.324394 1.448252 -1.572822
C 2.387293 1.335943 -1.393109
C 2.440738 1.346404 -1.245664
C 2.609649 1.231669 -0.974063
C 2.519830 1.316729 -0.974551
C 2.522511 1.326999 -0.848573
C 2.375060 1.481943 -1.001892
C 2.174983 1.663798 -1.116105
C 1.985678 1.877408 -1.222793
C 2.054587 1.757829 -1.029052
C 2.066410 1.690108 -0.849532
C 2.163651 1.638205 -0.649706
C 2.223453 1.581313 -0.439575
C 2.358902 1.427397 -0.023218
C 2.585165 1.240140 0.391563
C 2.782111 1.151027 0.637172
C 2.719651 1.331546 0.588024
C 2.674286 1.592622 0.426905
C 2.745982 1.639625 0.489995
C 2.793491 1.674632 0.511668
C 2.778668 1.770292 0.440300
C 2.659016 2.269884 0.169827
C 2.606881 2.373887 0.112737
C 2.666215 2.304918 0.218606
C 2.701398 2.161417 0.391490
C 2.503226 2.301840 0.265931
C 2.292549 2.512154 0.048224
C 2.118073 2.617543 -0.089697
C 2.029299 2.330390 -0.051272
C 1.936799 2.322062 0.024831
C 1.847017 2.369613 0.104547
C 1.743040 2.469438 0.117706
C 1.684445 2.503400 0.167176
C 1.756892 2.428598 0.335081
C 1.758206 2.473690 0.285825
C 1.685788 2.530020 0.211055
C 1.555389 2.566187 0.058107
C 1.402320 2.679911 -0.221669
C 1.162773 2.815874 -0.530491
C 1.034862 2.866253 -0.716877
C 0.808711 2.974725 -0.878887
C 0.753041 2.937080 -0.747144
C 0.801492 2.877304 -0.540573
C 0.862496 2.873431 -0.279201
C 1.015535 2.684733 0.100728
C 1.335534 2.434893 0.605932
C 1.650054 2.235744 1.187814
C 1.856474 2.238646 1.595069
C 2.027549 2.261701 1.960328
C 2.186955 2.281285 2.274609
C 2.368149 2.237662 2.650367
C 2.377485 2.449406 3.100187
C 2.354824 2.506203 3.380954
C 2.266970 2.578384 3.500434
C 2.212120 2.652708 3.824831
C 2.232235 2.629708 4.005781
C 2.198388 2.620959 4.236985
C 2.065561 2.713359 4.348012
