319
chr7 3D structure from Hi-C (resolution 500000bp)
C -3.160811 -1.663920 2.211332
C -2.968728 -1.814606 2.162353
C -2.907950 -1.848039 2.027451
C -2.840648 -1.655803 1.725726
C -2.689423 -1.402158 1.176213
C -2.619456 -1.029874 0.675010
C -2.633861 -0.911404 0.448660
C -2.681070 -0.854826 0.312234
C -2.742539 -0.864533 0.307789
C -2.672922 -0.968792 0.329923
C -2.877449 -1.036265 0.532608
C -2.956420 -1.374514 0.856546
C -2.979041 -1.702933 1.139199
C -2.984385 -1.670461 1.072335
C -3.054995 -1.403257 0.810299
C -3.232252 -0.959065 0.455030
C -3.429345 -0.484705 0.110851
C -3.420506 -0.283894 -0.192249
C -3.384055 -0.140648 -0.396783
C -3.420574 0.018014 -0.580589
C -3.466685 0.170938 -0.726023
C -3.514968 0.191137 -0.696571
C -3.426793 0.084616 -0.834518
C -3.475968 0.117114 -0.879427
C -3.386057 0.144334 -1.038741
C -3.411373 0.264166 -1.149349
C -3.334976 0.320726 -1.309978
C -3.247956 0.288309 -1.463647
C -3.188436 0.273874 -1.726367
C -3.154160 0.334686 -1.759594
C -2.983159 0.144977 -1.757978
C -2.961166 -0.110972 -1.539337
C -2.952944 -0.345141 -1.422917
C -3.028243 -0.470953 -1.456605
C -3.157736 -0.480714 -1.415163
C -3.124796 -0.590392 -1.370442
C -3.110098 -0.772208 -1.361563
C -3.150983 -0.951300 -1.237858
C -3.202678 -1.002304 -1.344821
C -3.139028 -1.080731 -1.381443
C -3.024773 -1.176948 -1.267182
C -2.866523 -1.446449 -1.057885
C -2.671935 -1.704633 -0.727156
C -2.503855 -2.023669 -0.414421
C -2.406322 -2.086796 -0.381396
C -2.151674 -2.114295 -0.300641
C -2.019976 -2.270486 -0.110855
C -1.925829 -2.394099 -0.011020
C -1.873605 -2.449866 -0.031686
C -1.859961 -2.559200 0.046315
C -1.849556 -2.523710 -0.074645
C -1.854449 -2.672164 -0.148548
C -1.940986 -2.871047 -0.110814
C -1.922285 -2.849878 -0.238251
C -1.893096 -2.906948 -0.239673
C -1.878211 -2.910144 -0.327469
C -1.903458 -2.774247 -0.531934
C -1.862562 -2.845951 -0.444222
C -1.760743 -2.804184 -0.499522
C -1.767338 -2.678184 -0.738620
C -1.798692 -2.505740 -0.923143
C -1.777937 -2.311784 -1.115005
C -1.722079 -2.342539 -1.161597
C -1.707986 -2.250090 -1.368789
C -1.811812 -1.936120 -1.750652
C -1.893407 -1.651988 -2.046658
C -1.813301 -1.521553 -2.125665
C -1.754423 -1.568859 -2.229663
C -1.690450 -1.844668 -2.159880
C -1.566669 -1.889758 -2.143654
C -1.474032 -2.032273 -2.053201
C -1.240075 -2.316026 -1.891590
C -0.980134 -2.665057 -1.606509
C -0.818710 -2.874228 -1.376000
C -0.725641 -2.989441 -1.234402
C -0.710406 -2.877186 -1.348028
C -0.712172 -2.905572 -1.412210
C -0.779782 -2.884588 -1.617621
C -0.785915 -2.725562 -1.848131
C -0.832619 -2.568586 -2.046883
C -0.788399 -2.510172 -2.200445
C -0.764434 -2.465832 -2.384225
C -0.681762 -2.470097 -2.521944
C -0.576367 -2.388542 -2.502683
C -0.398050 -2.429506 -2.188049
C -0.353476 -2.696840 -1.812622
C -0.283043 -2.908826 -1.515238
C -0.234719 -2.989098 -1.474665
C -0.131383 -3.041156 -1.407476
C -0.096503 -2.950669 -1.434815
C -0.099260 -2.786843 -1.687130
C -0.094579 -2.634241 -1.960388
C -0.106380 -2.357238 -2.224547
C -0.141383 -1.946182 -2.535190
C -0.297265 -1.634662 -2.722149
C -0.397588 -1.379967 -2.809634
C -0.492477 -1.244864 -2.763911
C -0.566933 -1.238227 -2.622844
C -0.674819 -1.071667 -2.682430
C -0.752580 -0.818778 -2.945518
C -0.867377 -0.578376 -3.109582
C -0.878979 -0.425966 -3.179341
C -0.906365 -0.250489 -3.260009
C -1.018421 0.029723 -3.348359
C -1.102017 0.351483 -3.492050
C -1.118584 0.534742 -3.493828
C -1.090446 0.622080 -3.317826
C -1.021083 0.478151 -3.105745
C -0.984046 0.431071 -2.951900
C -0.998244 0.538876 -2.866302
C -0.995342 0.746439 -2.868013
C -1.037221 0.969780 -2.838333
C -1.130176 1.303953 -2.829967
C -1.429839 1.800892 -2.648508
C -1.771831 2.398642 -2.427415
C -2.159344 2.920436 -2.109763
C -2.533761 3.253124 -1.703258
C -2.258580 3.496531 -1.631802
C -1.996577 3.738954 -1.594624
C -1.933300 3.932007 -1.437133
C -1.836951 3.971483 -1.490731
C -1.685523 3.916053 -1.746108
C -1.335714 3.937574 -2.081096
C -0.863014 3.907005 -2.516505
C -0.962908 3.797890 -2.549878
C -0.992350 3.562608 -2.647252
C -0.698008 3.231754 -2.914644
C -0.230297 2.894320 -3.209746
C 0.457829 2.040281 -3.203017
C 0.939057 1.109556 -3.105306
C 1.304361 0.196370 -2.847596
C 1.512082 -0.359252 -2.828240
C 1.558195 -0.489133 -2.724002
C 1.498227 -0.561485 -2.635233
C 1.416278 -0.670060 -2.525091
C 1.149663 -0.265646 -2.571415
C 1.049272 -0.089033 -2.532792
C 0.935792 0.155170 -2.640744
C 0.951825 0.107657 -2.492249
C 1.034666 0.003816 -2.602892
C 1.116826 -0.144684 -2.645411
C 1.198026 -0.277133 -2.701643
C 1.375030 -0.557272 -2.732848
C 1.496933 -0.895470 -2.633621
C 1.499601 -1.151460 -2.317296
C 1.422154 -1.579038 -1.870838
C 1.459941 -2.330592 -1.177201
C 1.567226 -3.049372 -0.532893
C 1.606424 -3.512802 0.105647
C 1.575312 -3.728864 0.610942
C 1.724637 -3.661560 0.594388
C 1.879156 -3.602512 0.612550
C 2.129798 -3.390828 0.411576
C 2.186881 -2.710973 0.059328
C 2.242706 -1.981075 -0.411520
C 2.270630 -1.365347 -0.783521
C 2.359983 -0.761735 -1.251142
C 2.221417 -0.140259 -1.445841
C 2.137510 0.428837 -1.738479
C 2.033463 0.972747 -1.980916
C 2.176841 0.875797 -1.928933
C 2.304328 0.797884 -1.882583
C 2.438033 0.800331 -1.863231
C 2.449775 0.819801 -1.691907
C 2.494577 0.715792 -1.582200
C 2.643325 0.597045 -1.610058
C 2.861823 0.469909 -1.673692
C 2.932501 0.648337 -1.764460
C 3.009079 0.788847 -1.829642
C 3.011012 0.869467 -1.839084
C 3.015106 0.784846 -1.734022
C 2.894333 0.700772 -1.535532
C 2.957282 0.535151 -1.416479
C 2.946667 0.430947 -1.127126
C 3.000758 0.411428 -1.116167
C 2.970891 0.514027 -1.038554
C 2.931005 0.443780 -0.952315
C 2.972785 0.333819 -0.975009
C 3.058742 0.337581 -0.892475
C 3.019844 0.501183 -0.857364
C 2.975252 0.495400 -0.846373
C 2.895076 0.187602 -0.557933
C 2.909260 -0.277178 -0.241789
C 3.038403 -0.562352 -0.090603
C 3.157959 -0.560627 -0.023949
C 3.304642 -0.555136 -0.027483
C 3.333406 -0.596584 0.099927
C 3.394337 -0.566326 0.194437
C 3.446421 -0.334015 0.195326
C 3.448544 -0.187459 0.206904
C 3.322793 -0.165645 0.193917
C 3.143417 -0.258810 0.259974
C 3.007365 -0.304972 0.261575
C 2.755305 -0.532833 0.466326
C 2.488592 -0.808245 0.632061
C 2.224185 -1.274959 0.871809
C 1.942998 -1.605212 1.119348
C 1.694785 -1.941344 1.491563
C 1.428764 -2.260575 1.879457
C 1.212909 -2.499122 2.177916
C 1.178347 -2.634729 2.299612
C 1.216596 -2.727916 2.413065
C 1.439833 -2.590737 2.400313
C 1.661094 -2.436645 2.422469
C 1.965907 -2.158036 2.240629
C 2.224428 -1.795289 2.062635
C 2.379500 -1.601109 1.947623
C 2.500297 -1.524955 2.017230
C 2.485065 -1.321265 2.021611
C 2.293409 -1.212858 2.016418
C 2.134228 -1.108555 1.953250
C 2.169965 -1.105862 2.143474
C 2.130734 -1.106008 2.245621
C 2.080408 -0.948994 2.243432
C 2.170222 -0.464488 1.950378
C 2.282866 -0.008618 1.676868
C 2.403286 0.542730 1.361863
C 2.549769 1.004283 1.110864
C 2.530025 1.438326 0.764903
C 2.755693 1.697076 0.654329
C 2.953662 1.951380 0.505402
C 2.895685 1.912348 0.570226
C 2.898366 1.892546 0.653448
C 2.945058 1.876364 0.759422
C 2.877733 2.035826 0.654205
C 2.783245 2.253288 0.581849
C 2.652870 2.256572 0.584394
C 2.461931 2.427767 0.565848
C 2.452979 2.718477 0.437018
C 2.347742 2.679980 0.479115
C 2.245326 2.477615 0.687445
C 2.247873 2.125152 1.083845
C 2.139924 2.055042 1.230079
C 1.958409 2.206761 1.078677
C 1.904270 2.295588 0.906422
C 1.736572 2.394064 0.808703
C 1.621748 2.739667 0.577754
C 1.581255 2.797437 0.526297
C 1.568161 2.931162 0.501000
C 1.612957 2.767588 0.666444
C 1.643308 2.770570 0.857960
C 1.661577 2.662951 1.173083
C 1.743755 2.462743 1.515283
C 1.849371 2.283706 1.742786
C 1.804735 2.476112 1.787011
C 1.636138 2.591650 1.686892
C 1.560993 2.655992 1.622908
C 1.457839 2.779732 1.467521
C 1.405616 2.824837 1.426436
C 1.391378 2.663419 1.517739
C 1.377524 2.474047 1.759485
C 1.314340 2.277290 1.738951
C 1.346802 1.917637 1.908085
C 1.291646 1.507686 2.189920
C 1.170725 0.792593 2.629196
C 1.030226 0.063016 2.929660
C 0.865116 -0.347236 3.062950
C 0.705285 -0.743791 3.120320
C 0.609158 -1.084318 3.338242
C 0.486299 -1.245195 3.420367
C 0.414338 -1.208915 3.314209
C 0.508161 -0.949148 3.219678
C 0.593724 -0.715488 3.200777
C 0.663588 -0.529565 3.121856
C 0.732693 -0.324732 3.036868
C 0.749635 -0.165592 3.096141
C 0.787070 0.020525 3.117614
C 0.813162 0.083147 3.136531
C 0.794147 0.185376 3.131820
C 0.703723 0.526909 3.011777
C 0.505346 1.020731 2.925185
C 0.392986 1.458162 2.902510
C 0.387543 1.600632 2.842337
C 0.361452 1.719933 2.735661
C 0.324769 1.828387 2.744343
C 0.226555 1.710292 2.754063
C 0.162856 1.351226 2.942770
C 0.162816 0.828478 3.161284
C 0.085303 0.445129 3.376882
C -0.015856 0.473975 3.327066
C -0.173550 0.555728 3.417340
C -0.721683 0.692509 3.380276
C -1.328447 0.980103 3.232379
C -1.353434 1.286539 3.178903
C -1.571643 1.677985 3.101166
C -1.539696 1.977508 2.865253
C -1.461663 2.133631 2.678180
C -1.384693 2.397342 2.377641
C -0.967829 2.706964 2.133539
C -0.463098 2.941165 1.976646
C -0.495544 3.154944 1.726764
C -0.255604 3.318547 1.463542
C -0.302760 3.427704 1.331727
C -0.476875 3.615710 1.239344
C -0.527416 3.329924 1.429053
C -0.615997 2.806655 1.788220
C -0.742880 2.273152 2.161898
C -0.974414 1.769158 2.497019
C -1.040603 1.240505 2.705979
C -1.119316 0.725649 2.985800
C -1.151049 0.255231 3.249551
C -1.350578 0.139765 3.391407
C -1.388286 0.328928 3.313055
C -1.338258 0.737846 3.035503
C -1.285916 1.183705 2.716628
C -1.417379 1.690173 2.475765
C -1.460347 2.071973 2.233562
C -1.551445 2.225913 2.135425
C -1.488706 2.225423 2.037956
C -1.554915 2.233364 1.969369
C -1.565011 1.960136 2.106153
C -1.518844 1.706830 2.240911
C -1.599775 1.671070 2.220562
C -1.758699 1.761563 2.151773
C -1.819639 1.835593 2.105561
C -1.926653 2.174018 1.809776
C -1.919752 2.244446 1.710439
C -2.055168 2.505870 1.539903
C -2.194934 2.830834 1.287698
