319
chr7 3D structure from Hi-C (resolution 500000bp)
C -0.683499 3.465704 0.980532
C -0.936448 3.373867 0.845847
C -0.877996 3.342050 0.714666
C -0.645440 3.141430 0.527105
C -0.455210 2.830385 0.221445
C -0.012418 2.545625 0.028008
C 0.219566 2.502644 -0.055079
C 0.299127 2.465141 -0.134377
C 0.407689 2.546397 -0.154928
C 0.278411 2.510551 -0.163746
C 0.121167 2.800157 0.018092
C -0.184590 3.073242 0.127957
C -0.461893 3.286476 0.141206
C -0.388927 3.275053 0.072446
C 0.031451 3.205298 0.009021
C 0.577788 3.060274 -0.037877
C 1.159771 2.958113 -0.118780
C 1.507772 2.805556 -0.224722
C 1.619959 2.710808 -0.314654
C 1.742407 2.649998 -0.347987
C 1.931864 2.573969 -0.412611
C 1.964123 2.622682 -0.394259
C 1.804209 2.587620 -0.501314
C 1.849685 2.606887 -0.486089
C 1.912731 2.509082 -0.606307
C 2.108536 2.421989 -0.664681
C 2.200767 2.312558 -0.759810
C 2.224489 2.227043 -0.851661
C 2.289296 2.145614 -1.003214
C 2.378601 2.106143 -1.114144
C 2.146776 2.048208 -1.232006
C 1.840867 2.140081 -1.225538
C 1.559017 2.310399 -1.223855
C 1.470638 2.488456 -1.251370
C 1.397026 2.695957 -1.124020
C 1.259421 2.790488 -1.080395
C 1.132789 2.886659 -1.059245
C 0.980736 3.042717 -1.033718
C 1.137563 3.045533 -1.119572
C 1.033639 2.979596 -1.145727
C 0.916469 2.845652 -1.136635
C 0.639275 2.779030 -1.255135
C 0.328385 2.748542 -1.271560
C -0.118954 2.738495 -1.151103
C -0.272526 2.706766 -1.111012
C -0.590483 2.583113 -1.062682
C -0.816707 2.580196 -1.040920
C -1.005688 2.594036 -1.058596
C -1.132910 2.513195 -1.072871
C -1.340861 2.493947 -1.068467
C -1.254061 2.475234 -1.183671
C -1.308350 2.466238 -1.337888
C -1.386639 2.587755 -1.370165
C -1.340559 2.511682 -1.471632
C -1.382188 2.474809 -1.496618
C -1.300060 2.493355 -1.547358
C -1.115132 2.438915 -1.657543
C -1.220080 2.413273 -1.686357
C -1.208450 2.322678 -1.712396
C -0.983591 2.207384 -1.900285
C -0.759441 2.110447 -1.966016
C -0.527547 2.046093 -2.042151
C -0.449354 2.015137 -2.089295
C -0.246795 1.998133 -2.130908
C 0.181716 1.945396 -2.276227
C 0.603554 1.894024 -2.325927
C 0.698999 1.827113 -2.277724
C 0.703082 1.828680 -2.329333
C 0.560591 1.913399 -2.423732
C 0.394244 1.789043 -2.485557
C 0.193471 1.664905 -2.518156
C -0.138455 1.621798 -2.475116
C -0.646462 1.576705 -2.489249
C -0.865939 1.530679 -2.436057
C -0.969858 1.490481 -2.406201
C -0.924580 1.365043 -2.420932
C -0.852726 1.383892 -2.476884
C -0.703713 1.364751 -2.594674
C -0.329624 1.234122 -2.714901
C 0.033263 1.146615 -2.760759
C 0.151112 1.069218 -2.870026
C 0.268800 0.982038 -2.987556
C 0.302251 0.880119 -3.103886
C 0.306635 0.761467 -3.039715
C 0.070001 0.760655 -2.876684
C -0.487232 0.836095 -2.734877
C -0.945116 0.904091 -2.633587
C -1.171880 0.945751 -2.588516
C -1.275392 0.914477 -2.587977
C -1.173347 0.865927 -2.551242
C -0.823881 0.898827 -2.603161
C -0.503446 0.882511 -2.666534
C -0.191894 0.805817 -2.711703
C 0.258673 0.723814 -2.707735
C 0.721475 0.696749 -2.661858
C 0.967158 0.682727 -2.564654
C 1.072515 0.685264 -2.411748
C 0.836145 0.614204 -2.344043
C 0.946650 0.513017 -2.318059
C 1.331957 0.444647 -2.379019
C 1.616139 0.333999 -2.431458
C 1.695461 0.235969 -2.435444
C 1.825289 0.165756 -2.442902
C 2.018340 0.069033 -2.449205
C 2.374378 0.013836 -2.426028
C 2.455833 -0.078230 -2.366792
C 2.394612 -0.065574 -2.155733
C 2.132801 -0.012603 -2.111598
C 1.841628 -0.053058 -2.130976
C 1.879586 -0.050836 -2.028817
C 2.007535 -0.100387 -1.949301
C 2.172348 -0.162439 -1.835479
C 2.456755 -0.101712 -1.687282
C 2.822066 -0.038559 -1.373743
C 3.310256 0.064887 -0.855281
C 3.823232 0.307999 -0.269723
C 3.971307 0.629204 0.295834
C 3.954390 1.042155 0.846356
C 4.060230 1.073633 1.180282
C 4.105239 0.994058 1.402744
C 4.108288 0.740991 1.359446
C 4.107597 0.454172 1.096007
C 4.126547 0.032163 0.755478
C 4.158419 -0.520539 0.316689
C 4.184104 -1.121290 -0.175378
C 3.958833 -1.403299 -0.562221
C 3.387222 -1.670792 -1.112830
C 2.715374 -1.802799 -1.683416
C 1.926325 -1.952048 -2.122733
C 1.025911 -1.890898 -2.428099
C 0.101928 -1.758399 -2.653372
C -0.454683 -1.665408 -2.900549
C -0.768682 -1.591589 -3.020371
C -0.606892 -1.475758 -2.917109
C -0.315062 -1.400544 -2.704731
C -0.076040 -1.355958 -2.550744
C 0.133075 -1.354203 -2.512536
C 0.479791 -1.417539 -2.497693
C 0.462991 -1.414678 -2.389815
C 0.671499 -1.409097 -2.329031
C 0.632433 -1.415985 -2.305605
C 0.554983 -1.481553 -2.376353
C 0.275591 -1.444870 -2.436394
C -0.093648 -1.379802 -2.447357
C -0.484877 -1.223064 -2.290060
C -0.936323 -0.927417 -2.141735
C -1.839164 -0.528953 -1.965963
C -2.644956 -0.267023 -1.849707
C -3.278914 0.016683 -1.579463
C -3.501780 0.175093 -1.326585
C -3.509812 -0.025500 -1.332391
C -3.462506 -0.217565 -1.390012
C -3.300413 -0.546659 -1.458276
C -2.689096 -0.932990 -1.451764
C -1.906331 -1.229961 -1.326148
C -1.326437 -1.530092 -1.332808
C -0.698606 -1.889926 -1.392960
C -0.065055 -2.020551 -1.215627
C 0.429202 -2.178509 -1.103483
C 0.926669 -2.308566 -0.982729
C 0.831546 -2.442676 -1.033068
C 0.647400 -2.594295 -1.137103
C 0.545750 -2.705642 -1.173810
C 0.443278 -2.646411 -1.070054
C 0.311810 -2.659973 -0.959672
C 0.299782 -2.769640 -0.957214
C 0.323922 -2.931456 -0.938506
C 0.481181 -3.009441 -0.835496
C 0.720868 -3.088749 -0.740448
C 0.819405 -3.123437 -0.641810
C 0.755209 -3.145737 -0.577204
C 0.632212 -2.953758 -0.553049
C 0.363569 -2.888936 -0.632907
C 0.089009 -2.768178 -0.634759
C 0.011887 -2.815679 -0.682967
C 0.004230 -2.790196 -0.574900
C -0.031669 -2.754360 -0.513346
C -0.205650 -2.787725 -0.542720
C -0.274802 -2.845075 -0.566196
C -0.239266 -2.840300 -0.479133
C -0.297815 -2.789775 -0.433950
C -0.609649 -2.565130 -0.407193
C -1.123660 -2.452561 -0.526105
C -1.344594 -2.459920 -0.536093
C -1.314841 -2.542051 -0.549005
C -1.350487 -2.717720 -0.529479
C -1.342824 -2.758777 -0.408348
C -1.424502 -2.817772 -0.376241
C -1.415647 -2.944668 -0.340587
C -1.405896 -2.922464 -0.260473
C -1.414561 -2.816795 -0.253787
C -1.522848 -2.594217 -0.275279
C -1.624570 -2.423416 -0.284981
C -1.840184 -2.082990 -0.273297
C -2.015957 -1.774771 -0.287205
C -2.247886 -1.359178 -0.145713
C -2.473199 -0.974871 -0.095098
C -2.851721 -0.590850 -0.098407
C -3.133176 -0.223888 0.072402
C -3.295815 0.084224 0.174676
C -3.438031 0.162063 0.216718
C -3.517567 0.251295 0.331670
C -2.633265 -0.172903 0.245368
C -2.614732 -0.430836 0.258004
C -2.414949 -0.793637 0.318541
C -2.146097 -1.099988 0.356932
C -1.999163 -1.360388 0.406842
C -2.034770 -1.495037 0.417034
C -1.928412 -1.586993 0.430982
C -2.631102 -1.323967 0.528936
C -2.438126 -1.292261 0.640838
C -2.550891 -1.272427 0.755082
C -2.625023 -1.280219 0.823369
C -2.490413 -1.221721 0.886107
C -2.044442 -1.431240 1.022757
C -1.498355 -1.659445 1.122133
C -0.915502 -1.906665 1.214172
C -0.480614 -2.169867 1.270904
C -0.080558 -2.349326 1.288830
C 0.035224 -2.574418 1.372956
C 0.192140 -2.850866 1.450642
C 0.184222 -2.784928 1.448624
C 0.028419 -2.821523 1.489220
C -0.037180 -2.820081 1.598419
C 0.085171 -2.784553 1.661482
C 0.299939 -2.818187 1.705661
C 0.361213 -2.753881 1.706159
C 0.417155 -2.720795 1.723275
C 0.708281 -2.814012 1.768405
C 0.603081 -2.750874 1.818812
C 0.287718 -2.633166 1.846292
C -0.151982 -2.506351 1.887323
C -0.256007 -2.393828 1.970921
C -0.019981 -2.342321 1.963875
C 0.344233 -2.230833 1.933297
C 0.503036 -2.143801 1.941137
C 0.958869 -2.147685 1.936814
C 0.970366 -2.191027 1.906060
C 1.120441 -2.219693 1.962160
C 1.059097 -2.158450 1.972183
C 1.104647 -2.103756 2.040531
C 0.849406 -2.093432 2.201674
C 0.486386 -2.042737 2.367154
C 0.207635 -2.005445 2.451378
C 0.391945 -1.916211 2.606769
C 0.549259 -1.829255 2.601398
C 0.612473 -1.715929 2.560522
C 0.744503 -1.677041 2.580235
C 0.845894 -1.591638 2.584415
C 0.728061 -1.555626 2.575639
C 0.566671 -1.499252 2.592870
C 0.477488 -1.456202 2.461384
C 0.069235 -1.332851 2.373758
C -0.369713 -1.163161 2.374685
C -1.078482 -0.835674 2.332295
C -1.759938 -0.546711 2.180064
C -2.074486 -0.209900 2.024441
C -2.383540 0.076446 1.899391
C -2.708444 0.273027 1.878470
C -2.807531 0.390498 1.853471
C -2.734325 0.328857 1.823402
C -2.506863 0.229097 1.882042
C -2.313457 0.112466 1.993281
C -2.162458 -0.028138 2.064700
C -2.055113 -0.197358 2.138904
C -2.016516 -0.294481 2.266148
C -1.872714 -0.308191 2.405194
C -1.844501 -0.230423 2.447750
C -1.803410 -0.322691 2.468723
C -1.589171 -0.367287 2.584547
C -0.987846 -0.426670 2.613587
C -0.580605 -0.458777 2.786069
C -0.404631 -0.486434 2.804044
C -0.277674 -0.556195 2.763404
C -0.167027 -0.570414 2.836920
C -0.310873 -0.462933 2.757292
C -0.581861 -0.275187 2.658775
C -1.212378 -0.049347 2.697060
C -1.573509 0.183549 2.673573
C -1.573321 0.333236 2.663085
C -1.540132 0.407661 2.797994
C -0.873946 0.432022 2.775031
C 0.019057 0.480267 2.784586
C 0.327130 0.485399 2.897011
C 0.696739 0.460198 3.093190
C 0.978027 0.305799 3.077356
C 1.210184 0.184927 3.028933
C 1.525468 0.117912 2.970906
C 1.338560 0.133042 3.076549
C 1.033956 0.026241 3.203400
C 1.273656 -0.113370 3.174440
C 1.453659 -0.211611 3.010199
C 1.619198 -0.160540 3.000260
C 1.707918 -0.056448 3.150312
C 1.408426 0.078167 3.112431
C 0.894200 0.269699 3.062453
C 0.429966 0.541151 3.027275
C 0.020385 0.952585 2.993601
C -0.414535 1.112708 2.878841
C -0.916583 1.326330 2.740067
C -1.281278 1.491328 2.546283
C -1.299851 1.724655 2.573285
C -1.106637 1.697326 2.607570
C -0.746539 1.548852 2.590448
C -0.333144 1.305371 2.593706
C 0.104243 1.280708 2.682398
C 0.502052 1.191114 2.740956
C 0.738262 1.191419 2.822402
C 0.753924 1.049668 2.770655
C 0.845473 1.050679 2.740613
C 0.577116 1.141751 2.682239
C 0.283651 1.211611 2.626497
C 0.232741 1.330044 2.661744
C 0.360519 1.472283 2.699458
C 0.379630 1.561507 2.666337
C 0.640981 1.655029 2.739153
C 0.636690 1.697189 2.710920
C 0.895908 1.793151 2.802201
C 1.207666 1.887890 2.879549
