94
chr21 3D structure from Hi-C (resolution 500000bp)
C 0.680695 3.044109 -4.879242
C 0.625489 3.506163 -4.501097
C 0.822768 3.824665 -4.133530
C 1.156994 3.961675 -3.855107
C 1.489716 4.255902 -3.451864
C 1.963283 4.270103 -3.154496
C 2.607421 3.926130 -2.987485
C 3.282412 3.182558 -2.880486
C 3.837624 2.184633 -3.007613
C 4.134320 0.973944 -3.140668
C 4.112262 -0.191500 -3.372782
C 3.761604 -1.060825 -3.733523
C 3.158115 -1.607208 -4.059160
C 2.431175 -1.844446 -4.378608
C 1.528683 -1.646956 -4.701848
C 0.499264 -1.208021 -4.844938
C -0.539767 -0.729661 -4.922948
C -1.459250 -0.355195 -4.861746
C -2.140527 -0.352444 -4.532573
C -2.402151 -0.704203 -4.378220
C -2.374802 -1.288063 -4.104556
C -2.086682 -2.172191 -3.744008
C -1.794264 -3.179454 -3.348585
C -1.739698 -3.663764 -2.832214
C -1.672772 -3.975110 -2.262359
C -1.444782 -3.858029 -1.634207
C -1.392468 -3.495020 -0.658149
C -1.568734 -3.060499 0.193947
C -1.816590 -2.472416 0.898439
C -2.035406 -1.838845 1.361107
C -2.011392 -1.531754 1.546141
C -1.982613 -1.231843 1.663878
C -2.013800 -1.082164 1.742583
C -2.210421 -0.901786 1.620887
C -2.425819 -0.693235 1.408992
C -2.574087 -0.519289 1.208274
C -2.647792 -0.336532 1.098524
C -2.684076 -0.156170 0.969383
C -2.683169 0.021661 0.743589
C -2.805122 0.280215 0.474984
C -2.858441 0.484438 0.347978
C -2.876344 0.779920 0.325545
C -2.886169 0.954984 0.309291
C -2.810617 1.198583 0.385401
C -2.694491 1.320627 0.564950
C -2.642560 1.442314 0.854883
C -2.500418 1.486415 1.095069
C -2.196723 1.501737 1.227475
C -1.816212 1.389853 1.406743
C -1.570004 1.332228 1.492007
C -1.411318 1.218472 1.431139
C -1.317820 1.322848 1.311582
C -1.186104 1.467012 1.175183
C -1.145671 1.540662 1.066124
C -1.104790 1.483484 1.008672
C -1.009239 1.484130 1.095687
C -0.956782 1.506833 1.272992
C -0.951753 1.520647 1.573838
C -0.874214 1.336969 1.832420
C -0.743731 1.086275 2.039426
C -0.516419 0.860271 2.219239
C -0.369670 0.811610 2.425589
C -0.232262 0.724872 2.511388
C 0.126106 0.751484 2.539219
C 0.543393 0.758742 2.509890
C 0.971527 0.872413 2.439962
C 1.296334 0.912847 2.406895
C 1.502360 0.964042 2.284529
C 1.626761 1.014844 2.183554
C 1.744329 0.977369 2.146303
C 1.686083 0.821761 2.115735
C 1.658608 0.613715 2.144096
C 1.496174 0.350588 2.179492
C 1.319033 0.148873 2.226867
C 1.146764 -0.102413 2.336492
C 1.049891 -0.368596 2.298596
C 0.728353 -0.496510 2.068670
C 0.465750 -0.681607 1.829367
C 0.186651 -0.821580 1.525348
C 0.163391 -0.897773 1.404816
C 0.370202 -0.943127 1.293727
C 0.689531 -0.916820 1.221213
C 1.018301 -0.895030 1.169427
C 1.684054 -0.959213 1.145563
C 2.229488 -0.957583 1.200538
C 2.812252 -0.999850 1.306370
C 3.121186 -1.109748 1.269742
C 3.174827 -1.244513 1.227580
C 3.101369 -1.448727 1.242132
C 2.945223 -1.699772 1.308355
C 2.675146 -2.020824 1.388880
C 2.546628 -2.145846 1.456722
C 2.333215 -2.260876 1.512688
C 2.221854 -2.391905 1.610644
