94
chr21 3D structure from Hi-C (resolution 500000bp)
C -0.615098 5.297877 2.507258
C -0.766947 5.392544 1.931965
C -0.987145 5.387252 1.379796
C -1.263850 5.288962 0.897966
C -1.726218 5.184412 0.049674
C -2.311342 4.881962 -0.698292
C -2.937874 4.358385 -1.338006
C -3.398013 3.601293 -1.913898
C -3.738052 2.869642 -2.514584
C -3.844076 2.098303 -3.057474
C -3.904438 1.122260 -3.422212
C -3.902522 0.118716 -3.541150
C -3.921875 -0.663326 -3.565609
C -4.021847 -1.143774 -3.411679
C -4.233790 -1.318567 -2.943786
C -4.449228 -1.501589 -2.107433
C -4.644661 -1.714901 -1.077702
C -4.670213 -1.716743 -0.171345
C -4.620553 -1.357584 0.700413
C -4.636895 -0.690011 1.362876
C -4.484255 -0.035372 1.837650
C -4.260388 0.572729 2.174142
C -3.878349 0.977011 2.595440
C -3.430754 1.176890 2.845260
C -2.982439 1.507587 3.101459
C -2.319408 1.607959 2.926709
C -1.389841 1.351757 2.831236
C -0.541198 0.903548 2.804332
C 0.188329 0.364270 2.740147
C 0.634252 -0.038214 2.473833
C 0.781749 -0.169364 2.277340
C 0.953634 -0.310863 2.126942
C 1.032645 -0.429913 2.091314
C 0.824001 -0.711582 2.117872
C 0.640148 -0.979630 2.197305
C 0.481367 -1.243095 2.278654
C 0.447272 -1.442796 2.309060
C 0.383530 -1.582450 2.183418
C 0.244051 -1.795254 2.028609
C -0.006338 -2.067915 1.971369
C -0.050030 -2.228475 1.856633
C -0.033180 -2.437255 1.802727
C 0.057771 -2.561384 1.695563
C 0.137544 -2.689544 1.494792
C 0.401110 -2.745485 1.466256
C 0.664940 -2.788417 1.443075
C 0.951831 -2.700824 1.417984
C 1.265163 -2.513267 1.393813
C 1.542816 -2.232624 1.211465
C 1.632341 -2.058311 1.008995
C 1.625521 -1.969896 0.903491
C 1.466611 -2.009856 0.724931
C 1.250018 -2.023715 0.500444
C 1.074443 -2.104359 0.322426
C 1.020386 -2.151738 0.159143
C 1.035304 -2.097199 0.036999
C 1.140282 -2.084413 -0.027712
C 1.115688 -2.005366 -0.117469
C 1.240421 -1.887688 -0.192299
C 1.493503 -1.580807 -0.120041
C 1.691811 -1.225736 -0.091391
C 1.792287 -0.980606 -0.068521
C 1.898121 -0.750134 -0.060665
C 2.057838 -0.333626 -0.098735
C 2.395933 0.044986 -0.124690
C 2.622583 0.535685 -0.087535
C 2.686999 0.811558 -0.176236
C 2.742752 1.018423 -0.238537
C 2.675750 1.164794 -0.302116
C 2.596075 1.232862 -0.415372
C 2.503451 1.128415 -0.520727
C 2.501348 1.059187 -0.631524
C 2.452509 0.794129 -0.742517
C 2.396016 0.498798 -0.837383
C 2.278819 0.281874 -0.947967
C 2.256623 0.118275 -1.024168
C 1.970417 -0.112629 -0.976298
C 1.613653 -0.334804 -0.901193
C 1.182905 -0.509654 -0.799920
C 1.029412 -0.524891 -0.851270
C 1.024881 -0.375333 -0.988837
C 1.092833 -0.193117 -1.174744
C 1.089975 0.022473 -1.423683
C 1.154728 0.344324 -1.897722
C 1.383260 0.705848 -2.277930
C 1.564707 0.947485 -2.739037
C 1.540934 1.054329 -2.989323
C 1.479438 1.090435 -3.138362
C 1.410467 0.903912 -3.213004
C 1.398506 0.684115 -3.282078
C 1.416380 0.759917 -3.108546
C 1.382946 0.623332 -3.087278
C 1.411590 0.569704 -2.970710
C 1.481822 0.625893 -2.943093
