342
chr6 3D structure from Hi-C (resolution 500000bp)
C -1.768968 1.366518 -2.801758
C -1.751493 1.322608 -2.823137
C -1.717393 1.250828 -2.809208
C -1.675033 1.244865 -2.797931
C -1.821236 1.126526 -2.708039
C -1.855922 0.938503 -2.631831
C -1.952727 0.831972 -2.578214
C -2.027251 0.779522 -2.524745
C -2.117127 0.679251 -2.444479
C -2.215477 0.564364 -2.381632
C -2.268559 0.436919 -2.316226
C -2.319434 0.374141 -2.272267
C -2.303254 0.303729 -2.235382
C -2.197301 0.118198 -2.122086
C -2.286027 -0.137966 -1.939351
C -2.356799 -0.383438 -1.736100
C -2.441450 -0.502491 -1.560343
C -2.548946 -0.672862 -1.425900
C -2.576843 -0.765750 -1.351322
C -2.442811 -0.713545 -1.385932
C -2.335938 -0.586115 -1.554643
C -2.189742 -0.368920 -1.816319
C -2.193780 -0.244172 -2.004733
C -2.034385 -0.150195 -2.257484
C -1.855781 -0.014802 -2.515758
C -1.646097 -0.003379 -2.724278
C -1.579915 0.004765 -2.856336
C -1.539894 -0.025223 -2.921383
C -1.532431 -0.148288 -2.914431
C -1.283238 -0.142215 -2.992765
C -1.237881 -0.221782 -2.908597
C -1.388275 -0.374622 -2.703993
C -1.559854 -0.523742 -2.533000
C -1.657914 -0.731597 -2.348665
C -1.813251 -0.989153 -2.059398
C -1.943115 -1.174650 -1.776095
C -2.150188 -1.368714 -1.543597
C -2.215678 -1.519471 -1.482790
C -2.037903 -1.517687 -1.583976
C -1.912648 -1.561380 -1.670307
C -1.921608 -1.602287 -1.763488
C -1.834888 -1.612182 -1.975014
C -1.842916 -1.632915 -2.121583
C -1.860804 -1.673361 -2.118996
C -1.942561 -1.715973 -2.016693
C -2.094249 -1.865080 -1.959633
C -1.955866 -1.774476 -2.006759
C -1.795048 -1.591822 -2.080476
C -1.641285 -1.383133 -2.068696
C -1.333512 -0.957356 -2.280361
C -0.984298 -0.357243 -2.608746
C -0.679282 0.046521 -2.962994
C -0.406907 0.551760 -3.163972
C -0.278211 0.711640 -3.234383
C -0.789478 0.523162 -2.717174
C -1.304457 0.338719 -2.203920
C -1.823499 -0.023645 -1.515837
C -2.334942 -0.553810 -0.747758
C -2.805226 -0.891944 0.094641
C -3.255547 -1.332492 0.940579
C -2.717344 -1.196616 1.105770
C -2.766020 -1.058366 1.104652
C -2.823991 -0.910450 1.000194
C -1.981260 -0.245658 0.378763
C -1.266035 0.193839 -0.384180
C -0.591395 0.674382 -1.233519
C 0.102956 1.103120 -2.098856
C -0.352977 1.122414 -2.274899
C 0.393687 1.363311 -2.824002
C 1.198421 1.597022 -3.371448
C 1.106880 1.266132 -3.467342
C 1.165031 1.165117 -3.445672
C 1.179449 0.963293 -3.379864
C 1.173484 0.736216 -3.306725
C 1.182683 0.521700 -3.213474
C 1.139432 0.306732 -3.195965
C 1.101176 0.081428 -3.171722
C 0.989298 -0.193483 -3.165484
C 0.847826 -0.431120 -3.136178
C 0.855038 -0.582859 -3.158075
C 0.795061 -0.579956 -3.241780
C 0.823003 -0.559277 -3.291360
C 0.978959 -0.466113 -3.318558
C 1.068677 -0.487782 -3.365356
C 1.231867 -0.429817 -3.329106
C 1.297957 -0.484907 -3.352332
C 1.165501 -0.626255 -3.254630
C 1.096263 -0.816461 -3.082379
C 0.966074 -1.035691 -2.988649
C 0.780845 -1.353901 -2.851619
C 0.551060 -1.631899 -2.641211
C 0.308585 -1.863086 -2.453680
C 0.133558 -2.015656 -2.239794
C -0.030849 -2.219729 -2.028801
C -0.148691 -2.463673 -1.822610
C -0.199655 -2.671895 -1.632927
C -0.402484 -2.807897 -1.435852
C -0.614770 -2.900748 -1.254123
C -0.698259 -3.048320 -1.134701
C -0.784778 -3.095563 -0.982265
C -0.704420 -3.044739 -0.984773
C -0.721933 -2.961805 -1.143161
C -0.715761 -2.829566 -1.233131
C -0.500104 -2.753059 -1.432053
C -0.345910 -2.639089 -1.465918
C -0.446558 -2.597314 -1.391713
C -0.432345 -2.658106 -1.395625
C -0.494539 -2.748003 -1.279111
C -0.571003 -2.869133 -1.005174
C -0.468448 -2.988148 -0.917264
C -0.318813 -2.991176 -0.875781
C -0.024280 -3.002584 -1.041935
C 0.393541 -3.068281 -1.182863
C 0.148477 -3.109986 -0.996601
C 0.829764 -2.642560 -1.242466
C 1.555483 -2.193051 -1.521583
C 2.062402 -1.909189 -1.662745
C 2.313847 -1.882418 -1.619041
C 1.778099 -1.916889 -1.104902
C 1.173724 -1.793101 -0.621918
C 1.228089 -1.686526 -0.402090
C 0.411815 -2.093061 0.179451
C -0.401016 -2.504559 0.687997
C -0.955933 -2.652062 1.024967
C -1.351387 -2.591715 1.273699
C -1.091708 -2.500308 1.232309
C -0.868440 -2.563035 1.204264
C -0.694686 -2.593332 1.092711
C -0.547673 -2.560366 1.032460
C -0.372199 -2.509968 1.042932
C -0.415589 -2.614438 1.173173
C -0.510043 -2.713929 1.373292
C -0.518492 -2.852972 1.449816
C -0.438059 -2.839702 1.356377
C -0.338567 -2.893758 1.342327
C -0.227773 -3.018639 1.258075
C -0.027941 -2.905443 1.040787
C 0.062354 -2.892020 0.941565
C 0.344130 -2.900056 0.721260
C 0.515990 -2.827810 0.551597
C 0.665107 -2.750366 0.552817
C 0.784169 -2.733628 0.492509
C 0.961472 -2.409493 0.279085
C 1.070032 -2.383114 0.175636
C 1.282629 -2.327599 0.057805
C 1.214551 -2.355157 0.204976
C 1.324186 -2.402494 0.210016
C 1.498210 -2.486044 0.118677
C 1.624944 -2.433880 0.035076
C 1.533066 -2.586351 0.350302
C 1.365854 -2.631665 0.670088
C 1.232711 -2.658533 0.998462
C 1.209879 -2.640468 1.168789
C 1.154764 -2.643004 1.350680
C 1.133304 -2.568955 1.492714
C 1.252142 -2.482032 1.409514
C 1.320976 -2.469923 1.373891
C 1.422737 -2.392490 1.274097
C 1.550351 -2.352575 1.186089
C 1.617516 -2.299476 1.148068
C 1.775830 -2.174390 1.058583
C 1.892879 -2.060886 0.974296
C 1.922216 -2.078868 1.111646
C 2.100939 -1.940831 0.947799
C 2.322500 -1.914409 0.879432
C 2.463089 -1.872809 0.773540
C 2.547905 -1.761472 0.589647
C 2.598464 -1.696574 0.483074
C 2.692384 -1.624060 0.329841
C 2.602598 -1.518786 0.406892
C 2.613677 -1.502651 0.502181
C 2.577293 -1.396113 0.392037
C 2.523757 -1.191705 0.216927
C 2.683204 -0.975498 0.079381
C 2.629257 -0.745994 -0.097296
C 2.504374 -0.568893 -0.147174
C 2.552440 -0.359107 -0.365742
C 2.585522 -0.209093 -0.504772
C 2.515507 -0.190763 -0.282337
C 2.556986 -0.195782 -0.014190
C 2.560020 -0.233962 0.212919
C 2.675658 -0.293458 0.518891
C 2.730432 -0.408524 0.875749
C 2.836281 -0.450326 1.189138
C 2.729618 -0.549901 1.570567
C 2.684882 -0.642230 1.777466
C 2.557095 -0.806271 2.042264
C 2.497833 -0.796698 2.237334
C 2.351573 -0.793661 2.364638
C 2.394539 -0.792433 2.455365
C 2.271417 -0.771810 2.476565
C 2.298581 -0.646912 2.411040
C 2.232432 -0.586034 2.454772
C 2.137916 -0.533672 2.399602
C 1.949306 -0.608768 2.470918
C 1.839073 -0.566653 2.365611
C 1.641959 -0.547696 2.300515
C 1.587788 -0.532098 2.359848
C 1.574421 -0.509773 2.253092
C 1.427155 -0.517702 2.205084
C 1.261001 -0.467343 2.330988
C 1.109807 -0.513827 2.375469
C 1.027043 -0.639941 2.650774
C 0.849361 -0.702177 2.807715
C 0.504493 -0.881341 2.927673
C 0.309193 -0.980093 3.132715
C 0.673317 -0.751596 2.984723
C 1.068577 -0.492563 2.570629
C 1.385215 -0.137964 2.107451
C 1.635310 0.197850 1.542690
C 1.920144 0.580911 0.984083
C 2.312556 0.943800 0.356832
C 2.453458 1.228142 -0.210103
C 2.314718 1.304419 -0.610012
C 2.153726 1.403173 -0.858671
C 2.083262 1.469819 -1.060742
C 2.177012 1.460520 -1.101608
C 2.156102 1.493864 -1.148222
C 2.159915 1.623906 -1.166849
C 2.286626 1.725139 -1.149403
C 2.336587 1.793278 -1.007954
C 2.304796 1.679125 -0.752445
C 1.784086 1.293025 -0.105984
C 1.133465 1.029880 0.378163
C 1.103669 0.912779 0.629743
C 0.684668 0.534643 1.242529
C 0.330055 0.255086 1.802748
C 0.058426 0.000979 2.308772
C -0.155528 -0.116595 2.618440
C 0.321286 0.219490 2.271076
C 0.758471 0.479814 2.174876
C 0.514144 0.368349 2.411478
C 0.537150 0.499893 2.305129
C 0.448373 0.525082 2.271253
C 0.462135 0.639991 1.992434
C 0.574256 0.781490 1.809175
C 0.336416 0.666180 2.024048
C -0.040941 0.499983 2.269503
C -0.287175 0.472443 2.439090
C -0.258610 0.537009 2.549977
C -0.313239 0.516326 2.680963
C -0.334645 0.545351 2.915204
C -0.397520 0.569868 3.125597
C -0.403455 0.661170 3.251058
C -0.165555 0.821876 3.171400
C 0.026687 0.973966 3.176203
C 0.186523 1.029010 3.164338
C 0.400947 1.211906 3.019165
C 0.571518 1.409580 2.870525
C 0.621381 1.539389 2.782196
C 0.761945 1.579272 2.711777
C 0.852940 1.686791 2.611002
C 1.264696 1.846949 2.377746
C 1.766817 1.884018 1.832719
C 1.804616 1.883472 1.758994
C 1.812428 1.796019 1.836828
C 1.877167 1.778955 1.613650
C 1.778283 1.766342 1.425483
C 1.659178 1.693702 1.212625
C 1.400874 1.671477 1.150144
C 0.924520 1.769759 1.510332
C 0.947408 1.878444 1.396323
C 0.974180 2.006699 1.190517
C 1.037695 2.146711 1.264209
C 1.161453 2.269443 1.291223
C 1.267118 2.488990 1.181395
C 1.333084 2.519934 1.043837
C 1.397243 2.599394 0.743480
C 1.412847 2.656145 0.628924
C 1.363736 2.760861 0.455882
C 1.291921 2.812919 0.162564
C 1.215205 2.854118 -0.159118
C 1.154850 2.857776 -0.275290
C 1.043814 2.972290 -0.444549
C 0.942879 2.970299 -0.409239
C 0.880657 3.016057 -0.394881
C 0.782580 2.971366 -0.245309
C 0.548845 2.984144 0.107001
C 0.128486 2.737234 0.617347
C 0.009130 2.768595 1.087363
C -0.154964 2.711352 1.526955
C -0.321307 2.606136 1.869770
C -0.427530 2.511076 1.917767
C -0.500385 2.454022 1.942373
C -0.444090 2.326841 1.772570
C -0.146684 2.694143 1.391633
C -0.147357 2.657239 1.161451
C -0.098666 2.685392 1.010182
C -0.041828 2.861536 0.895549
C -0.305053 2.783954 1.139822
C -0.532666 2.636443 1.384437
C -0.757073 2.606020 1.609082
C -0.905646 2.338786 1.905748
C -1.099102 2.145291 2.006595
C -1.204055 2.125752 1.886417
C -1.203913 1.997679 1.627901
C -0.989618 2.193057 1.104579
C -0.882836 2.370654 0.685881
C -0.683164 2.464559 0.309252
C -0.624525 2.706891 -0.009131
C -0.606181 2.899169 -0.132820
C -0.618476 2.886422 -0.032885
C -0.783139 2.914955 0.248631
C -0.896270 2.782375 0.643899
C -1.052734 2.587833 0.983252
C -1.141834 2.452126 1.223358
C -1.218404 2.390382 1.253544
C -1.140068 2.330985 1.123914
C -1.199042 2.290083 1.068231
C -1.286401 2.350513 0.849803
C -1.318288 2.510144 0.477924
C -1.192894 2.708385 0.084627
C -1.227556 2.815215 -0.193100
C -1.142177 2.785329 -0.362780
C -1.171284 2.844361 -0.523770
C -1.215013 2.941438 -0.709615
C -1.197149 2.862858 -0.737580
C -1.299554 2.682233 -0.524424
C -1.537712 2.624023 -0.353487
C -1.708677 2.555970 -0.098783
C -1.957022 2.450708 0.230316
C -2.144547 2.271253 0.616773
C -2.257674 2.103658 0.913526
C -2.292902 2.011991 1.121607
C -2.321926 2.005768 1.199037
C -2.297399 1.805794 1.392598
C -2.326574 1.652779 1.512069
C -2.381683 1.519465 1.597155
C -2.408567 1.496041 1.592020
C -2.404639 1.526510 1.365350
C -2.457776 1.582854 1.130786
C -2.447356 1.623973 0.937510
C -2.519359 1.765189 0.709761
C -2.584678 1.810175 0.562062
C -2.648094 1.787797 0.530630
C -2.782289 1.668341 0.535132
C -2.964651 1.451225 0.722044
C -3.165088 1.275545 0.888113
C -3.474547 1.034009 0.959039
C -3.577757 0.856268 1.061708
C -3.674552 0.730626 1.105340
C -3.803698 0.710324 0.970381
