342
chr6 3D structure from Hi-C (resolution 500000bp)
C -1.596550 1.408340 -2.855897
C -1.652905 1.401044 -2.813399
C -1.616171 1.332881 -2.770010
C -1.545960 1.272823 -2.770647
C -1.698868 1.164120 -2.678679
C -1.783186 0.974645 -2.607328
C -1.785124 0.903954 -2.625653
C -1.783499 0.812941 -2.598909
C -1.882102 0.691477 -2.557751
C -1.965558 0.614117 -2.514498
C -2.040265 0.574753 -2.431318
C -2.085614 0.534260 -2.361726
C -2.083901 0.464573 -2.280572
C -2.092990 0.279872 -2.072369
C -2.275509 0.107141 -1.876601
C -2.326914 -0.093613 -1.673411
C -2.457171 -0.269009 -1.529839
C -2.581926 -0.482222 -1.428746
C -2.612804 -0.595464 -1.401026
C -2.484961 -0.611943 -1.487821
C -2.306010 -0.475324 -1.697594
C -2.169079 -0.405384 -1.922623
C -2.125456 -0.325852 -2.153813
C -1.956277 -0.234494 -2.350394
C -1.832355 -0.127318 -2.552409
C -1.670246 -0.062956 -2.719239
C -1.635766 -0.027368 -2.814314
C -1.646783 -0.104223 -2.841768
C -1.533482 -0.096301 -2.897962
C -1.288040 -0.077933 -2.902573
C -1.182695 -0.136296 -2.849578
C -1.204903 -0.352067 -2.746315
C -1.234634 -0.623011 -2.670086
C -1.316211 -0.822199 -2.433751
C -1.465681 -1.072667 -2.137224
C -1.721337 -1.305144 -1.792494
C -1.958833 -1.555068 -1.564643
C -2.086048 -1.672265 -1.502497
C -2.030570 -1.606844 -1.497637
C -2.096954 -1.583679 -1.450003
C -2.165813 -1.641295 -1.489456
C -2.193178 -1.617531 -1.638860
C -2.177032 -1.617798 -1.782961
C -2.147927 -1.645119 -1.824157
C -2.248731 -1.745065 -1.734064
C -2.422161 -1.828007 -1.624638
C -2.211272 -1.781137 -1.707584
C -1.951390 -1.587633 -1.864244
C -1.688193 -1.400697 -1.934089
C -1.344932 -1.010940 -2.149147
C -1.049416 -0.437400 -2.499261
C -0.727332 -0.095698 -2.857615
C -0.411602 0.257377 -3.204771
C -0.367988 0.340051 -3.323075
C -0.899207 0.210649 -2.819824
C -1.426025 0.055853 -2.278105
C -1.971891 -0.264158 -1.593879
C -2.469594 -0.723763 -0.766931
C -2.928378 -0.993585 0.089168
C -3.352445 -1.357062 0.964012
C -2.712968 -1.432323 1.161653
C -2.750096 -1.336176 1.141204
C -2.800923 -1.206709 0.983715
C -1.860098 -0.655331 0.358096
C -1.169312 -0.254065 -0.440956
C -0.417675 0.171703 -1.278230
C 0.226820 0.678993 -2.116111
C -0.195706 0.951567 -2.305297
C 0.564519 1.227737 -2.841824
C 1.363981 1.430593 -3.359255
C 1.097158 1.243107 -3.467478
C 1.133909 1.099350 -3.477691
C 1.014896 0.988121 -3.414237
C 1.017401 0.763517 -3.328799
C 0.979810 0.626326 -3.245429
C 0.936279 0.396644 -3.251682
C 0.872605 0.226697 -3.225734
C 0.892320 -0.094136 -3.179757
C 0.824649 -0.248353 -3.061547
C 0.893692 -0.447578 -3.079354
C 0.923185 -0.556637 -3.149837
C 0.991798 -0.532625 -3.194130
C 1.155543 -0.509030 -3.214302
C 1.349511 -0.483096 -3.223458
C 1.459269 -0.378403 -3.221501
C 1.448401 -0.420366 -3.306962
C 1.304332 -0.539160 -3.216037
C 1.166891 -0.686425 -3.064991
C 1.024169 -0.945057 -2.980950
C 0.736529 -1.220452 -2.852360
C 0.435546 -1.567242 -2.704668
C 0.189120 -1.820265 -2.527299
C 0.048927 -2.023974 -2.269825
C -0.123692 -2.246819 -2.069965
C -0.281536 -2.462260 -1.872044
C -0.384655 -2.641549 -1.639735
C -0.414163 -2.790017 -1.485364
C -0.620166 -2.902923 -1.249199
C -0.764379 -3.052996 -1.117863
C -0.855940 -3.108619 -1.027740
C -0.787664 -3.047026 -1.056742
C -0.656681 -2.969066 -1.210437
C -0.590059 -2.814049 -1.301402
C -0.445975 -2.700356 -1.420717
C -0.232817 -2.565775 -1.535106
C -0.232356 -2.552322 -1.470208
C -0.226732 -2.566861 -1.418209
C -0.320274 -2.653627 -1.271863
C -0.554413 -2.752899 -0.988010
C -0.527976 -2.891282 -0.878035
C -0.364602 -2.874238 -0.851773
C -0.161062 -2.894939 -0.959078
C -0.386655 -2.880512 -0.767692
C -0.638559 -2.900185 -0.563438
C 0.100763 -2.337076 -0.783536
C 0.907041 -1.818300 -1.042275
C 1.493892 -1.443190 -1.195204
C 1.690739 -1.467503 -1.168632
C 1.223055 -1.510102 -0.590667
C 1.822690 -1.639583 -0.841002
C 1.989868 -1.701462 -0.775779
C 1.194460 -2.245541 -0.278212
C 0.361698 -2.731973 0.206221
C -0.174088 -3.023290 0.482500
C -0.561898 -3.004567 0.749436
C -0.344390 -2.911812 0.595193
C -0.709156 -2.767980 0.990419
C -0.572660 -2.699524 0.919420
C -0.456541 -2.668083 0.898472
C -0.276719 -2.634770 0.949321
C -0.370475 -2.692168 1.101699
C -0.452160 -2.687603 1.302648
C -0.459069 -2.801816 1.459697
C -0.332807 -2.856095 1.420742
C -0.268178 -2.866674 1.521925
C -0.151920 -2.941503 1.490585
C 0.067188 -2.801289 1.199126
C 0.277554 -2.773758 1.010074
C 0.521761 -2.819689 0.751487
C 0.625154 -2.786958 0.583495
C 0.697196 -2.653398 0.556722
C 0.823310 -2.657688 0.462569
C 1.007219 -2.308987 0.210418
C 1.093133 -2.297583 0.153489
C 1.201283 -2.202189 0.082786
C 1.159812 -2.256781 0.220882
C 1.287090 -2.329080 0.135893
C 1.515912 -2.432913 -0.036578
C 1.661897 -2.333761 -0.131473
C 1.588916 -2.535284 0.149836
C 1.481263 -2.613716 0.396870
C 1.343816 -2.716399 0.752395
C 1.422112 -2.722055 0.839537
C 1.399583 -2.657759 1.095376
C 1.312883 -2.571748 1.287860
C 1.399671 -2.532152 1.235784
C 1.520923 -2.531313 1.181476
C 1.599740 -2.446364 1.125663
C 1.688411 -2.395994 1.075352
C 1.736855 -2.301086 1.076325
C 1.897731 -2.235159 0.905862
C 2.066696 -2.100322 0.741655
C 2.079808 -2.061015 0.847554
C 2.158585 -1.888353 0.725502
C 2.343081 -1.861331 0.733296
C 2.526159 -1.782137 0.602529
C 2.515470 -1.668830 0.625430
C 2.533295 -1.542720 0.625525
C 2.637568 -1.481221 0.617590
C 2.599757 -1.448635 0.728515
C 2.577942 -1.487383 0.887901
C 2.582116 -1.353407 0.752136
C 2.492568 -1.153015 0.569413
C 2.623947 -0.976692 0.255899
C 2.640406 -0.769267 0.072527
C 2.474390 -0.616594 -0.069835
C 2.418607 -0.397766 -0.314489
C 2.486760 -0.203097 -0.488538
C 2.350918 -0.225003 -0.310778
C 2.380118 -0.308678 0.015503
C 2.394820 -0.335049 0.316673
C 2.366834 -0.490711 0.724244
C 2.333319 -0.615871 1.198804
C 2.362215 -0.788537 1.637390
C 2.250437 -0.875843 2.020846
C 2.215133 -0.950034 2.238885
C 2.103698 -1.006322 2.496912
C 2.042827 -0.987599 2.681175
C 2.076608 -0.881146 2.604599
C 2.305284 -0.727463 2.501732
C 2.399018 -0.506558 2.341879
C 2.477890 -0.401649 2.219492
C 2.641741 -0.198972 2.155815
C 2.684693 -0.026505 2.074979
C 2.673195 0.066058 2.019712
C 2.487986 0.101097 1.985086
C 2.232812 0.045934 2.026377
C 2.018787 -0.060398 2.133787
C 1.915006 -0.030354 2.134360
C 1.598538 -0.165333 2.165604
C 1.245352 -0.372703 2.260776
C 0.885009 -0.606818 2.426331
C 0.844219 -0.679375 2.680770
C 0.672190 -0.773334 2.854167
C 0.555355 -0.845442 3.012414
C 0.370069 -0.992729 3.160672
C 0.241295 -1.045150 3.222586
C 0.357207 -0.875153 3.049602
C 0.725202 -0.539290 2.520513
C 0.949769 -0.281172 1.964609
C 1.122350 0.055695 1.322972
C 1.311075 0.438432 0.663453
C 1.549634 0.758655 0.090446
C 1.864509 1.101559 -0.475259
C 2.073586 1.340493 -0.921334
C 2.053231 1.424905 -1.027760
C 2.127217 1.490193 -1.068467
C 2.242280 1.502133 -0.988601
C 2.338872 1.554222 -0.996246
C 2.465538 1.643000 -0.917525
C 2.532857 1.700098 -0.768268
C 2.422029 1.583926 -0.338228
C 1.841577 1.234082 0.249691
C 1.152678 0.896440 0.746482
C 1.064790 0.789636 0.945638
C 0.573259 0.392024 1.523566
C 0.096032 0.068421 2.006587
C -0.328611 -0.229825 2.469709
C -0.570173 -0.343609 2.577530
C -0.098997 -0.047238 2.247520
C 0.274027 0.183161 2.125202
C -0.016105 0.119294 2.342083
C 0.071876 0.293494 2.265732
C 0.019012 0.343515 2.204597
C 0.140721 0.526757 1.947715
C 0.224086 0.665582 1.770734
C 0.009769 0.566214 2.005509
C -0.301734 0.451342 2.246362
C -0.531427 0.388997 2.388334
C -0.640201 0.377559 2.506462
C -0.683628 0.456277 2.650347
C -0.783801 0.456728 2.836234
C -0.798471 0.467847 3.055328
C -0.824812 0.552080 3.168455
C -0.684440 0.684201 3.130883
C -0.485625 0.852660 3.158428
C -0.305341 0.942319 3.183991
C -0.073289 1.053555 3.107278
C 0.238014 1.229122 2.998999
C 0.400188 1.408828 2.875460
C 0.514064 1.411366 2.861993
C 0.652829 1.550735 2.748678
C 0.956672 1.658377 2.672621
C 1.566173 1.689485 2.143608
C 1.589494 1.713332 2.047136
C 1.499489 1.638104 2.155132
C 1.520218 1.617808 1.890056
C 1.505395 1.694009 1.527299
C 1.569990 1.648152 1.285764
C 1.504735 1.675657 1.017339
C 1.042588 1.792811 1.295617
C 1.057396 1.823529 1.157745
C 1.093264 2.002613 0.947566
C 1.187311 2.064765 1.132024
C 1.251568 2.175186 1.249068
C 1.329580 2.316057 1.215701
C 1.289702 2.347130 1.082033
C 1.328392 2.431588 0.777721
C 1.398658 2.560242 0.616696
C 1.430195 2.609082 0.430864
C 1.366137 2.716809 0.119005
C 1.327596 2.757061 -0.169178
C 1.210056 2.796179 -0.370020
C 1.163724 2.916471 -0.496603
C 1.057890 2.921755 -0.434916
C 0.975123 2.966657 -0.451675
C 0.800605 2.910231 -0.209287
C 0.882504 2.906580 0.055129
C 0.915446 3.005829 0.373406
C 0.897019 3.065805 0.823173
C 0.759106 2.967549 1.287933
C 0.599752 2.907791 1.610447
C 0.509790 2.798142 1.771920
C 0.472918 2.805909 1.675572
C 0.221790 2.743139 1.588144
C 0.086220 2.746420 1.407255
C -0.010518 2.696749 1.261477
C -0.094751 2.658466 1.178992
C -0.140300 2.819574 1.051509
C -0.308029 2.865664 1.240984
C -0.507643 2.775739 1.455048
C -0.704543 2.823859 1.596412
C -0.870042 2.619928 1.783836
C -0.995865 2.514862 1.806729
C -0.914129 2.617402 1.547379
C -0.806673 2.463543 1.282772
C -0.687427 2.563060 0.790286
C -0.558878 2.672203 0.392276
C -0.446358 2.627958 0.084443
C -0.430102 2.804882 -0.109724
C -0.424526 2.943782 -0.221554
C -0.513927 2.912671 -0.144951
C -0.726068 2.943621 0.136697
C -0.892883 2.759728 0.518022
C -1.042318 2.695869 0.782670
C -1.133003 2.645926 0.961315
C -1.199973 2.602116 0.953484
C -1.203625 2.467048 0.866462
C -1.283150 2.482405 0.849756
C -1.335787 2.525102 0.675721
C -1.316678 2.702359 0.264755
C -1.252607 2.780364 -0.059855
C -1.217014 2.875053 -0.299189
C -1.075675 2.822597 -0.466081
C -1.066322 2.913529 -0.618939
C -1.116318 2.924032 -0.785212
C -1.052085 2.884864 -0.854698
C -1.110675 2.781849 -0.638000
C -1.345382 2.686676 -0.448140
C -1.571821 2.580838 -0.219712
C -1.827289 2.457720 0.165517
C -2.033444 2.229804 0.569793
C -2.116335 2.088392 0.902146
C -2.196964 1.955068 1.137153
C -2.287532 1.860854 1.253739
C -2.263127 1.779753 1.363144
C -2.315898 1.672080 1.468943
C -2.374236 1.609902 1.507702
C -2.384964 1.641886 1.469725
C -2.432647 1.599915 1.311828
C -2.493894 1.639677 1.149635
C -2.519822 1.688815 0.976729
C -2.572845 1.721444 0.774484
C -2.600373 1.723156 0.663224
C -2.723658 1.737237 0.512990
C -2.839049 1.650517 0.553226
C -3.011241 1.601887 0.570226
C -3.195108 1.471132 0.650336
C -3.447360 1.203753 0.790697
C -3.550173 1.066501 0.942822
C -3.668641 0.981244 0.986800
C -3.727472 0.896138 1.010415
