271
chr11 3D structure from Hi-C (resolution 500000bp)
C -2.945283 3.865205 0.706529
C -3.025792 3.667157 0.481750
C -3.018333 3.617992 0.335263
C -2.916369 3.586064 0.245618
C -2.831368 3.475655 0.055190
C -2.755827 3.225303 -0.283479
C -2.596704 2.892226 -0.656492
C -2.367032 2.570638 -1.051915
C -2.122479 2.338922 -1.302892
C -2.004636 2.191523 -1.536912
C -1.987008 2.045207 -1.802767
C -1.975636 1.847196 -2.067548
C -1.973147 1.911211 -2.144853
C -1.905674 2.037637 -2.050951
C -1.814747 2.251484 -1.843206
C -1.766803 2.550352 -1.607012
C -1.602477 2.638974 -1.417678
C -1.485160 2.696602 -1.335329
C -1.435603 2.779539 -1.246100
C -1.276895 2.658701 -1.160913
C -1.261101 2.604156 -1.142418
C -1.166920 2.451665 -1.262005
C -1.209509 2.216649 -1.600384
C -1.228093 2.019329 -1.838333
C -1.104664 1.867332 -1.990427
C -1.033307 1.721700 -2.205565
C -1.159366 1.622532 -2.548500
C -1.173868 1.491277 -2.845927
C -1.217787 1.383653 -3.030326
C -1.229243 1.179823 -3.157265
C -1.142272 1.169482 -3.198545
C -1.161968 1.291936 -3.065496
C -1.042719 1.419321 -2.878006
C -0.861160 1.666893 -2.497497
C -0.675614 1.858123 -2.186399
C -0.625701 2.080048 -2.039327
C -0.434299 2.367472 -1.802129
C -0.409195 2.434547 -1.755644
C -0.301289 2.133125 -1.948447
C -0.345308 1.746442 -2.245472
C -0.321438 1.269490 -2.565426
C -0.431224 0.871449 -2.936743
C -0.426830 0.595310 -3.100279
C -0.357601 0.268126 -3.286040
C -0.305862 -0.037185 -3.509848
C -0.320747 -0.183026 -3.651907
C -0.196987 -0.235850 -3.698447
C -0.102773 -0.334295 -3.825283
C 0.118344 -0.250691 -3.740199
C 0.286405 -0.260365 -3.706141
C 0.277700 -0.176340 -3.777997
C 0.315901 -0.059007 -3.732735
C 0.401091 0.195896 -3.681182
C 0.490893 0.589671 -3.651781
C 0.592078 0.715599 -3.700713
C 0.655122 0.664770 -3.775808
C 0.727734 0.584293 -3.893286
C 0.901192 0.685427 -3.776767
C 1.033285 0.630389 -3.752565
C 1.138060 0.585641 -3.706272
C 1.225917 0.563793 -3.608400
C 1.288942 0.873397 -3.327895
C 1.331816 1.376504 -3.031642
C 1.283921 1.806469 -2.617596
C 1.198103 2.073607 -2.319558
C 1.107989 2.474153 -1.961303
C 1.067549 2.722605 -1.730695
C 0.954369 2.696345 -1.426121
C 0.962193 2.748690 -1.361861
C 1.001603 2.573970 -1.391772
C 1.112547 2.327251 -1.568855
C 1.289683 1.742783 -1.908988
C 1.489967 1.195584 -2.280293
C 1.701547 0.815753 -2.499711
C 1.965259 0.523774 -2.808507
C 2.111856 0.056005 -2.988587
C 2.196958 -0.272337 -3.077093
C 2.295986 -0.393430 -3.219017
C 2.386909 -0.333898 -3.120166
C 2.542622 -0.249188 -3.028403
C 2.534781 -0.162108 -2.944162
C 2.521266 -0.005523 -2.849672
C 2.544283 0.214831 -2.677107
C 2.526205 0.416347 -2.602136
C 2.403784 0.555416 -2.296888
C 2.211020 0.900306 -2.001005
C 1.939502 1.284216 -1.643271
C 1.794244 1.538357 -1.328042
C 1.491666 1.790615 -0.983193
C 1.272289 2.202584 -0.650202
C 1.144630 2.605473 -0.332637
C 1.304390 2.908319 -0.186417
C 1.535438 3.029793 -0.139059
C 1.861375 2.893644 -0.294331
C 2.340887 2.692993 -0.353275
C 2.928943 2.397514 -0.552599
C 3.386227 1.947303 -0.811758
C 3.708449 1.339507 -1.085391
C 3.967511 0.994284 -1.308847
C 3.078833 0.263316 -1.801862
C 2.016467 -0.234523 -2.086401
C 0.667807 -0.536686 -2.381697
C -0.716206 -0.556192 -2.455981
C -0.610678 -0.580885 -1.864125
C -0.397643 -0.547447 -1.242949
C -1.722505 -0.733759 -1.396492
C -0.620234 -0.501648 -1.015785
C 0.547627 -0.275372 -0.651855
C 1.711286 -0.191735 -0.372572
C 3.007247 -0.408537 -0.219464
C 2.859349 -0.445112 -0.543401
C 2.477751 -0.404472 -0.918520
C 3.481787 -0.255713 -0.444700
C 3.161081 -0.119107 -0.273578
C 2.873012 0.060864 -0.040873
C 2.767294 0.284189 0.276308
C 2.614135 0.642226 0.582036
C 2.490816 0.892730 0.747640
C 2.467309 1.092042 1.042354
C 2.346818 1.435381 1.216817
C 2.170392 1.857440 1.462725
C 1.977488 2.154659 1.661307
C 1.815788 2.367357 1.867803
C 1.657417 2.484371 2.058033
C 1.566593 2.606777 2.219052
C 1.445936 2.808969 2.339491
C 1.502080 2.877023 2.444262
C 1.714144 2.829609 2.659020
C 1.919800 2.830566 2.787070
C 1.861336 2.854049 2.941390
C 1.905426 2.842835 3.142301
C 1.766443 2.789628 3.353324
C 1.670373 2.818498 3.441491
C 1.456464 2.713762 3.558312
C 1.123803 2.656748 3.509584
C 0.871260 2.556446 3.538824
C 0.651458 2.485460 3.430970
C 0.358893 2.500508 3.238938
C 0.088862 2.516471 3.055107
C -0.043472 2.258557 3.054270
C -0.170948 2.231618 3.019906
C -0.327224 2.276755 3.039673
C -0.530244 2.317323 2.946159
C -0.675301 2.462749 2.905328
C -0.773989 2.498469 2.917197
C -0.833954 2.444166 2.908708
C -0.808286 2.378710 2.866265
C -0.812061 2.200769 2.959689
C -0.630650 1.939301 3.044569
C -0.506625 1.683152 3.180711
C -0.258436 1.308222 3.233129
C -0.061790 0.993991 3.293088
C 0.134587 0.726161 3.368798
C 0.233030 0.602405 3.299734
C 0.424249 0.324574 2.977667
C 0.516927 0.095018 2.642947
C 0.778102 -0.206364 2.267113
C 1.034646 -0.489697 1.976290
C 1.299454 -0.754588 1.613290
C 1.612805 -1.090209 1.276417
C 1.780923 -1.415324 0.979842
C 2.012667 -1.709884 0.876873
C 2.186978 -1.849216 0.880191
C 2.198615 -1.854283 0.951545
C 2.060299 -1.925335 0.991124
C 2.014315 -2.000393 1.063747
C 1.943705 -2.044254 1.152266
C 2.111315 -2.174501 1.273714
C 2.117681 -2.090100 1.463579
C 1.997386 -1.992190 1.517458
C 1.930712 -2.078737 1.483312
C 2.041653 -2.118999 1.542073
C 2.031622 -2.208355 1.537408
C 1.975082 -2.090314 1.606379
C 1.868152 -2.092593 1.474980
C 1.918096 -2.338752 1.188348
C 2.160144 -2.694160 0.909200
C 2.178877 -2.873080 0.756857
C 2.082408 -3.083439 0.329806
C 1.984626 -3.194793 0.033487
C 1.878897 -3.387796 -0.289077
C 1.677686 -3.375946 -0.426684
C 1.454808 -3.280730 -0.508814
C 1.149265 -3.212504 -0.574902
C 0.989074 -3.025285 -0.502674
C 0.841300 -2.888934 -0.372405
C 0.647960 -2.676581 -0.159166
C 0.331109 -2.613274 -0.265528
C 0.072019 -2.577260 -0.235310
C -0.192845 -2.519687 -0.137012
C -0.352464 -2.644497 -0.266498
C -0.420088 -2.910303 -0.539393
C -0.442407 -3.040132 -0.643140
C -0.477562 -3.203831 -0.859952
C -0.287623 -3.360517 -0.759856
C -0.139589 -3.496110 -0.775590
C -0.083082 -3.572898 -0.899657
C -0.126972 -3.580571 -0.825306
C -0.254632 -3.551383 -0.687000
C -0.362237 -3.545208 -0.586607
C -0.314998 -3.534953 -0.418853
C -0.381775 -3.385564 -0.198164
C -0.429103 -3.178717 -0.053311
C -0.450710 -3.254257 0.066686
C -0.459549 -3.207911 0.229696
C -0.416933 -3.201242 0.346740
C -0.400758 -3.233161 0.514486
C -0.416574 -3.321827 0.617180
C -0.319714 -3.465380 0.609693
C -0.284845 -3.634197 0.681780
C -0.195794 -3.695695 0.823263
C -0.079593 -3.574001 0.980336
C 0.010280 -3.476544 1.288744
C 0.056724 -3.199386 1.618414
C 0.022011 -2.940323 1.832949
C -0.134100 -2.861156 1.948080
C -0.251856 -2.823233 2.117260
C -0.311028 -2.632961 2.414224
C -0.399005 -2.626471 2.635911
C -0.502007 -2.543374 2.565219
C -0.575716 -2.473620 2.541674
C -0.696667 -2.387370 2.638828
C -0.775062 -2.202932 2.653256
C -0.847638 -2.022697 2.584662
C -0.966328 -1.784794 2.383300
C -1.025810 -1.649503 2.222493
C -1.197194 -1.700328 2.193711
C -1.382351 -1.701559 2.121922
C -1.463663 -1.609300 2.021946
C -1.535619 -1.454159 2.085660
C -1.620151 -1.247983 2.198951
C -1.804476 -1.032395 2.345708
C -1.956891 -0.704541 2.483040
C -2.025913 -0.195133 2.635172
C -2.187815 0.173494 2.674773
C -2.324357 0.443485 2.722087
C -2.371103 0.580806 2.693794
C -2.441584 0.650377 2.709225
C -2.442687 0.591002 2.651845
C -2.606020 0.536793 2.591274
C -2.686073 0.291125 2.508314
C -2.638143 -0.134887 2.411085
C -2.609361 -0.395109 2.245316
C -2.601714 -0.497371 2.160539
C -2.701891 -0.804169 1.867280
C -2.836372 -1.097088 1.647805
C -2.856485 -1.299293 1.555052
C -2.822535 -1.287039 1.430614
C -2.768994 -1.166344 1.325503
C -2.826211 -1.203436 1.300428
C -2.905106 -1.405280 1.204837
C -2.799266 -1.425753 1.187682
C -2.657973 -1.535056 1.052625
C -2.478695 -1.601013 0.887154
C -2.390166 -1.715513 0.892927
C -2.492887 -1.911792 0.712130
C -2.508307 -2.055653 0.508232
C -2.572579 -1.912142 0.476871
C -2.597133 -1.787481 0.503469
C -2.565826 -1.654787 0.616772
C -2.649205 -1.619354 0.616844
C -2.723510 -1.604827 0.420192
C -2.655611 -1.586872 0.445930
C -2.675596 -1.483167 0.494329
C -2.647035 -1.562472 0.400157
C -2.731543 -1.397825 0.440267
C -2.895573 -1.248677 0.361851
C -3.208987 -1.041423 0.345917
C -3.297419 -0.989802 0.368849
C -3.433217 -0.747758 0.403726
C -3.531645 -0.615712 0.447251
