271
chr11 3D structure from Hi-C (resolution 500000bp)
C -2.883776 3.402779 -0.909167
C -2.903726 3.255081 -0.866815
C -3.015508 3.121360 -0.748252
C -3.040117 2.999667 -0.686939
C -3.108557 2.770136 -0.540931
C -3.213066 2.392478 -0.309558
C -3.236938 1.816776 -0.227137
C -3.226466 1.274779 -0.193104
C -3.204507 0.871134 -0.120912
C -3.204061 0.527578 -0.174094
C -3.235458 0.290560 -0.196120
C -3.251952 0.017160 -0.141735
C -3.309031 -0.074379 -0.150033
C -3.246645 0.071186 -0.203165
C -3.159206 0.324145 -0.362123
C -3.170489 0.552460 -0.487952
C -3.065147 0.666968 -0.530361
C -2.997332 0.621944 -0.555787
C -2.948263 0.767950 -0.717630
C -2.752234 0.788892 -0.850601
C -2.725260 0.731567 -0.948199
C -2.692423 0.538291 -0.906997
C -2.761486 0.247188 -0.913069
C -2.800572 0.042772 -0.904468
C -2.736725 -0.162653 -0.938426
C -2.772902 -0.419379 -0.782813
C -2.974959 -0.698771 -0.648617
C -3.092768 -0.922631 -0.560140
C -3.164130 -1.149898 -0.441781
C -3.163402 -1.319559 -0.201807
C -3.110963 -1.366670 -0.222629
C -3.136978 -1.152454 -0.295692
C -3.030456 -1.026264 -0.508236
C -2.839516 -0.695054 -0.717223
C -2.611562 -0.486264 -0.857532
C -2.531729 -0.315787 -1.071771
C -2.381694 -0.145523 -1.376029
C -2.336148 -0.232550 -1.278034
C -2.245217 -0.563677 -1.140224
C -2.270325 -0.915949 -0.908048
C -2.213308 -1.386561 -0.824145
C -2.311191 -1.780887 -0.601017
C -2.334049 -2.024307 -0.462438
C -2.245129 -2.329862 -0.333498
C -2.160553 -2.575762 -0.306033
C -2.157434 -2.721755 -0.244891
C -2.092451 -2.801220 -0.298963
C -2.110017 -2.942135 -0.213379
C -1.998593 -2.915854 -0.305544
C -1.866041 -2.891732 -0.361212
C -1.907732 -2.890541 -0.436687
C -1.943220 -2.755753 -0.603115
C -1.993432 -2.653558 -0.780149
C -1.899595 -2.738132 -0.817844
C -1.809489 -2.789450 -0.889241
C -1.776150 -2.875918 -1.019460
C -1.777020 -2.997904 -1.112745
C -1.754675 -2.905420 -1.211499
C -1.752979 -2.888118 -1.343482
C -1.690876 -2.808657 -1.526199
C -1.705198 -2.483981 -1.876375
C -1.727323 -2.133721 -2.100671
C -1.735859 -1.747276 -2.420327
C -1.729450 -1.287586 -2.580694
C -1.719877 -0.923248 -2.656408
C -1.614045 -0.591642 -2.712609
C -1.588634 -0.397675 -2.725007
C -1.491984 -0.177266 -2.585672
C -1.454726 -0.062685 -2.639109
C -1.392551 -0.096585 -2.499666
C -1.312896 -0.396849 -2.369157
C -1.114114 -0.987887 -2.189977
C -0.958826 -1.440725 -2.131511
C -0.781674 -1.849993 -2.069267
C -0.716567 -2.325321 -2.049241
C -0.540089 -2.718681 -1.946584
C -0.392128 -2.990159 -1.852588
C -0.312217 -3.097078 -2.001097
C -0.253844 -2.959658 -2.157125
C -0.253314 -2.835814 -2.315060
C -0.233066 -2.734430 -2.314529
C -0.161362 -2.633118 -2.372506
C -0.235009 -2.457319 -2.455886
C -0.263016 -2.255899 -2.547867
C -0.287393 -1.957921 -2.484259
C -0.356758 -1.585974 -2.480644
C -0.483554 -1.176308 -2.315794
C -0.557805 -0.732134 -2.348833
C -0.721611 -0.206096 -2.282606
C -0.754472 0.327947 -2.267523
C -0.884937 0.743005 -2.416381
C -0.984818 1.056271 -2.587895
C -0.937977 1.143460 -2.787159
C -0.651184 0.862597 -2.983092
C -0.284173 0.495968 -3.189994
C 0.055774 -0.167500 -3.231943
C 0.343744 -0.839630 -3.262021
C 0.643889 -1.391827 -3.127913
C 1.157631 -1.900168 -3.097494
C 1.749581 -2.122200 -3.009246
C 1.065423 -2.127888 -2.087116
C 1.392611 -1.819426 -1.985045
C 1.823756 -1.271409 -2.074549
C 2.301871 -0.739221 -2.014043
C 1.770544 -0.831264 -1.211876
C 1.814482 -0.560572 -1.343178
C 1.535552 -0.587281 -1.396670
C 2.400350 -0.682151 -2.187610
C 2.066412 -0.974448 -2.048655
C 1.776337 -1.329281 -1.976034
C 1.438626 -1.632014 -2.019466
C 2.016865 -1.259275 -2.715048
C 1.754205 -1.215407 -2.320283
C 1.614632 -1.086812 -2.047141
C 1.455315 -0.750412 -1.920464
C 1.414662 -0.354454 -1.973413
C 1.308884 0.035692 -2.003302
C 1.229109 0.380002 -2.036286
C 1.242394 0.696394 -2.034529
C 1.085091 1.036931 -2.120202
C 0.917208 1.508177 -2.169966
C 0.835875 1.851006 -2.209123
C 0.680522 2.141775 -2.165820
C 0.483448 2.437431 -2.081580
C 0.317871 2.724865 -2.085595
C 0.232923 2.899751 -2.177701
C 0.473989 2.922038 -2.290548
C 0.737814 2.902655 -2.449151
C 0.950768 2.916452 -2.562690
C 1.241265 2.948997 -2.529935
C 1.548182 2.988896 -2.568640
C 1.695697 3.066581 -2.502678
C 1.865916 3.127220 -2.394837
C 1.837307 3.237276 -2.172017
C 1.641549 3.321566 -1.919944
C 1.422196 3.416856 -1.693324
C 1.037624 3.483096 -1.475270
C 0.767647 3.484824 -1.232095
C 0.506179 3.473172 -0.894463
C 0.222553 3.456448 -0.713280
C 0.009217 3.478314 -0.677783
C 0.055786 3.567655 -0.613268
C 0.087642 3.555856 -0.508818
C 0.219082 3.606956 -0.460244
C 0.344465 3.630973 -0.501831
C 0.565093 3.570062 -0.538704
C 0.704097 3.513661 -0.485666
C 1.041595 3.409674 -0.353485
C 1.269258 3.248680 -0.255464
C 1.484484 3.141140 -0.179214
C 1.639767 2.916937 -0.186587
C 1.696491 2.795386 -0.089903
C 1.843082 2.655241 -0.082347
C 2.025604 2.497050 -0.077955
C 1.943120 2.184417 -0.016032
C 1.805777 1.797569 0.027830
C 1.677565 1.314856 0.064566
C 1.752727 0.818810 0.063361
C 1.912059 0.439287 0.031579
C 2.012060 -0.096274 0.017267
C 2.034986 -0.542192 0.076478
C 2.205173 -0.886857 0.074243
C 2.402453 -0.932603 0.090104
C 2.559588 -0.812574 0.064491
C 2.591282 -0.722711 0.115823
C 2.600879 -0.807275 0.140861
C 2.681443 -0.681379 0.219882
C 2.906665 -0.607237 0.140384
C 3.018231 -0.422344 0.100034
C 2.931340 -0.328862 0.069304
C 2.993045 -0.385796 0.146648
C 3.109161 -0.459332 0.231054
C 3.087402 -0.597785 0.283215
C 3.018199 -0.559049 0.369512
C 2.863634 -0.751404 0.489372
C 2.791145 -1.128230 0.568014
C 2.909693 -1.633776 0.638095
C 2.814134 -1.968065 0.669576
C 2.615704 -2.305797 0.766787
C 2.489933 -2.472104 0.890156
C 2.297386 -2.726559 0.928288
C 2.159256 -2.740443 1.020771
C 2.021826 -2.616554 1.151035
C 1.979411 -2.346618 1.264741
C 1.912273 -2.053382 1.309254
C 2.021498 -1.694700 1.354274
C 2.056060 -1.285012 1.397310
C 2.247116 -0.949022 1.489700
C 2.348782 -0.599187 1.525148
C 2.368341 -0.314235 1.579908
C 2.396013 -0.394840 1.678820
C 2.526061 -0.598204 1.793656
C 2.355712 -0.869167 1.832738
C 2.222023 -1.160146 1.874948
C 1.982503 -1.518843 1.929131
C 1.854936 -1.879162 2.011074
C 1.725396 -2.194655 2.030745
C 1.547484 -2.296222 2.124320
C 1.458072 -2.256973 2.170354
C 1.486525 -2.119162 2.248992
C 1.500887 -2.004611 2.325409
C 1.544030 -1.732684 2.402108
C 1.471629 -1.496744 2.370392
C 1.407770 -1.434253 2.506741
C 1.252980 -1.345510 2.524782
C 1.150177 -1.319948 2.569508
C 1.063935 -1.354295 2.630186
C 0.955666 -1.457576 2.660725
C 0.816074 -1.659075 2.681857
C 0.833226 -1.729377 2.804922
C 0.757865 -1.847259 2.776696
C 0.878054 -1.711194 2.701556
C 1.016099 -1.472490 2.720033
C 1.196697 -0.967303 2.580590
C 1.423470 -0.579729 2.575664
C 1.309940 -0.536677 2.641590
C 1.176119 -0.530777 2.722811
C 1.452939 0.053826 2.768012
C 1.132006 -0.000553 2.877541
C 1.000786 0.033074 2.866281
C 0.929074 0.037563 2.895217
C 0.860293 0.192732 2.916420
C 0.989354 0.576217 2.844800
C 1.083220 0.881840 2.694970
C 0.895977 0.818836 2.567709
C 1.134191 1.075622 2.450726
C 1.032850 1.050605 2.553720
C 0.883287 1.041111 2.627030
C 0.754153 1.069233 2.544905
C 0.710008 1.185785 2.482768
C 0.657539 1.367786 2.436540
C 0.594564 1.679720 2.379830
C 0.493036 2.025449 2.244850
C 0.404848 2.499101 1.907660
C 0.297574 2.815472 1.732303
C 0.219868 3.036103 1.700863
C 0.130767 3.148634 1.615990
C 0.045417 3.204700 1.594887
C -0.092786 3.123745 1.626973
C -0.225162 3.109030 1.738030
C -0.381512 2.903521 1.940125
C -0.520802 2.626923 2.149216
C -0.616125 2.365293 2.228284
C -0.642121 2.235904 2.256621
C -0.837618 1.927591 2.450029
C -0.908226 1.610193 2.697336
C -0.872532 1.404544 2.834986
C -0.699858 1.305568 2.854216
C -0.591269 1.310432 2.744939
C -0.577095 1.344190 2.762914
C -0.535152 1.202646 2.925815
C -0.374430 1.132773 2.942738
C -0.336931 0.968010 2.898889
C -0.225317 0.753375 2.809104
C -0.279442 0.616998 2.808539
C -0.293914 0.338987 3.014050
C -0.285649 0.070901 3.130447
C -0.286648 0.103821 3.115281
C -0.360053 0.204562 3.008741
C -0.349015 0.325480 2.905466
C -0.497529 0.380950 2.953504
C -0.585256 0.293007 2.965825
C -0.685109 0.315959 2.858889
C -0.785414 0.434946 2.819949
C -0.935030 0.346887 2.765322
C -1.071257 0.396046 2.783552
C -1.213785 0.458808 2.795756
C -1.517502 0.599570 2.804477
C -1.612562 0.720789 2.806471
C -1.715146 0.849271 2.788207
C -1.872830 0.873849 2.732315
