291
chr8 3D structure from Hi-C (resolution 500000bp)
C -4.199462 1.746085 -0.113853
C -4.221395 2.113382 -0.200052
C -4.181795 1.963896 -0.526574
C -4.037051 1.789215 -0.745310
C -3.911048 1.966625 -1.023980
C -3.761373 2.072105 -1.196169
C -3.627633 1.614845 -1.598637
C -3.468782 1.160649 -1.960927
C -3.251359 0.762741 -2.222231
C -3.095905 0.539811 -2.098750
C -3.051974 0.302110 -1.895512
C -3.214704 0.267371 -1.654654
C -3.486324 0.445586 -1.199916
C -3.437175 -0.001418 -0.799319
C -3.360233 -0.465830 -0.400687
C -3.359503 -0.814052 -0.043177
C -3.348535 -0.999531 0.140474
C -3.334205 -0.991432 0.189762
C -3.144277 -1.231936 0.296499
C -2.742193 -1.829594 0.203752
C -2.685308 -1.748819 0.161434
C -3.047270 -1.534767 0.158559
C -3.039324 -1.490079 -0.008736
C -2.956527 -1.277763 -0.298587
C -2.917229 -1.136114 -0.645783
C -2.826067 -0.829110 -1.037547
C -2.820284 -0.414132 -1.525117
C -2.839640 -0.149935 -1.952053
C -2.491934 0.015294 -2.470162
C -2.484313 0.200423 -2.750178
C -2.521306 0.207555 -2.894077
C -2.475960 0.081580 -2.789760
C -2.477051 -0.161189 -2.655524
C -2.480153 -0.388797 -2.475543
C -2.482121 -0.421103 -2.310339
C -2.487138 -0.585149 -2.088621
C -2.477447 -0.704629 -1.765669
C -2.456566 -0.844310 -1.444805
C -2.529352 -0.864669 -1.305077
C -2.595368 -0.893423 -1.112686
C -2.642752 -1.003002 -0.908286
C -2.512512 -1.338020 -0.622188
C -2.398643 -1.646991 -0.321277
C -2.298873 -1.887388 -0.165315
C -2.264960 -2.011012 -0.206204
C -2.200287 -2.153717 -0.176775
C -2.142512 -2.222841 -0.312105
C -2.052109 -2.252817 -0.434554
C -2.106919 -2.120005 -0.702819
C -2.111973 -2.049612 -0.892649
C -2.098679 -1.984562 -1.052327
C -2.039343 -2.004672 -0.929849
C -1.936929 -2.099957 -0.796091
C -1.810648 -2.305534 -0.540672
C -1.650119 -2.525719 -0.281033
C -1.482272 -2.764506 0.041399
C -1.379717 -2.876076 0.249631
C -1.310364 -2.973628 0.328702
C -1.212189 -3.012493 0.341934
C -1.141942 -2.965427 0.107538
C -1.081451 -2.734923 -0.365994
C -1.150580 -2.413878 -0.804454
C -1.150705 -2.178005 -1.270861
C -1.164589 -1.934861 -1.650568
C -1.164009 -1.791612 -1.933156
C -1.241529 -1.590876 -2.362527
C -1.281135 -1.372871 -2.604482
C -1.338735 -1.245246 -2.643131
C -1.354565 -1.170891 -2.692971
C -1.438101 -0.970283 -2.811957
C -1.462032 -0.938480 -2.939731
C -1.458728 -0.968750 -2.877532
C -1.392753 -1.179419 -2.544964
C -1.338205 -1.513222 -2.145720
C -1.248543 -1.809310 -1.755154
C -1.150319 -2.336910 -1.550596
C -1.009699 -2.865773 -1.306045
C -0.961489 -2.842160 -1.179431
C -0.937339 -2.747874 -1.253783
C -0.948234 -2.671788 -1.351549
C -0.921228 -2.630080 -1.402108
C -0.903097 -2.642297 -1.313789
C -0.882593 -2.401551 -1.198888
C -0.899132 -2.134928 -1.278533
C -1.028208 -1.747807 -1.514444
C -1.275672 -0.857027 -1.355784
C -1.479860 0.129953 -1.337034
C -1.692023 1.235758 -1.519016
C -1.874958 2.239602 -1.978148
C -1.953308 2.879204 -2.422514
C -1.934236 3.249970 -2.567919
C -1.692209 2.878166 -2.306668
C -1.296716 1.916773 -2.242529
C -0.954418 1.137176 -2.267832
C -0.657642 0.406934 -2.280044
C -0.343785 -0.227205 -2.196118
C -0.104566 -0.423308 -2.133614
C 0.053490 -0.445053 -2.167913
C 0.165188 -0.194911 -2.404257
C 0.289342 0.015864 -2.740510
C 0.410175 -0.157483 -2.740511
C 0.493648 -0.231085 -2.720394
C 0.528555 -0.307410 -2.585288
C 0.533580 -0.356802 -2.454642
C 0.591592 -0.706957 -2.136646
C 0.635738 -1.028632 -1.828081
C 0.646301 -1.064241 -1.727528
C 0.652458 -0.942200 -1.787174
C 0.690723 -1.125547 -1.584242
C 0.750424 -1.200798 -1.564778
C 0.813639 -1.292361 -1.530886
C 0.902126 -1.164966 -1.706434
C 0.971404 -1.116567 -1.805833
C 1.041120 -1.368800 -1.465633
C 1.171412 -1.526326 -1.330738
C 1.312561 -1.474137 -1.528406
C 1.479641 -1.488624 -1.626116
C 1.612011 -1.661264 -1.503570
C 1.572878 -1.838522 -1.123219
C 1.621792 -1.948119 -0.949657
C 1.690308 -1.818908 -1.134839
C 1.702831 -1.604699 -1.338393
C 1.733510 -1.431093 -1.396177
C 1.696741 -1.381376 -1.309958
C 1.762250 -1.239704 -1.372217
C 1.907981 -0.979999 -1.679580
C 1.899005 -0.926213 -1.639946
C 1.926770 -0.800808 -1.711792
C 1.873886 -1.019623 -1.347076
C 1.793371 -1.243816 -0.989737
C 1.779207 -1.424173 -0.746502
C 1.714016 -1.619676 -0.463277
C 1.628907 -1.646723 -0.317194
C 1.681775 -1.381279 -0.515861
C 1.651289 -1.193574 -0.584462
C 1.665925 -0.794945 -0.883846
C 1.756005 -0.700839 -0.937712
C 1.796625 -0.653867 -0.896769
C 1.901186 -0.559564 -0.971315
C 1.974040 -0.398373 -1.045196
C 2.001168 -0.606066 -0.820413
C 2.092947 -0.848708 -0.606807
C 2.209267 -1.000332 -0.501511
C 2.181219 -0.964282 -0.456427
C 2.151982 -0.887764 -0.480974
C 2.106901 -0.720937 -0.547288
C 2.082788 -0.614516 -0.606382
C 2.196556 -0.393967 -0.742289
C 2.283050 -0.312745 -0.749050
C 2.358519 -0.195453 -0.827687
C 2.536988 -0.090055 -0.933387
C 2.713503 0.163751 -1.197211
C 2.748754 0.359266 -1.380091
C 2.842348 0.339057 -1.363419
C 2.762947 0.270599 -1.231587
C 2.709546 0.461332 -1.244496
C 2.633374 0.268734 -0.933785
C 2.475238 0.145558 -0.728815
C 2.389983 0.046925 -0.480196
C 2.360336 -0.220978 -0.109347
C 2.251138 -0.286454 0.088255
C 2.235947 -0.035803 -0.057497
C 2.135068 0.103894 -0.163101
C 2.007760 0.526130 -0.486247
C 1.898845 0.974609 -0.823355
C 1.783683 1.303764 -1.089272
C 1.667434 1.660881 -1.390439
C 1.594717 1.701672 -1.411469
C 1.372087 1.849902 -1.433113
C 1.244264 1.741469 -1.279719
C 1.229586 1.651186 -1.099601
C 1.224129 1.750819 -1.085633
C 1.157031 1.823461 -1.012617
C 1.140878 1.926369 -0.922840
C 1.186863 2.206998 -1.033877
C 1.336473 2.169925 -0.960418
C 1.525875 1.976657 -0.772078
C 1.757103 1.908538 -0.678505
C 1.953277 1.616905 -0.425721
C 2.126457 1.419269 -0.232090
C 2.263545 1.376189 -0.197365
C 2.346985 1.232039 -0.061591
C 2.429663 1.102420 0.079574
C 2.345122 1.332568 -0.048118
C 2.157284 1.170541 0.094663
C 2.032505 0.951050 0.299796
C 1.836441 0.636608 0.529148
C 1.692284 0.233413 0.860421
C 1.571597 0.064193 1.063756
C 1.409411 -0.171764 1.285316
C 1.239721 -0.141018 1.353278
C 1.149963 0.004232 1.317841
C 1.064051 0.019256 1.335917
C 1.092615 0.022295 1.368443
C 1.148990 -0.072233 1.471391
C 1.195083 -0.410034 1.656589
C 1.222765 -0.589324 1.739945
C 1.300658 -1.096137 2.024461
C 1.327049 -1.511618 2.272533
C 1.281363 -1.610755 2.382243
C 1.314515 -1.664378 2.476606
C 1.243367 -1.764458 2.517586
C 1.202115 -1.701612 2.510619
C 1.249161 -1.553062 2.492395
C 1.426913 -1.204239 2.402224
C 1.615758 -0.883733 2.276529
C 1.834479 -0.643221 2.152826
C 2.004833 -0.199993 1.893881
C 2.205959 0.344202 1.672002
C 2.367091 0.722327 1.525912
C 2.493227 0.891874 1.449129
C 2.491449 1.084574 1.323985
C 2.474741 1.358980 1.226514
C 2.489231 1.496615 1.208865
C 2.488972 1.468243 1.299972
C 2.426988 1.385622 1.391200
C 2.380661 1.424850 1.391906
C 2.285873 1.705664 1.280141
C 2.127244 1.876541 1.208622
C 2.094351 1.944038 1.194464
C 1.983088 2.189535 1.047671
C 1.843660 2.431698 0.886514
C 1.766962 2.728257 0.766803
C 1.722871 2.907796 0.786972
C 1.713071 2.848862 0.940829
C 1.744532 2.846634 1.101746
C 1.637273 2.931842 1.107338
C 1.668043 2.804045 1.344812
C 1.599022 2.800023 1.459389
C 1.485612 2.760041 1.465594
C 1.427108 2.531405 1.549643
C 1.331975 2.519450 1.563765
C 1.270952 2.239842 1.674881
C 1.262228 1.852347 1.875041
C 1.206246 1.637927 1.912645
C 1.155857 1.475154 2.006927
C 1.176201 1.215874 2.208698
C 1.099970 1.313706 2.169616
C 1.055696 1.237125 2.206281
C 0.947533 1.456123 2.056252
C 0.858987 1.721158 1.971996
C 0.774685 1.993750 1.863665
C 0.779377 1.816052 1.947304
C 0.678791 1.598361 2.037451
C 0.589810 1.358664 2.157874
C 0.504231 1.137869 2.234822
C 0.474473 0.735898 2.470139
C 0.414988 0.347551 2.687852
C 0.321363 0.086663 2.867749
C 0.200609 0.260359 2.851886
C 0.133188 0.554423 2.836630
C 0.140812 0.590493 2.903673
C 0.182556 0.554418 2.983272
C 0.191105 0.711168 3.024905
C -0.075047 1.152217 3.039427
C -0.139813 1.298591 3.001958
C -0.117983 1.155113 3.089054
C -0.099530 0.975904 3.075483
C -0.200082 1.191595 2.885004
C -0.312911 1.577063 2.719874
C -0.389931 1.657561 2.605829
C -0.207853 1.489935 2.434768
C -0.245372 1.419933 2.389674
C -0.345138 1.390158 2.377175
C -0.404053 1.470992 2.383790
C -0.432292 1.428400 2.477330
C -0.478019 1.210462 2.542600
C -0.496474 1.334778 2.457843
C -0.576682 1.460373 2.395160
C -0.593249 1.597122 2.314485
C -0.650244 1.869934 2.187017
C -0.663883 2.184621 1.980479
C -0.716396 2.341593 1.842800
C -0.770094 2.564716 1.674270
C -0.849647 2.477409 1.677006
C -0.878759 2.343809 1.715198
C -0.933230 2.153690 1.824945
C -0.919469 1.764178 1.918160
C -0.949108 1.206074 2.205706
C -1.019483 0.695254 2.514020
C -1.187057 0.326010 2.791733
C -1.325506 0.121695 3.038731
C -1.421662 -0.142203 3.290652
C -1.573997 -0.380540 3.475550
C -1.865944 -0.497703 3.708260
C -2.101692 -0.611887 3.750878
C -2.280157 -0.546293 3.752381
C -2.555718 -0.450793 3.787037
C -2.644152 -0.577177 3.841646
C -2.811753 -0.642554 3.864300
C -2.981546 -0.575412 3.842272
