291
chr8 3D structure from Hi-C (resolution 500000bp)
C -2.477480 3.411805 2.346809
C -2.582890 3.702779 2.166402
C -2.814536 3.446319 2.120742
C -2.938677 3.140403 1.997887
C -3.072971 3.170205 1.724024
C -3.201688 3.125981 1.437825
C -3.447890 2.546600 1.398982
C -3.654649 1.937115 1.431154
C -3.730963 1.400037 1.437339
C -3.559083 1.131584 1.482941
C -3.309017 0.991692 1.658448
C -3.118936 1.045577 2.019825
C -2.756843 1.449744 2.425402
C -2.300825 1.187298 2.791266
C -1.839930 0.922519 3.029177
C -1.509540 0.786459 3.293984
C -1.290785 0.707344 3.455693
C -1.235679 0.691313 3.510879
C -1.033604 0.419835 3.452288
C -0.941905 -0.241445 3.379801
C -0.983903 -0.186478 3.267713
C -1.165345 0.166845 3.478782
C -1.332600 0.161441 3.297189
C -1.613897 0.232650 2.987796
C -1.938839 0.233388 2.701889
C -2.389735 0.300776 2.333472
C -2.857422 0.458212 1.954887
C -3.298842 0.499253 1.637986
C -3.632997 0.311461 1.100634
C -3.844569 0.336402 0.990918
C -3.918512 0.309608 1.009201
C -3.773895 0.273751 1.105066
C -3.552266 0.121558 1.250688
C -3.356357 -0.035369 1.430415
C -3.189327 -0.096081 1.515231
C -2.990588 -0.204013 1.665944
C -2.722837 -0.294809 1.795691
C -2.421589 -0.311315 1.991301
C -2.320154 -0.287165 2.141132
C -2.193173 -0.239289 2.246826
C -2.003243 -0.279589 2.358826
C -1.656635 -0.405409 2.601464
C -1.268660 -0.573286 2.811741
C -1.052228 -0.719215 2.930975
C -1.052283 -0.890254 2.913339
C -1.032683 -1.038235 2.923219
C -1.100669 -1.132695 2.895698
C -1.169537 -1.224065 2.849984
C -1.459506 -1.253603 2.691739
C -1.643656 -1.231515 2.556198
C -1.742901 -1.237093 2.473824
C -1.624473 -1.279688 2.475181
C -1.403287 -1.348036 2.470838
C -1.066286 -1.467121 2.569751
C -0.770620 -1.607966 2.646847
C -0.363780 -1.710181 2.762058
C -0.177364 -1.874080 2.813377
C -0.031099 -1.923801 2.819321
C -0.012283 -1.980849 2.774737
C -0.198160 -2.059974 2.648281
C -0.692243 -1.925872 2.222337
C -1.124367 -1.885535 1.930816
C -1.513013 -1.870547 1.645473
C -1.833654 -1.801077 1.424342
C -2.165462 -1.795389 1.215225
C -2.559729 -1.727124 0.970188
C -2.838932 -1.571261 0.800507
C -2.875257 -1.600891 0.842260
C -2.964967 -1.484889 0.797205
C -3.159295 -1.391211 0.720222
C -3.319296 -1.270860 0.612332
C -3.258313 -1.274007 0.657112
C -2.946111 -1.355737 0.858303
C -2.471783 -1.587358 1.111246
C -2.030565 -1.752781 1.363742
C -1.769016 -2.072328 1.589916
C -1.504044 -2.419112 1.802119
C -1.416117 -2.486981 1.846600
C -1.492437 -2.356526 1.769305
C -1.549062 -2.223211 1.673245
C -1.597679 -2.146714 1.609082
C -1.549020 -2.150686 1.584794
C -1.420555 -1.972241 1.493264
C -1.514582 -1.690743 1.290470
C -1.774097 -1.355813 1.065275
C -1.847486 -0.506117 0.858966
C -2.041175 0.395321 0.539788
C -2.423286 1.354776 0.040135
C -2.967489 2.255413 -0.523584
C -3.479261 2.658093 -0.929134
C -3.562088 2.889188 -1.139239
C -3.207900 2.605764 -1.049903
C -2.839093 1.600142 -0.848750
C -2.629813 0.652793 -0.725869
C -2.449880 -0.223695 -0.598056
C -2.177130 -1.014102 -0.450650
C -1.975187 -1.218936 -0.533277
C -1.952431 -1.341188 -0.673831
C -2.088716 -1.373472 -0.944502
C -2.294993 -1.417787 -1.198498
C -2.238066 -1.542142 -1.257014
C -2.167135 -1.525685 -1.302129
C -2.081836 -1.569718 -1.270112
C -1.907625 -1.710856 -1.123125
C -1.505198 -1.929487 -0.816666
C -1.172462 -1.993439 -0.538154
C -1.118549 -1.876569 -0.573112
C -1.136692 -1.700199 -0.630621
C -0.867075 -1.857825 -0.420725
C -0.701347 -1.944999 -0.325431
C -0.601190 -1.914704 -0.343493
C -0.722727 -1.994789 -0.511901
C -0.739763 -2.123588 -0.696032
C -0.432171 -2.339481 -0.520577
C -0.221009 -2.575748 -0.457297
C -0.353706 -2.605632 -0.710625
C -0.424920 -2.635981 -0.916948
C -0.362617 -2.774553 -0.925166
C -0.061049 -2.718107 -0.734190
C 0.083384 -2.700416 -0.619672
C 0.022631 -2.678345 -0.775942
C -0.197983 -2.582938 -1.005666
C -0.243555 -2.511401 -1.101502
C -0.136924 -2.469453 -1.019888
C -0.234867 -2.340337 -1.191540
C -0.498784 -2.266004 -1.574170
C -0.430645 -2.217799 -1.594224
C -0.525969 -2.040981 -1.652229
C -0.178452 -2.073932 -1.346097
C 0.153765 -2.135203 -1.096916
C 0.335953 -2.135855 -0.942482
C 0.677250 -2.213180 -0.592745
C 0.773070 -2.110990 -0.419303
C 0.572882 -2.002571 -0.606496
C 0.475673 -1.892271 -0.757888
C 0.150021 -1.693135 -1.119005
C 0.103241 -1.650919 -1.237533
C 0.137158 -1.609944 -1.234246
C 0.059617 -1.603806 -1.479672
C 0.068080 -1.646288 -1.653301
C 0.307056 -1.723238 -1.543434
C 0.613322 -1.899826 -1.453073
C 0.874627 -2.035811 -1.353429
C 0.843653 -1.929988 -1.338283
C 0.837995 -1.913876 -1.383715
C 0.761396 -1.783507 -1.463242
C 0.690001 -1.704333 -1.541980
C 0.562953 -1.617929 -1.784484
C 0.533861 -1.574720 -1.915303
C 0.440765 -1.488406 -2.174776
C 0.458444 -1.536629 -2.396605
C 0.367486 -1.518752 -2.821525
C 0.262207 -1.487133 -2.990904
C 0.282678 -1.444875 -3.029722
C 0.400693 -1.394167 -2.906371
C 0.257143 -1.243412 -2.934482
C 0.433600 -1.266054 -2.641818
C 0.546800 -1.233261 -2.389993
C 0.648081 -1.162848 -2.146268
C 0.943233 -1.227608 -1.855758
C 1.068086 -1.181117 -1.700062
C 0.894192 -1.052370 -1.915443
C 0.867639 -0.957454 -1.959310
C 0.510474 -0.719059 -2.171457
C 0.168446 -0.462613 -2.502711
C -0.139014 -0.192871 -2.764490
C -0.419391 0.068721 -2.961687
C -0.510792 0.182933 -2.935486
C -0.725683 0.435238 -2.774674
C -0.726880 0.510682 -2.547253
C -0.623319 0.581577 -2.379671
C -0.672735 0.721595 -2.400123
C -0.716124 0.814927 -2.326726
C -0.785816 0.965248 -2.321567
C -0.906827 1.152120 -2.491067
C -0.770065 1.117966 -2.555595
C -0.419010 0.891724 -2.482742
C -0.308910 0.880454 -2.655685
C -0.040920 0.720155 -2.553083
C 0.224826 0.561552 -2.482823
C 0.382123 0.524079 -2.538767
C 0.511564 0.493046 -2.438988
C 0.628546 0.448438 -2.392662
C 0.422985 0.706208 -2.517510
C 0.655572 0.568510 -2.200271
C 0.837999 0.456301 -1.873692
C 1.076871 0.315184 -1.548846
C 1.364293 0.053743 -1.151227
C 1.519452 -0.063585 -1.036624
C 1.700379 -0.165531 -0.731292
C 1.721792 -0.116583 -0.591942
C 1.579864 0.059978 -0.592008
C 1.598590 0.090879 -0.511641
C 1.624442 0.113960 -0.476184
C 1.755806 0.016453 -0.363810
C 2.089118 -0.230931 -0.141542
C 2.351402 -0.459313 -0.067125
C 2.673211 -0.764617 0.209386
C 3.004570 -1.068131 0.428752
C 3.120987 -1.134087 0.519580
C 3.181146 -1.154227 0.555501
C 3.223515 -1.141527 0.592983
C 3.176146 -1.120027 0.642242
C 3.101591 -1.004677 0.535169
C 3.029057 -0.907527 0.173177
C 2.944397 -0.772460 -0.134845
C 2.871980 -0.654600 -0.472333
C 2.649529 -0.431317 -0.974537
C 2.413133 -0.148012 -1.501807
C 2.273910 0.090111 -1.860026
C 2.219086 0.178939 -2.049122
C 2.116974 0.375795 -2.180310
C 1.947123 0.567050 -2.370914
C 1.861947 0.690954 -2.491247
C 1.950612 0.701477 -2.408872
C 2.049177 0.650597 -2.282100
C 2.097120 0.617230 -2.301128
C 1.909947 0.887676 -2.443078
C 1.802715 1.055287 -2.460634
C 1.722737 1.257634 -2.409839
C 1.608631 1.464957 -2.440284
C 1.408173 1.693656 -2.450461
C 1.275665 1.944280 -2.581930
C 1.143050 2.226065 -2.664565
C 1.249391 2.239821 -2.557642
C 1.418456 2.237456 -2.461261
C 1.586603 2.188148 -2.482993
C 1.798865 2.090447 -2.377603
C 2.011177 2.037741 -2.320878
C 2.014517 2.108608 -2.195224
C 2.147469 1.918122 -1.957872
C 2.219670 1.838372 -1.844248
C 2.308426 1.676287 -1.680945
C 2.402886 1.489786 -1.409618
C 2.425340 1.372566 -1.262204
C 2.418419 1.367124 -1.101894
C 2.571311 1.163310 -0.894078
C 2.572034 1.247729 -0.858474
C 2.595516 1.254766 -0.803175
C 2.344104 1.487109 -0.836922
C 2.135839 1.728664 -0.926002
C 2.019939 1.939592 -0.949583
C 2.034774 1.819299 -0.798946
C 2.067308 1.731388 -0.631817
C 2.111822 1.644747 -0.426639
C 2.156761 1.535501 -0.179973
C 2.436019 1.256973 0.151528
C 2.717409 0.967109 0.492913
C 2.805262 0.907552 0.665727
C 2.736437 1.119740 0.642519
C 2.654910 1.374818 0.584291
C 2.725954 1.394220 0.633195
C 2.782976 1.444482 0.624936
C 2.785118 1.579008 0.561012
C 2.629255 2.108476 0.562676
C 2.632396 2.197488 0.525095
C 2.732775 2.076218 0.621858
C 2.815386 1.931692 0.661424
C 2.579172 2.118509 0.553609
C 2.394111 2.390564 0.419189
C 2.233911 2.502926 0.364446
C 2.144696 2.239840 0.221863
C 2.053046 2.196722 0.321416
C 1.995548 2.235460 0.383456
C 1.893695 2.321257 0.442503
C 1.868829 2.324338 0.495373
C 1.902234 2.161505 0.646043
C 1.823907 2.214529 0.596046
C 1.752944 2.326857 0.566370
C 1.657910 2.413959 0.413685
C 1.482359 2.568190 0.215217
C 1.270665 2.813040 -0.031168
C 1.163297 2.959141 -0.193714
C 0.960032 3.157298 -0.335676
C 0.903548 3.142365 -0.248516
C 0.918245 3.034961 -0.093663
C 0.965557 2.925130 0.175093
C 1.142830 2.696989 0.489938
C 1.428994 2.296507 0.909777
C 1.741596 1.923638 1.407203
C 1.949423 1.720477 1.808779
C 2.148526 1.578364 2.141967
C 2.345763 1.423707 2.460660
C 2.525650 1.299196 2.773502
C 2.537375 1.426907 3.148426
C 2.539301 1.521744 3.394443
C 2.477616 1.656888 3.521872
C 2.325066 1.921786 3.722271
C 2.325171 1.951241 3.864419
C 2.293611 2.072220 3.998169
C 2.132595 2.323061 4.049787
